   2   2   0   0
  0.2002393E+02  0.3840297E-09  0.3840297E-09  0.3840297E-09  0.5000000E-15
   1.0000000000000000E-004
  CAR 
 unknown system                          
     16.06061068     -7.20705817  301      5.75012492      1.00000000
     -7.207  0.0000E+00  0.0000E+00
     -7.129  0.0000E+00  0.0000E+00
     -7.052  0.0000E+00  0.0000E+00
     -6.974  0.0000E+00  0.0000E+00
     -6.897  0.0000E+00  0.0000E+00
     -6.819  0.0000E+00  0.0000E+00
     -6.742  0.0000E+00  0.0000E+00
     -6.664  0.0000E+00  0.0000E+00
     -6.587  0.0000E+00  0.0000E+00
     -6.509  0.0000E+00  0.0000E+00
     -6.431  0.2423E-18  0.1879E-19
     -6.354  0.1229E-11  0.9533E-13
     -6.276  0.5558E-07  0.4311E-08
     -6.199  0.2726E-04  0.2119E-05
     -6.121  0.2385E-03  0.2062E-04
     -6.044  0.2848E-03  0.4271E-04
     -5.966  0.7207E-03  0.9860E-04
     -5.889  0.5146E-03  0.1385E-03
     -5.811  0.6007E-03  0.1851E-03
     -5.733  0.8787E-03  0.2533E-03
     -5.656  0.7319E-03  0.3100E-03
     -5.578  0.1475E-02  0.4245E-03
     -5.501  0.6465E-03  0.4746E-03
     -5.423  0.6384E-03  0.5241E-03
     -5.346  0.1235E-02  0.6199E-03
     -5.268  0.1210E-02  0.7137E-03
     -5.191  0.2194E-02  0.8839E-03
     -5.113  0.7965E-03  0.9456E-03
     -5.035  0.7334E-03  0.1003E-02
     -4.958  0.1663E-02  0.1131E-02
     -4.880  0.1367E-02  0.1238E-02
     -4.803  0.1911E-02  0.1386E-02
     -4.725  0.1038E-02  0.1466E-02
     -4.648  0.2059E-02  0.1626E-02
     -4.570  0.2055E-02  0.1785E-02
     -4.492  0.1809E-02  0.1926E-02
     -4.415  0.1812E-02  0.2066E-02
     -4.337  0.2015E-02  0.2222E-02
     -4.260  0.6607E-03  0.2274E-02
     -4.182  0.1712E-02  0.2406E-02
     -4.105  0.3451E-02  0.2674E-02
     -4.027  0.3315E-02  0.2931E-02
     -3.950  0.2530E-02  0.3127E-02
     -3.872  0.2468E-02  0.3319E-02
     -3.794  0.2684E-02  0.3527E-02
     -3.717  0.3018E-02  0.3761E-02
     -3.639  0.2540E-02  0.3958E-02
     -3.562  0.4030E-02  0.4271E-02
     -3.484  0.7548E-03  0.4329E-02
     -3.407  0.1270E-02  0.4428E-02
     -3.329  0.3168E-02  0.4673E-02
     -3.252  0.3205E-02  0.4922E-02
     -3.174  0.4207E-02  0.5248E-02
     -3.096  0.2563E-02  0.5447E-02
     -3.019  0.1001E-02  0.5525E-02
     -2.941  0.1719E-02  0.5658E-02
     -2.864  0.8816E-03  0.5727E-02
     -2.786  0.9624E-03  0.5801E-02
     -2.709  0.1073E-02  0.5884E-02
     -2.631  0.1048E-02  0.5966E-02
     -2.554  0.2752E-02  0.6179E-02
     -2.476  0.2630E-02  0.6383E-02
     -2.398  0.2305E-02  0.6562E-02
     -2.321  0.1297E-02  0.6662E-02
     -2.243  0.5456E-04  0.6667E-02
     -2.166  0.3807E-07  0.6667E-02
     -2.088  0.2734E-12  0.6667E-02
     -2.011  0.0000E+00  0.6667E-02
     -1.933  0.1118E-18  0.6667E-02
     -1.855  0.1045E-11  0.6667E-02
     -1.778  0.8782E-07  0.6667E-02
     -1.700  0.9922E-04  0.6674E-02
     -1.623  0.2881E-02  0.6898E-02
     -1.545  0.4637E-02  0.7257E-02
     -1.468  0.1292E-02  0.7358E-02
     -1.390  0.1119E-02  0.7444E-02
     -1.313  0.3453E-03  0.7471E-02
     -1.235  0.1860E-02  0.7616E-02
     -1.157  0.2266E-02  0.7791E-02
     -1.080  0.5085E-02  0.8186E-02
     -1.002  0.4738E-02  0.8553E-02
     -0.925  0.2793E-02  0.8770E-02
     -0.847  0.5093E-02  0.9165E-02
     -0.770  0.4982E-02  0.9551E-02
     -0.692  0.1811E-02  0.9692E-02
     -0.615  0.1402E-02  0.9800E-02
     -0.537  0.6790E-03  0.9853E-02
     -0.459  0.3778E-02  0.1015E-01
     -0.382  0.4294E-02  0.1048E-01
     -0.304  0.5344E-03  0.1052E-01
     -0.227  0.3002E-05  0.1052E-01
     -0.149  0.2484E-03  0.1054E-01
     -0.072  0.1746E-02  0.1068E-01
      0.006  0.1174E-02  0.1077E-01
      0.083  0.3025E-02  0.1100E-01
      0.161  0.2863E-02  0.1122E-01
      0.239  0.1517E-02  0.1134E-01
      0.316  0.5138E-03  0.1138E-01
      0.394  0.4660E-03  0.1142E-01
      0.471  0.5169E-03  0.1146E-01
      0.549  0.1805E-03  0.1147E-01
      0.626  0.1795E-02  0.1161E-01
      0.704  0.3162E-02  0.1186E-01
      0.782  0.1234E-02  0.1195E-01
      0.859  0.2484E-04  0.1195E-01
      0.937  0.1142E-07  0.1195E-01
      1.014  0.1335E-04  0.1195E-01
      1.092  0.7694E-03  0.1201E-01
      1.169  0.1176E-02  0.1211E-01
      1.247  0.1794E-03  0.1212E-01
      1.324  0.1701E-02  0.1225E-01
      1.402  0.2953E-02  0.1248E-01
      1.480  0.4265E-02  0.1281E-01
      1.557  0.2977E-02  0.1304E-01
      1.635  0.1630E-02  0.1317E-01
      1.712  0.3128E-02  0.1341E-01
      1.790  0.3696E-02  0.1370E-01
      1.867  0.5317E-02  0.1411E-01
      1.945  0.2939E-02  0.1434E-01
      2.022  0.4183E-02  0.1466E-01
      2.100  0.4172E-02  0.1499E-01
      2.178  0.2044E-02  0.1514E-01
      2.255  0.5244E-02  0.1555E-01
      2.333  0.2458E-02  0.1574E-01
      2.410  0.3170E-02  0.1599E-01
      2.488  0.4082E-02  0.1630E-01
      2.565  0.2962E-02  0.1653E-01
      2.643  0.2897E-02  0.1676E-01
      2.720  0.5927E-02  0.1722E-01
      2.798  0.7714E-02  0.1782E-01
      2.876  0.4801E-02  0.1819E-01
      2.953  0.2645E-02  0.1839E-01
      3.031  0.3006E-02  0.1863E-01
      3.108  0.7827E-02  0.1923E-01
      3.186  0.4068E-02  0.1955E-01
      3.263  0.6665E-02  0.2007E-01
      3.341  0.2581E-02  0.2027E-01
      3.419  0.2499E-02  0.2046E-01
      3.496  0.4816E-02  0.2083E-01
      3.574  0.8538E-02  0.2150E-01
      3.651  0.6224E-02  0.2198E-01
      3.729  0.3933E-02  0.2228E-01
      3.806  0.2965E-02  0.2251E-01
      3.884  0.1299E-02  0.2261E-01
      3.961  0.2941E-02  0.2284E-01
      4.039  0.5696E-02  0.2328E-01
      4.117  0.5304E-02  0.2370E-01
      4.194  0.6029E-02  0.2416E-01
      4.272  0.3624E-02  0.2444E-01
      4.349  0.2974E-02  0.2468E-01
      4.427  0.3374E-02  0.2494E-01
      4.504  0.9906E-03  0.2501E-01
      4.582  0.3493E-02  0.2528E-01
      4.659  0.4854E-02  0.2566E-01
      4.737  0.2721E-02  0.2587E-01
      4.815  0.8845E-03  0.2594E-01
      4.892  0.6401E-03  0.2599E-01
      4.970  0.7134E-03  0.2605E-01
      5.047  0.1715E-02  0.2618E-01
      5.125  0.2766E-02  0.2639E-01
      5.202  0.8695E-03  0.2646E-01
      5.280  0.6398E-03  0.2651E-01
      5.357  0.3899E-03  0.2654E-01
      5.435  0.6823E-03  0.2659E-01
      5.513  0.4757E-03  0.2663E-01
      5.590  0.4382E-03  0.2666E-01
      5.668  0.3089E-04  0.2667E-01
      5.745  0.3536E-07  0.2667E-01
      5.823  0.4249E-12  0.2667E-01
      5.900  0.0000E+00  0.2667E-01
      5.978  0.0000E+00  0.2667E-01
      6.056  0.0000E+00  0.2667E-01
      6.133  0.6891E-15  0.2667E-01
      6.211  0.6008E-09  0.2667E-01
      6.288  0.5111E-05  0.2667E-01
      6.366  0.5392E-03  0.2671E-01
      6.443  0.1370E-02  0.2682E-01
      6.521  0.6123E-03  0.2686E-01
      6.598  0.5225E-03  0.2690E-01
      6.676  0.6797E-03  0.2696E-01
      6.754  0.1249E-02  0.2705E-01
      6.831  0.3034E-02  0.2729E-01
      6.909  0.2108E-02  0.2745E-01
      6.986  0.9418E-03  0.2752E-01
      7.064  0.8829E-03  0.2759E-01
      7.141  0.4382E-02  0.2793E-01
      7.219  0.2885E-02  0.2816E-01
      7.296  0.1406E-02  0.2827E-01
      7.374  0.2761E-02  0.2848E-01
      7.452  0.2597E-02  0.2868E-01
      7.529  0.2817E-02  0.2890E-01
      7.607  0.4510E-02  0.2925E-01
      7.684  0.2591E-02  0.2945E-01
      7.762  0.5441E-02  0.2987E-01
      7.839  0.8661E-02  0.3054E-01
      7.917  0.6542E-02  0.3105E-01
      7.994  0.3579E-02  0.3133E-01
      8.072  0.4684E-02  0.3169E-01
      8.150  0.3739E-02  0.3198E-01
      8.227  0.3043E-02  0.3222E-01
      8.305  0.5506E-02  0.3265E-01
      8.382  0.6464E-02  0.3315E-01
      8.460  0.2273E-02  0.3332E-01
      8.537  0.2360E-02  0.3351E-01
      8.615  0.4451E-02  0.3385E-01
      8.693  0.2618E-02  0.3405E-01
      8.770  0.2561E-02  0.3425E-01
      8.848  0.6789E-02  0.3478E-01
      8.925  0.9653E-02  0.3553E-01
      9.003  0.8224E-02  0.3617E-01
      9.080  0.6231E-02  0.3665E-01
      9.158  0.6076E-02  0.3712E-01
      9.235  0.2467E-02  0.3731E-01
      9.313  0.5575E-02  0.3774E-01
      9.391  0.6385E-02  0.3824E-01
      9.468  0.5441E-02  0.3866E-01
      9.546  0.5066E-02  0.3905E-01
      9.623  0.5498E-02  0.3948E-01
      9.701  0.2581E-02  0.3968E-01
      9.778  0.3873E-02  0.3998E-01
      9.856  0.4954E-02  0.4037E-01
      9.933  0.5893E-02  0.4082E-01
     10.011  0.3340E-02  0.4108E-01
     10.089  0.3140E-02  0.4133E-01
     10.166  0.4460E-02  0.4167E-01
     10.244  0.4053E-02  0.4199E-01
     10.321  0.4349E-02  0.4232E-01
     10.399  0.4300E-02  0.4266E-01
     10.476  0.3137E-02  0.4290E-01
     10.554  0.6538E-02  0.4341E-01
     10.631  0.6838E-02  0.4394E-01
     10.709  0.4611E-02  0.4429E-01
     10.787  0.3269E-02  0.4455E-01
     10.864  0.2652E-02  0.4475E-01
     10.942  0.1631E-02  0.4488E-01
     11.019  0.4175E-02  0.4520E-01
     11.097  0.2672E-02  0.4541E-01
     11.174  0.1462E-02  0.4552E-01
     11.252  0.2862E-02  0.4575E-01
     11.330  0.5164E-02  0.4615E-01
     11.407  0.6523E-02  0.4665E-01
     11.485  0.4897E-02  0.4703E-01
     11.562  0.5467E-02  0.4746E-01
     11.640  0.5871E-02  0.4791E-01
     11.717  0.3060E-02  0.4815E-01
     11.795  0.2308E-02  0.4833E-01
     11.872  0.5182E-03  0.4837E-01
     11.950  0.1641E-02  0.4850E-01
     12.028  0.2529E-02  0.4869E-01
     12.105  0.4683E-02  0.4906E-01
     12.183  0.1980E-02  0.4921E-01
     12.260  0.1603E-02  0.4933E-01
     12.338  0.1198E-02  0.4943E-01
     12.415  0.1286E-02  0.4953E-01
     12.493  0.1731E-02  0.4966E-01
     12.570  0.5382E-02  0.5008E-01
     12.648  0.7545E-02  0.5066E-01
     12.726  0.4458E-02  0.5101E-01
     12.803  0.3420E-02  0.5127E-01
     12.881  0.1617E-02  0.5140E-01
     12.958  0.8843E-04  0.5141E-01
     13.036  0.6221E-05  0.5141E-01
     13.113  0.8816E-03  0.5148E-01
     13.191  0.3098E-02  0.5172E-01
     13.268  0.2001E-02  0.5187E-01
     13.346  0.5667E-03  0.5191E-01
     13.424  0.1239E-02  0.5201E-01
     13.501  0.1966E-02  0.5216E-01
     13.579  0.1350E-02  0.5227E-01
     13.656  0.1501E-02  0.5238E-01
     13.734  0.1008E-02  0.5246E-01
     13.811  0.1949E-02  0.5261E-01
     13.889  0.4278E-02  0.5295E-01
     13.967  0.9676E-03  0.5302E-01
     14.044  0.5805E-05  0.5302E-01
     14.122  0.4649E-09  0.5302E-01
     14.199  0.3802E-15  0.5302E-01
     14.277  0.0000E+00  0.5302E-01
     14.354  0.2058E-16  0.5302E-01
     14.432  0.4960E-10  0.5302E-01
     14.509  0.1121E-05  0.5302E-01
     14.587  0.2871E-03  0.5304E-01
     14.665  0.1465E-02  0.5316E-01
     14.742  0.2607E-03  0.5318E-01
     14.820  0.1734E-05  0.5318E-01
     14.897  0.1719E-03  0.5319E-01
     14.975  0.9403E-03  0.5326E-01
     15.052  0.8193E-03  0.5333E-01
     15.130  0.8209E-04  0.5333E-01
     15.207  0.1668E-06  0.5333E-01
     15.285  0.3687E-11  0.5333E-01
     15.363  0.6710E-18  0.5333E-01
     15.440  0.0000E+00  0.5333E-01
     15.518  0.0000E+00  0.5333E-01
     15.595  0.0000E+00  0.5333E-01
     15.673  0.0000E+00  0.5333E-01
     15.750  0.0000E+00  0.5333E-01
     15.828  0.0000E+00  0.5333E-01
     15.905  0.0000E+00  0.5333E-01
     15.983  0.0000E+00  0.5333E-01
     16.061  0.0000E+00  0.5333E-01
