    2    2  300    1
  0.2002393E+02  0.3840297E-09  0.3840297E-09  0.3840297E-09  0.5000000E-15
   1.0000000000000000E-004
  CAR 
 unknown system                          
      8     60      8

  0.6250000E-01  0.6250000E-01  0.6250000E-01  0.3906250E-02
    1       -6.149437   1.000000
    2        5.081918   1.000000
    3        5.530609   1.000000
    4        5.530609   1.000000
    5        8.209328   0.000000
    6        8.291205   0.000000
    7        8.291205   0.000000
    8        9.150186   0.000000

  0.1875000E+00  0.6250000E-01  0.6250000E-01  0.1171875E-01
    1       -5.883196   1.000000
    2        3.582441   1.000000
    3        4.730042   1.000000
    4        5.413763   1.000000
    5        8.261820   0.000000
    6        8.534324   0.000000
    7        8.823359   0.000000
    8       10.619555   0.000000

  0.3125000E+00  0.6250000E-01  0.6250000E-01  0.1171875E-01
    1       -5.240786   1.000000
    2        1.370704   1.000000
    3        4.245215   1.000000
    4        4.955136   1.000000
    5        7.815263   0.000000
    6        9.023772   0.000000
    7        9.307980   0.000000
    8       12.156116   0.000000

  0.4375000E+00  0.6250000E-01  0.6250000E-01  0.1171875E-01
    1       -4.345215   1.000000
    2       -0.503043   1.000000
    3        4.030063   1.000000
    4        4.551111   1.000000
    5        7.501263   0.000000
    6        9.085303   0.000000
    7        9.099017   0.000000
    8       13.399665   0.000000

 -0.4375000E+00  0.6250000E-01  0.6250000E-01  0.1171875E-01
    1       -3.900891   1.000000
    2       -1.197951   1.000000
    3        4.079296   1.000000
    4        4.334467   1.000000
    5        7.421288   0.000000
    6        8.892918   0.000000
    7        9.161569   0.000000
    8       13.472041   0.000000

 -0.3125000E+00  0.6250000E-01  0.6250000E-01  0.1171875E-01
    1       -4.651820   1.000000
    2        0.050898   1.000000
    3        4.354997   1.000000
    4        4.363955   1.000000
    5        7.587468   0.000000
    6        8.900081   0.000000
    7        9.418924   0.000000
    8       12.517275   0.000000

 -0.1875000E+00  0.6250000E-01  0.6250000E-01  0.1171875E-01
    1       -5.492619   1.000000
    2        2.095958   1.000000
    3        4.629107   1.000000
    4        4.825269   1.000000
    5        7.942198   0.000000
    6        8.763308   0.000000
    7        9.476283   0.000000
    8       11.335505   0.000000

 -0.6250000E-01  0.6250000E-01  0.6250000E-01  0.1171875E-01
    1       -6.015623   1.000000
    2        4.332380   1.000000
    3        5.107370   1.000000
    4        5.264944   1.000000
    5        8.006612   0.000000
    6        8.576221   0.000000
    7        8.867225   0.000000
    8        9.887397   0.000000

  0.1875000E+00  0.1875000E+00  0.6250000E-01  0.1171875E-01
    1       -5.749216   1.000000
    2        3.440422   1.000000
    3        4.553789   1.000000
    4        4.636331   1.000000
    5        7.588196   0.000000
    6        9.331294   0.000000
    7        9.720802   0.000000
    8       10.233974   0.000000

  0.3125000E+00  0.1875000E+00  0.6250000E-01  0.2343750E-01
    1       -5.228322   1.000000
    2        1.947130   1.000000
    3        3.590383   1.000000
    4        4.379536   1.000000
    5        7.755892   0.000000
    6        9.441566   0.000000
    7       10.057045   0.000000
    8       10.512701   0.000000

  0.4375000E+00  0.1875000E+00  0.6250000E-01  0.2343750E-01
    1       -4.389433   1.000000
    2        0.101839   1.000000
    3        3.097631   1.000000
    4        3.972167   1.000000
    5        7.948651   0.000000
    6        9.368150   0.000000
    7       10.540941   0.000000
    8       10.805820   0.000000

 -0.4375000E+00  0.1875000E+00  0.6250000E-01  0.2343750E-01
    1       -3.634020   1.000000
    2       -1.098216   1.000000
    3        2.810355   1.000000
    4        3.879795   1.000000
    5        8.017737   0.000000
    6        9.063148   0.000000
    7       10.386714   0.000000
    8       12.820051   0.000000

 -0.3125000E+00  0.1875000E+00  0.6250000E-01  0.2343750E-01
    1       -4.088056   1.000000
    2       -0.413659   1.000000
    3        2.737860   1.000000
    4        4.162549   1.000000
    5        8.296828   0.000000
    6        8.976067   0.000000
    7       10.332762   0.000000
    8       12.072837   0.000000

 -0.1875000E+00  0.1875000E+00  0.6250000E-01  0.2343750E-01
    1       -4.982121   1.000000
    2        1.301640   1.000000
    3        3.038347   1.000000
    4        4.666618   1.000000
    5        8.608129   0.000000
    6        8.912174   0.000000
    7       10.211175   0.000000
    8       10.682494   0.000000

 -0.6250000E-01  0.1875000E+00  0.6250000E-01  0.2343750E-01
    1       -5.619751   1.000000
    2        2.769463   1.000000
    3        4.157001   1.000000
    4        5.037197   1.000000
    5        8.149395   0.000000
    6        8.812486   0.000000
    7        9.533890   0.000000
    8       10.758280   0.000000

  0.3125000E+00  0.3125000E+00  0.6250000E-01  0.1171875E-01
    1       -4.830455   1.000000
    2        1.444276   1.000000
    3        3.449957   1.000000
    4        3.570925   1.000000
    5        6.781963   0.000000
    6        8.433110   0.000000
    7       11.572546   0.000000
    8       11.714964   0.000000

  0.4375000E+00  0.3125000E+00  0.6250000E-01  0.2343750E-01
    1       -4.083916   1.000000
    2        0.214885   1.000000
    3        2.668464   1.000000
    4        3.226518   1.000000
    5        7.094192   0.000000
    6        8.272321   0.000000
    7       11.534270   0.000000
    8       12.702437   0.000000

 -0.4375000E+00  0.3125000E+00  0.6250000E-01  0.2343750E-01
    1       -3.192684   1.000000
    2       -0.973892   1.000000
    3        1.833955   1.000000
    4        3.195255   1.000000
    5        7.328004   0.000000
    6        9.924793   0.000000
    7       11.110855   0.000000
    8       12.616102   0.000000

 -0.3125000E+00  0.3125000E+00  0.6250000E-01  0.2343750E-01
    1       -3.263666   1.000000
    2       -0.880530   1.000000
    3        1.483620   1.000000
    4        3.537161   1.000000
    5        7.728477   0.000000
    6       10.653453   0.000000
    7       11.954055   0.000000
    8       12.238747   0.000000

 -0.1875000E+00  0.3125000E+00  0.6250000E-01  0.2343750E-01
    1       -4.153381   1.000000
    2        0.066600   1.000000
    3        2.083341   1.000000
    4        4.118478   1.000000
    5        8.356627   0.000000
    6        9.554745   0.000000
    7       10.980087   0.000000
    8       11.250173   0.000000

 -0.6250000E-01  0.3125000E+00  0.6250000E-01  0.2343750E-01
    1       -4.869729   1.000000
    2        0.701466   1.000000
    3        3.705130   1.000000
    4        4.568138   1.000000
    5        8.074058   0.000000
    6        8.926708   0.000000
    7        9.777795   0.000000
    8       11.454547   0.000000

  0.4375000E+00  0.4375000E+00  0.6250000E-01  0.1171875E-01
    1       -3.434746   1.000000
    2       -0.642724   1.000000
    3        2.766147   1.000000
    4        2.981841   1.000000
    5        6.389482   0.000000
    6        7.096263   0.000000
    7       13.858319   0.000000
    8       13.865739   0.000000

 -0.4375000E+00  0.4375000E+00  0.6250000E-01  0.2343750E-01
    1       -2.531000   1.000000
    2       -1.625798   1.000000
    3        2.212194   1.000000
    4        2.739922   1.000000
    5        6.818661   0.000000
    6        7.544103   0.000000
    7       13.607686   0.000000
    8       14.624703   0.000000

 -0.3125000E+00  0.4375000E+00  0.6250000E-01  0.2343750E-01
    1       -2.627887   1.000000
    2       -1.460828   1.000000
    3        1.487863   1.000000
    4        3.052775   1.000000
    5        7.181397   0.000000
    6        9.769810   0.000000
    7       12.088780   0.000000
    8       13.231511   0.000000

 -0.1875000E+00  0.4375000E+00  0.6250000E-01  0.2343750E-01
    1       -3.379810   1.000000
    2       -1.053932   1.000000
    3        2.035582   1.000000
    4        3.649853   1.000000
    5        7.848170   0.000000
    6        9.805148   0.000000
    7       11.339017   0.000000
    8       12.572893   0.000000

 -0.6250000E-01  0.4375000E+00  0.6250000E-01  0.2343750E-01
    1       -3.984546   1.000000
    2       -0.903522   1.000000
    3        3.531470   1.000000
    4        4.234652   1.000000
    5        7.873812   0.000000
    6        8.826020   0.000000
    7        9.598784   0.000000
    8       13.139154   0.000000

 -0.4375000E+00 -0.4375000E+00  0.6250000E-01  0.1171875E-01
    1       -2.581926   1.000000
    2       -1.643165   1.000000
    3        2.629328   1.000000
    4        2.861470   1.000000
    5        6.385379   0.000000
    6        6.743543   0.000000
    7       14.930951   0.000000
    8       15.002989   0.000000

 -0.3125000E+00 -0.4375000E+00  0.6250000E-01  0.2343750E-01
    1       -3.349845   1.000000
    2       -0.706087   1.000000
    3        2.368473   1.000000
    4        2.898426   1.000000
    5        6.906001   0.000000
    6        7.793601   0.000000
    7       12.542721   0.000000
    8       13.858636   0.000000

 -0.1875000E+00 -0.4375000E+00  0.6250000E-01  0.2343750E-01
    1       -3.818069   1.000000
    2       -0.445016   1.000000
    3        2.428607   1.000000
    4        3.493494   1.000000
    5        7.604083   0.000000
    6       10.108872   0.000000
    7       10.332965   0.000000
    8       11.549669   0.000000

 -0.3125000E+00 -0.3125000E+00  0.6250000E-01  0.1171875E-01
    1       -4.188245   1.000000
    2        0.396366   1.000000
    3        3.039856   1.000000
    4        3.220170   1.000000
    5        6.520135   0.000000
    6        7.670853   0.000000
    7       12.698707   0.000000
    8       12.775536   0.000000

 -0.1875000E+00 -0.3125000E+00  0.6250000E-01  0.2343750E-01
    1       -4.713863   1.000000
    2        1.101753   1.000000
    3        3.085371   1.000000
    4        3.732536   1.000000
    5        7.384244   0.000000
    6        8.946509   0.000000
    7       10.594300   0.000000
    8       11.577107   0.000000

 -0.1875000E+00 -0.1875000E+00  0.6250000E-01  0.1171875E-01
    1       -5.352797   1.000000
    2        2.469077   1.000000
    3        3.991496   1.000000
    4        4.023111   1.000000
    5        7.152300   0.000000
    6        9.293843   0.000000
    7       10.527535   0.000000
    8       10.690029   0.000000

  0.1875000E+00  0.1875000E+00  0.1875000E+00  0.3906250E-02
    1       -5.752414   1.000000
    2        2.862581   1.000000
    3        5.092690   1.000000
    4        5.092690   1.000000
    5        7.815295   0.000000
    6        8.904738   0.000000
    7        8.904738   0.000000
    8       11.265213   0.000000

  0.3125000E+00  0.1875000E+00  0.1875000E+00  0.1171875E-01
    1       -5.362707   1.000000
    2        2.026345   1.000000
    3        3.587944   1.000000
    4        5.111309   1.000000
    5        8.468041   0.000000
    6        9.026811   0.000000
    7        9.317441   0.000000
    8       11.317257   0.000000

  0.4375000E+00  0.1875000E+00  0.1875000E+00  0.1171875E-01
    1       -4.620259   1.000000
    2        0.664533   1.000000
    3        2.513193   1.000000
    4        4.609407   1.000000
    5        8.314719   0.000000
    6        9.779355   0.000000
    7        9.983265   0.000000
    8       11.601129   0.000000

 -0.4375000E+00  0.1875000E+00  0.1875000E+00  0.1171875E-01
    1       -3.731760   1.000000
    2       -0.814926   1.000000
    3        2.361592   1.000000
    4        4.081386   1.000000
    5        7.816646   0.000000
    6        9.958429   0.000000
    7       10.165345   0.000000
    8       13.448162   0.000000

 -0.3125000E+00  0.1875000E+00  0.1875000E+00  0.1171875E-01
    1       -3.716285   1.000000
    2       -0.842994   1.000000
    3        2.659295   1.000000
    4        3.765181   1.000000
    5        7.539599   0.000000
    6       10.031200   0.000000
    7       10.508698   0.000000
    8       11.494505   0.000000

 -0.1875000E+00  0.1875000E+00  0.1875000E+00  0.1171875E-01
    1       -4.603461   1.000000
    2        0.660971   1.000000
    3        3.268369   1.000000
    4        3.741209   1.000000
    5        7.472213   0.000000
    6        9.657231   0.000000
    7       10.305567   0.000000
    8       10.882000   0.000000

  0.3125000E+00  0.3125000E+00  0.1875000E+00  0.1171875E-01
    1       -5.107481   1.000000
    2        1.364314   1.000000
    3        4.091475   1.000000
    4        4.157054   1.000000
    5        7.865280   0.000000
    6        9.236825   0.000000
    7       10.143230   0.000000
    8       10.506889   0.000000

  0.4375000E+00  0.3125000E+00  0.1875000E+00  0.2343750E-01
    1       -4.484955   1.000000
    2        0.598376   1.000000
    3        2.569720   1.000000
    4        3.962734   1.000000
    5        8.354154   0.000000
    6        9.397234   0.000000
    7        9.876196   0.000000
    8       11.397358   0.000000

 -0.4375000E+00  0.3125000E+00  0.1875000E+00  0.2343750E-01
    1       -3.599364   1.000000
    2       -0.497315   1.000000
    3        1.784662   1.000000
    4        3.397805   1.000000
    5        8.805802   0.000000
    6        9.288931   0.000000
    7       10.565037   0.000000
    8       12.486465   0.000000

 -0.3125000E+00  0.3125000E+00  0.1875000E+00  0.2343750E-01
    1       -3.115022   1.000000
    2       -1.107223   1.000000
    3        1.788276   1.000000
    4        3.086787   1.000000
    5        8.336148   0.000000
    6        9.617064   0.000000
    7       11.342806   0.000000
    8       12.635364   0.000000

 -0.1875000E+00  0.3125000E+00  0.1875000E+00  0.2343750E-01
    1       -3.882300   1.000000
    2       -0.108055   1.000000
    3        2.208181   1.000000
    4        3.264927   1.000000
    5        8.068137   0.000000
    6        9.275591   0.000000
    7       10.150140   0.000000
    8       12.615683   0.000000

  0.4375000E+00  0.4375000E+00  0.1875000E+00  0.1171875E-01
    1       -3.991062   1.000000
    2       -0.051375   1.000000
    3        2.540591   1.000000
    4        3.412567   1.000000
    5        7.091913   0.000000
    6        9.112619   0.000000
    7       11.385161   0.000000
    8       11.700099   0.000000

 -0.4375000E+00  0.4375000E+00  0.1875000E+00  0.2343750E-01
    1       -3.192094   1.000000
    2       -0.845352   1.000000
    3        1.966030   1.000000
    4        2.731092   1.000000
    5        7.863849   0.000000
    6        8.872091   0.000000
    7       11.036536   0.000000
    8       13.834949   0.000000

 -0.3125000E+00  0.4375000E+00  0.1875000E+00  0.2343750E-01
    1       -2.388974   1.000000
    2       -1.596333   1.000000
    3        1.649171   1.000000
    4        2.232283   1.000000
    5        8.980390   0.000000
    6        9.902077   0.000000
    7       10.592609   0.000000
    8       11.589934   0.000000

 -0.1875000E+00  0.4375000E+00  0.1875000E+00  0.2343750E-01
    1       -2.988349   1.000000
    2       -1.051221   1.000000
    3        1.641582   1.000000
    4        2.705337   1.000000
    5        9.076557   0.000000
    6        9.502428   0.000000
    7       10.269899   0.000000
    8       12.745317   0.000000

 -0.4375000E+00 -0.4375000E+00  0.1875000E+00  0.1171875E-01
    1       -2.551499   1.000000
    2       -1.575775   1.000000
    3        1.753328   1.000000
    4        3.072374   1.000000
    5        6.660219   0.000000
    6        8.556038   0.000000
    7       13.520449   0.000000
    8       13.731182   0.000000

 -0.3125000E+00 -0.4375000E+00  0.1875000E+00  0.2343750E-01
    1       -2.451717   1.000000
    2       -1.605691   1.000000
    3        1.846641   1.000000
    4        2.446513   1.000000
    5        7.758854   0.000000
    6        8.670571   0.000000
    7       12.033996   0.000000
    8       13.142221   0.000000

 -0.3125000E+00 -0.3125000E+00  0.1875000E+00  0.1171875E-01
    1       -3.288962   1.000000
    2       -0.807892   1.000000
    3        2.018361   1.000000
    4        3.186920   1.000000
    5        6.809089   0.000000
    6        8.739559   0.000000
    7       12.543243   0.000000
    8       12.601390   0.000000

  0.3125000E+00  0.3125000E+00  0.3125000E+00  0.3906250E-02
    1       -5.000810   1.000000
    2        0.670971   1.000000
    3        4.681977   1.000000
    4        4.681977   1.000000
    5        7.363708   0.000000
    6        9.133525   0.000000
    7        9.133525   0.000000
    8       13.248339   0.000000

  0.4375000E+00  0.3125000E+00  0.3125000E+00  0.1171875E-01
    1       -4.524073   1.000000
    2        0.096442   1.000000
    3        3.223904   1.000000
    4        4.595072   1.000000
    5        8.079475   0.000000
    6        9.357196   0.000000
    7        9.402879   0.000000
    8       12.609953   0.000000

 -0.4375000E+00  0.3125000E+00  0.3125000E+00  0.1171875E-01
    1       -3.736535   1.000000
    2       -0.433185   1.000000
    3        1.705020   1.000000
    4        4.017561   1.000000
    5        7.740370   0.000000
    6       10.796500   0.000000
    7       10.968725   0.000000
    8       12.369359   0.000000

 -0.3125000E+00  0.3125000E+00  0.3125000E+00  0.1171875E-01
    1       -2.920093   1.000000
    2       -1.210628   1.000000
    3        1.368703   1.000000
    4        3.474032   1.000000
    5        7.125689   0.000000
    6       11.000132   0.000000
    7       12.062529   0.000000
    8       12.339870   0.000000

  0.4375000E+00  0.4375000E+00  0.3125000E+00  0.1171875E-01
    1       -4.211731   1.000000
    2       -0.458468   1.000000
    3        3.558499   1.000000
    4        4.034777   1.000000
    5        7.790453   0.000000
    6        9.138427   0.000000
    7        9.882488   0.000000
    8       11.917084   0.000000

 -0.4375000E+00  0.4375000E+00  0.3125000E+00  0.2343750E-01
    1       -3.595577   1.000000
    2       -0.816023   1.000000
    3        2.256273   1.000000
    4        3.561661   1.000000
    5        8.558134   0.000000
    6        8.902901   0.000000
    7       11.439366   0.000000
    8       11.656668   0.000000

 -0.3125000E+00  0.4375000E+00  0.3125000E+00  0.2343750E-01
    1       -2.782715   1.000000
    2       -1.275627   1.000000
    3        1.460169   1.000000
    4        2.852202   1.000000
    5        8.207865   0.000000
    6       10.444948   0.000000
    7       11.235148   0.000000
    8       11.763632   0.000000

 -0.4375000E+00 -0.4375000E+00  0.3125000E+00  0.1171875E-01
    1       -3.239128   1.000000
    2       -1.093883   1.000000
    3        1.865367   1.000000
    4        3.573286   1.000000
    5        7.273610   0.000000
    6       10.961221   0.000000
    7       11.270282   0.000000
    8       11.375416   0.000000

  0.4375000E+00  0.4375000E+00  0.4375000E+00  0.3906250E-02
    1       -4.117004   1.000000
    2       -0.964050   1.000000
    3        4.462432   1.000000
    4        4.462432   1.000000
    5        7.111767   0.000000
    6        8.993133   0.000000
    7        8.993133   0.000000
    8       13.362070   0.000000

 -0.4375000E+00  0.4375000E+00  0.4375000E+00  0.1171875E-01
    1       -3.768302   1.000000
    2       -1.138625   1.000000
    3        3.243509   1.000000
    4        4.195820   1.000000
    5        7.821803   0.000000
    6        9.128628   0.000000
    7        9.570108   0.000000
    8       13.750660   0.000000
