       N       E                     dE             d eps       ncg     rms          rms(c)
DAV:   1     0.461107534293E+01    0.46111E+01   -0.28989E+03   960   0.627E+02
DAV:   2    -0.108267432071E+02   -0.15438E+02   -0.14929E+02  1456   0.741E+01
DAV:   3    -0.110237150420E+02   -0.19697E+00   -0.19697E+00  1208   0.108E+01
DAV:   4    -0.110245887376E+02   -0.87370E-03   -0.87370E-03  1576   0.781E-01
DAV:   5    -0.110245895488E+02   -0.81119E-06   -0.81119E-06  1240   0.185E-02    0.487E+00
DAV:   6    -0.109001002129E+02    0.12449E+00   -0.82479E-02  1128   0.150E+00    0.298E+00
DAV:   7    -0.108434400579E+02    0.56660E-01   -0.15580E-01  1240   0.219E+00    0.191E-01
DAV:   8    -0.108444980475E+02   -0.10580E-02   -0.39437E-03  1112   0.472E-01    0.741E-02
DAV:   9    -0.108446846813E+02   -0.18663E-03   -0.18164E-04  1416   0.106E-01    0.573E-02
DAV:  10    -0.108447109291E+02   -0.26248E-04   -0.31361E-05   672   0.420E-02
   1 F= -.10844711E+02 E0= -.10844711E+02  d E =-.108447E+02
       N       E                     dE             d eps       ncg     rms          rms(c)
DAV:   1    -0.108540298402E+02   -0.93452E-02   -0.25514E-01  1192   0.285E+00    0.476E-01
DAV:   2    -0.108497042134E+02    0.43256E-02   -0.36528E-03  1368   0.411E-01    0.291E-01
DAV:   3    -0.108474290686E+02    0.22751E-02   -0.47415E-03  1152   0.348E-01    0.939E-02
DAV:   4    -0.108474298515E+02   -0.78284E-06   -0.45150E-05   808   0.625E-02
   2 F= -.10847430E+02 E0= -.10847430E+02  d E =-.271892E-02
       N       E                     dE             d eps       ncg     rms          rms(c)
DAV:   1    -0.108506002458E+02   -0.31712E-02   -0.39481E-02  1184   0.113E+00    0.183E-01
DAV:   2    -0.108499297037E+02    0.67054E-03   -0.56109E-04  1384   0.161E-01    0.110E-01
DAV:   3    -0.108495859003E+02    0.34380E-03   -0.73768E-04  1152   0.137E-01    0.385E-02
DAV:   4    -0.108495868095E+02   -0.90925E-06   -0.66443E-06   528   0.245E-02
   3 F= -.10849587E+02 E0= -.10849587E+02  d E =-.487588E-02
