<?xml version="1.0" encoding="ISO-8859-1"?>
<modeling>
 <generator>
  <i name="program" type="string">vasp </i>
  <i name="version" type="string">5.4.4.18Apr17-6-g9f103f2a35  </i>
  <i name="subversion" type="string">(build Jul 17 2026 20:05:20) complex            parallel </i>
  <i name="platform" type="string">LinuxGNU </i>
  <i name="date" type="string">2026 08 09 </i>
  <i name="time" type="string">11:59:02 </i>
 </generator>
 <incar>
  <i type="int" name="ISTART">     0</i>
  <i type="string" name="PREC">accurate   (precision level: normal or</i>
  <i type="logical" name="ADDGRID"> T  </i>
  <i type="int" name="ISPIN">     1</i>
  <i type="int" name="IBRION">     2</i>
  <i name="EDIFFG">     -0.01500000</i>
  <i type="int" name="NSW">   300</i>
  <i type="int" name="ISIF">     3</i>
  <i name="ENCUT">    400.00000000</i>
  <i type="logical" name="LREAL"> F  </i>
  <i type="int" name="ISMEAR">     0</i>
  <i name="SIGMA">      0.05000000</i>
  <i type="logical" name="LWAVE"> T  </i>
  <i type="logical" name="LCHARG"> T  </i>
  <v type="int" name="KPOINT_BSE">    -1     0     0     0</v>
 </incar>
 <structure name="primitive_cell" >
  <crystal>
   <varray name="basis" >
    <v>       0.00000000       2.71550000       2.71550000 </v>
    <v>       2.71550000       0.00000000       2.71550000 </v>
    <v>       2.71550000       2.71550000       0.00000000 </v>
   </varray>
   <i name="volume">     40.04786950 </i>
   <varray name="rec_basis" >
    <v>      -0.18412815       0.18412815       0.18412815 </v>
    <v>       0.18412815      -0.18412815       0.18412815 </v>
    <v>       0.18412815       0.18412815      -0.18412815 </v>
   </varray>
  </crystal>
  <varray name="positions" >
   <v>       0.00000000       0.00000000       0.00000000 </v>
   <v>       0.25000000       0.25000000       0.25000000 </v>
  </varray>
 </structure>
 <varray name="primitive_index" >
  <v type="int" >        1 </v>
  <v type="int" >        2 </v>
 </varray>
 <kpoints>
  <generation param="Monkhorst-Pack">
   <v type="int" name="divisions">       8        8        8 </v>
   <v name="usershift">      0.00000000       0.00000000       0.00000000 </v>
   <v name="genvec1">      0.12500000       0.00000000       0.00000000 </v>
   <v name="genvec2">      0.00000000       0.12500000       0.00000000 </v>
   <v name="genvec3">      0.00000000       0.00000000       0.12500000 </v>
   <v name="shift">      0.50000000       0.50000000       0.50000000 </v>
  </generation>
  <varray name="kpointlist" >
   <v>       0.06250000       0.06250000       0.06250000 </v>
   <v>       0.18750000       0.06250000       0.06250000 </v>
   <v>       0.31250000       0.06250000       0.06250000 </v>
   <v>       0.43750000       0.06250000       0.06250000 </v>
   <v>      -0.43750000       0.06250000       0.06250000 </v>
   <v>      -0.31250000       0.06250000       0.06250000 </v>
   <v>      -0.18750000       0.06250000       0.06250000 </v>
   <v>      -0.06250000       0.06250000       0.06250000 </v>
   <v>       0.18750000       0.18750000       0.06250000 </v>
   <v>       0.31250000       0.18750000       0.06250000 </v>
   <v>       0.43750000       0.18750000       0.06250000 </v>
   <v>      -0.43750000       0.18750000       0.06250000 </v>
   <v>      -0.31250000       0.18750000       0.06250000 </v>
   <v>      -0.18750000       0.18750000       0.06250000 </v>
   <v>      -0.06250000       0.18750000       0.06250000 </v>
   <v>       0.31250000       0.31250000       0.06250000 </v>
   <v>       0.43750000       0.31250000       0.06250000 </v>
   <v>      -0.43750000       0.31250000       0.06250000 </v>
   <v>      -0.31250000       0.31250000       0.06250000 </v>
   <v>      -0.18750000       0.31250000       0.06250000 </v>
   <v>      -0.06250000       0.31250000       0.06250000 </v>
   <v>       0.43750000       0.43750000       0.06250000 </v>
   <v>      -0.43750000       0.43750000       0.06250000 </v>
   <v>      -0.31250000       0.43750000       0.06250000 </v>
   <v>      -0.18750000       0.43750000       0.06250000 </v>
   <v>      -0.06250000       0.43750000       0.06250000 </v>
   <v>      -0.43750000      -0.43750000       0.06250000 </v>
   <v>      -0.31250000      -0.43750000       0.06250000 </v>
   <v>      -0.18750000      -0.43750000       0.06250000 </v>
   <v>      -0.31250000      -0.31250000       0.06250000 </v>
   <v>      -0.18750000      -0.31250000       0.06250000 </v>
   <v>      -0.18750000      -0.18750000       0.06250000 </v>
   <v>       0.18750000       0.18750000       0.18750000 </v>
   <v>       0.31250000       0.18750000       0.18750000 </v>
   <v>       0.43750000       0.18750000       0.18750000 </v>
   <v>      -0.43750000       0.18750000       0.18750000 </v>
   <v>      -0.31250000       0.18750000       0.18750000 </v>
   <v>      -0.18750000       0.18750000       0.18750000 </v>
   <v>       0.31250000       0.31250000       0.18750000 </v>
   <v>       0.43750000       0.31250000       0.18750000 </v>
   <v>      -0.43750000       0.31250000       0.18750000 </v>
   <v>      -0.31250000       0.31250000       0.18750000 </v>
   <v>      -0.18750000       0.31250000       0.18750000 </v>
   <v>       0.43750000       0.43750000       0.18750000 </v>
   <v>      -0.43750000       0.43750000       0.18750000 </v>
   <v>      -0.31250000       0.43750000       0.18750000 </v>
   <v>      -0.18750000       0.43750000       0.18750000 </v>
   <v>      -0.43750000      -0.43750000       0.18750000 </v>
   <v>      -0.31250000      -0.43750000       0.18750000 </v>
   <v>      -0.31250000      -0.31250000       0.18750000 </v>
   <v>       0.31250000       0.31250000       0.31250000 </v>
   <v>       0.43750000       0.31250000       0.31250000 </v>
   <v>      -0.43750000       0.31250000       0.31250000 </v>
   <v>      -0.31250000       0.31250000       0.31250000 </v>
   <v>       0.43750000       0.43750000       0.31250000 </v>
   <v>      -0.43750000       0.43750000       0.31250000 </v>
   <v>      -0.31250000       0.43750000       0.31250000 </v>
   <v>      -0.43750000      -0.43750000       0.31250000 </v>
   <v>       0.43750000       0.43750000       0.43750000 </v>
   <v>      -0.43750000       0.43750000       0.43750000 </v>
  </varray>
  <varray name="weights" >
   <v>       0.00390625 </v>
   <v>       0.01171875 </v>
   <v>       0.01171875 </v>
   <v>       0.01171875 </v>
   <v>       0.01171875 </v>
   <v>       0.01171875 </v>
   <v>       0.01171875 </v>
   <v>       0.01171875 </v>
   <v>       0.01171875 </v>
   <v>       0.02343750 </v>
   <v>       0.02343750 </v>
   <v>       0.02343750 </v>
   <v>       0.02343750 </v>
   <v>       0.02343750 </v>
   <v>       0.02343750 </v>
   <v>       0.01171875 </v>
   <v>       0.02343750 </v>
   <v>       0.02343750 </v>
   <v>       0.02343750 </v>
   <v>       0.02343750 </v>
   <v>       0.02343750 </v>
   <v>       0.01171875 </v>
   <v>       0.02343750 </v>
   <v>       0.02343750 </v>
   <v>       0.02343750 </v>
   <v>       0.02343750 </v>
   <v>       0.01171875 </v>
   <v>       0.02343750 </v>
   <v>       0.02343750 </v>
   <v>       0.01171875 </v>
   <v>       0.02343750 </v>
   <v>       0.01171875 </v>
   <v>       0.00390625 </v>
   <v>       0.01171875 </v>
   <v>       0.01171875 </v>
   <v>       0.01171875 </v>
   <v>       0.01171875 </v>
   <v>       0.01171875 </v>
   <v>       0.01171875 </v>
   <v>       0.02343750 </v>
   <v>       0.02343750 </v>
   <v>       0.02343750 </v>
   <v>       0.02343750 </v>
   <v>       0.01171875 </v>
   <v>       0.02343750 </v>
   <v>       0.02343750 </v>
   <v>       0.02343750 </v>
   <v>       0.01171875 </v>
   <v>       0.02343750 </v>
   <v>       0.01171875 </v>
   <v>       0.00390625 </v>
   <v>       0.01171875 </v>
   <v>       0.01171875 </v>
   <v>       0.01171875 </v>
   <v>       0.01171875 </v>
   <v>       0.02343750 </v>
   <v>       0.02343750 </v>
   <v>       0.01171875 </v>
   <v>       0.00390625 </v>
   <v>       0.01171875 </v>
  </varray>
 </kpoints>
 <parameters>
  <separator name="general" >
   <i type="string" name="SYSTEM">unknown system</i>
   <i type="logical" name="LCOMPAT"> F  </i>
  </separator>
  <separator name="electronic" >
   <i type="string" name="PREC">accura</i>
   <i name="ENMAX">    400.00000000</i>
   <i name="ENAUG">    322.06900000</i>
   <i name="EDIFF">      0.00010000</i>
   <i type="int" name="IALGO">    38</i>
   <i type="int" name="IWAVPR">    11</i>
   <i type="int" name="NBANDS">     8</i>
   <i name="NELECT">      8.00000000</i>
   <i type="int" name="TURBO">     0</i>
   <i type="int" name="IRESTART">     0</i>
   <i type="int" name="NREBOOT">     0</i>
   <i type="int" name="NMIN">     0</i>
   <i name="EREF">      0.00000000</i>
   <separator name="electronic smearing" >
    <i type="int" name="ISMEAR">     0</i>
    <i name="SIGMA">      0.05000000</i>
    <i name="KSPACING">      0.50000000</i>
    <i type="logical" name="KGAMMA"> T  </i>
   </separator>
   <separator name="electronic projectors" >
    <i type="logical" name="LREAL"> F  </i>
    <v name="ROPT">      0.00000000</v>
    <i type="int" name="LMAXPAW">  -100</i>
    <i type="int" name="LMAXMIX">     2</i>
    <i type="logical" name="NLSPLINE"> F  </i>
   </separator>
   <separator name="electronic startup" >
    <i type="int" name="ISTART">     0</i>
    <i type="int" name="ICHARG">     2</i>
    <i type="int" name="INIWAV">     1</i>
   </separator>
   <separator name="electronic spin" >
    <i type="int" name="ISPIN">     1</i>
    <i type="logical" name="LNONCOLLINEAR"> F  </i>
    <v name="MAGMOM">      1.00000000      1.00000000</v>
    <i name="NUPDOWN">     -1.00000000</i>
    <i type="logical" name="LSORBIT"> F  </i>
    <v name="SAXIS">      0.00000000      0.00000000      1.00000000</v>
    <i type="logical" name="LSPIRAL"> F  </i>
    <v name="QSPIRAL">      0.00000000      0.00000000      0.00000000</v>
    <i type="logical" name="LZEROZ"> F  </i>
   </separator>
   <separator name="electronic exchange-correlation" >
    <i type="logical" name="LASPH"> F  </i>
    <i type="logical" name="LMETAGGA"> F  </i>
   </separator>
   <separator name="electronic convergence" >
    <i type="int" name="NELM">    60</i>
    <i type="int" name="NELMDL">    -5</i>
    <i type="int" name="NELMIN">     2</i>
    <i name="ENINI">    400.00000000</i>
    <separator name="electronic convergence detail" >
     <i type="logical" name="LDIAG"> T  </i>
     <i type="logical" name="LSUBROT"> F  </i>
     <i name="WEIMIN">      0.00100000</i>
     <i name="EBREAK">      0.00000313</i>
     <i name="DEPER">      0.30000000</i>
     <i type="int" name="NRMM">     4</i>
     <i name="TIME">      0.40000000</i>
    </separator>
   </separator>
   <separator name="electronic mixer" >
    <i name="AMIX">      0.40000000</i>
    <i name="BMIX">      1.00000000</i>
    <i name="AMIN">      0.10000000</i>
    <i name="AMIX_MAG">      1.60000000</i>
    <i name="BMIX_MAG">      1.00000000</i>
    <separator name="electronic mixer details" >
     <i type="int" name="IMIX">     4</i>
     <i type="logical" name="MIXFIRST"> F  </i>
     <i type="int" name="MAXMIX">   -45</i>
     <i name="WC">    100.00000000</i>
     <i type="int" name="INIMIX">     1</i>
     <i type="int" name="MIXPRE">     1</i>
     <i type="int" name="MREMOVE">     5</i>
    </separator>
   </separator>
   <separator name="electronic dipolcorrection" >
    <i type="logical" name="LDIPOL"> F  </i>
    <i type="logical" name="LMONO"> F  </i>
    <i type="int" name="IDIPOL">     0</i>
    <i name="EPSILON">      1.00000000</i>
    <v name="DIPOL">   -100.00000000   -100.00000000   -100.00000000</v>
    <i name="EFIELD">      0.00000000</i>
   </separator>
  </separator>
  <separator name="grids" >
   <i type="int" name="NGX">    28</i>
   <i type="int" name="NGY">    28</i>
   <i type="int" name="NGZ">    28</i>
   <i type="int" name="NGXF">    56</i>
   <i type="int" name="NGYF">    56</i>
   <i type="int" name="NGZF">    56</i>
   <i type="logical" name="ADDGRID"> T  </i>
  </separator>
  <separator name="ionic" >
   <i type="int" name="NSW">   300</i>
   <i type="int" name="IBRION">     2</i>
   <i type="int" name="MDALGO">     0</i>
   <i type="int" name="ISIF">     3</i>
   <i name="PSTRESS">      0.00000000</i>
   <i name="EDIFFG">     -0.01500000</i>
   <i type="int" name="NFREE">     1</i>
   <i name="POTIM">      0.50000000</i>
   <i name="SMASS">     -3.00000000</i>
   <i name="SCALEE">      1.00000000</i>
  </separator>
  <separator name="ionic md" >
   <i name="TEBEG">      0.00010000</i>
   <i name="TEEND">      0.00010000</i>
   <i type="int" name="NBLOCK">     1</i>
   <i type="int" name="KBLOCK">   300</i>
   <i type="int" name="NPACO">   256</i>
   <i name="APACO">     16.00000000</i>
  </separator>
  <separator name="symmetry" >
   <i type="int" name="ISYM">     2</i>
   <i name="SYMPREC">      0.00001000</i>
  </separator>
  <separator name="dos" >
   <i type="int" name="LORBIT">     0</i>
   <v name="RWIGS">     -1.00000000</v>
   <i type="int" name="NEDOS">   301</i>
   <i name="EMIN">     10.00000000</i>
   <i name="EMAX">    -10.00000000</i>
   <i name="EFERMI">      0.00000000</i>
  </separator>
  <separator name="writing" >
   <i type="int" name="NWRITE">     2</i>
   <i type="logical" name="LWAVE"> T  </i>
   <i type="logical" name="LDOWNSAMPLE"> F  </i>
   <i type="logical" name="LCHARG"> T  </i>
   <i type="logical" name="LPARD"> F  </i>
   <i type="logical" name="LVTOT"> F  </i>
   <i type="logical" name="LVHAR"> F  </i>
   <i type="logical" name="LELF"> F  </i>
   <i type="logical" name="LOPTICS"> F  </i>
   <v name="STM">      0.00000000      0.00000000      0.00000000      0.00000000      0.00000000      0.00000000      0.00000000</v>
  </separator>
  <separator name="performance" >
   <i type="int" name="NPAR">     2</i>
   <i type="int" name="NSIM">     4</i>
   <i type="int" name="NBLK">    -1</i>
   <i type="logical" name="LPLANE"> T  </i>
   <i type="logical" name="LSCALAPACK"> T  </i>
   <i type="logical" name="LSCAAWARE"> F  </i>
   <i type="logical" name="LSCALU"> F  </i>
   <i type="logical" name="LASYNC"> F  </i>
   <i type="logical" name="LORBITALREAL"> F  </i>
  </separator>
  <separator name="miscellaneous" >
   <i type="int" name="IDIOT">     3</i>
   <i type="int" name="ISPECIAL">     0</i>
   <i type="logical" name="LMUSIC"> F  </i>
   <v name="POMASS">     28.08500000</v>
   <v name="DARWINR">      0.00000000</v>
   <v name="DARWINV">      1.00000000</v>
   <i type="logical" name="LCORR"> T  </i>
  </separator>
  <i type="logical" name="GGA_COMPAT"> T  </i>
  <i type="logical" name="LBERRY"> F  </i>
  <i type="int" name="ICORELEVEL">     0</i>
  <i type="logical" name="LDAU"> F  </i>
  <i type="int" name="I_CONSTRAINED_M">     0</i>
  <separator name="electronic exchange-correlation" >
   <i type="string" name="GGA">--</i>
   <i type="int" name="VOSKOWN">     0</i>
   <i type="logical" name="LHFCALC"> F  </i>
   <i type="string" name="PRECFOCK"></i>
   <i type="logical" name="LSYMGRAD"> F  </i>
   <i type="logical" name="LHFONE"> F  </i>
   <i type="logical" name="LRHFCALC"> F  </i>
   <i type="logical" name="LTHOMAS"> F  </i>
   <i type="logical" name="LMODELHF"> F  </i>
   <i name="ENCUT4O">     -1.00000000</i>
   <i type="int" name="EXXOEP">     0</i>
   <i type="int" name="FOURORBIT">     0</i>
   <i name="AEXX">      0.00000000</i>
   <i name="HFALPHA">      0.00000000</i>
   <i name="MCALPHA">      0.00000000</i>
   <i name="ALDAX">      1.00000000</i>
   <i name="AGGAX">      1.00000000</i>
   <i name="ALDAC">      1.00000000</i>
   <i name="AGGAC">      1.00000000</i>
   <i type="int" name="NKREDX">     1</i>
   <i type="int" name="NKREDY">     1</i>
   <i type="int" name="NKREDZ">     1</i>
   <i type="logical" name="SHIFTRED"> F  </i>
   <i type="logical" name="ODDONLY"> F  </i>
   <i type="logical" name="EVENONLY"> F  </i>
   <i type="int" name="LMAXFOCK">     0</i>
   <i type="int" name="NMAXFOCKAE">     0</i>
   <i type="logical" name="LFOCKAEDFT"> F  </i>
   <i name="HFSCREEN">      0.00000000</i>
   <i name="HFSCREENC">      0.00000000</i>
   <i type="int" name="NBANDSGWLOW">     0</i>
  </separator>
  <separator name="vdW DFT" >
   <i type="logical" name="LUSE_VDW"> F  </i>
   <i name="Zab_VDW">     -0.84910000</i>
   <i name="PARAM1">      0.12340000</i>
   <i name="PARAM2">      1.00000000</i>
   <i name="PARAM3">      0.00000000</i>
  </separator>
  <separator name="model GW" >
   <i type="int" name="MODEL_GW">     0</i>
   <i name="MODEL_EPS0">     12.01436085</i>
   <i name="MODEL_ALPHA">      1.00000000</i>
  </separator>
  <separator name="linear response parameters" >
   <i type="logical" name="LEPSILON"> F  </i>
   <i type="logical" name="LRPA"> F  </i>
   <i type="logical" name="LNABLA"> F  </i>
   <i type="logical" name="LVEL"> F  </i>
   <i type="int" name="KINTER">     0</i>
   <i name="CSHIFT">      0.10000000</i>
   <i name="OMEGAMAX">     -1.00000000</i>
   <i name="DEG_THRESHOLD">      0.00200000</i>
   <i name="RTIME">     -0.10000000</i>
   <i name="WPLASMAI">      0.00000000</i>
   <v name="DFIELD">      0.00000000      0.00000000      0.00000000</v>
   <v name="WPLASMA">      0.00000000      0.00000000      0.00000000      0.00000000      0.00000000      0.00000000      0.00000000      0.00000000      0.00000000</v>
  </separator>
  <separator name="orbital magnetization" >
   <i type="logical" name="NUCIND"> F  </i>
   <v name="MAGPOS">      0.00000000      0.00000000      0.00000000</v>
   <i type="logical" name="LNICSALL"> T  </i>
   <i type="logical" name="ORBITALMAG"> F  </i>
   <i type="logical" name="LMAGBLOCH"> F  </i>
   <i type="logical" name="LCHIMAG"> F  </i>
   <i type="logical" name="LGAUGE"> T  </i>
   <i type="int" name="MAGATOM">     0</i>
   <v name="MAGDIPOL">      0.00000000      0.00000000      0.00000000</v>
   <v name="AVECCONST">      0.00000000      0.00000000      0.00000000</v>
  </separator>
  <separator name="response functions" >
   <i type="logical" name="LADDER"> F  </i>
   <i type="logical" name="LRPAFORCE"> F  </i>
   <i type="logical" name="LFXC"> F  </i>
   <i type="logical" name="LHARTREE"> T  </i>
   <i type="int" name="IBSE">     0</i>
   <v type="int" name="KPOINT">    -1     0     0     0</v>
   <i type="logical" name="LTCTE"> F  </i>
   <i type="logical" name="LTETE"> F  </i>
   <i type="logical" name="LTRIPLET"> F  </i>
   <i type="logical" name="LFXCEPS"> F  </i>
   <i type="logical" name="LFXHEG"> F  </i>
   <i type="int" name="NATURALO">     2</i>
   <i type="logical" name="L2ORDER"> F  </i>
   <i type="logical" name="LMP2LT"> F  </i>
   <i type="logical" name="LUSEW"> F  </i>
   <i name="ENCUTGW">     -2.00000000</i>
   <i name="ENCUTGWSOFT">     -2.00000000</i>
   <i name="ENCUTLF">     -1.00000000</i>
   <i type="int" name="LMAXMP2">    -1</i>
   <i name="SCISSOR">      0.00000000</i>
   <i type="int" name="NOMEGA">     0</i>
   <i type="int" name="NOMEGAR">     0</i>
   <i type="int" name="NBANDSGW">    -1</i>
   <i type="int" name="NBANDSO">    -1</i>
   <i type="int" name="NBANDSV">    -1</i>
   <i type="int" name="NELM">     1</i>
   <i type="int" name="NELMHF">     1</i>
   <i type="int" name="DIM">     3</i>
   <i type="int" name="ANTIRES">     0</i>
   <i name="OMEGAMAX">    -30.00000000</i>
   <i name="OMEGAMIN">    -30.00000000</i>
   <i name="OMEGATL">   -200.00000000</i>
   <i type="int" name="OMEGAGRID">   140</i>
   <i name="CSHIFT">     -0.10000000</i>
   <i type="logical" name="SELFENERGY"> F  </i>
   <i type="logical" name="LSPECTRAL"> F  </i>
   <i type="logical" name="LSPECTRALGW"> F  </i>
   <i type="logical" name="LSINGLES"> F  </i>
   <i type="logical" name="LFERMIGW"> F  </i>
   <i type="logical" name="ODDONLYGW"> F  </i>
   <i type="logical" name="EVENONLYGW"> F  </i>
   <i type="int" name="NKREDLFX">     1</i>
   <i type="int" name="NKREDLFY">     1</i>
   <i type="int" name="NKREDLFZ">     1</i>
   <i type="int" name="MAXMEM">  2800</i>
   <i type="int" name="TELESCOPE">     0</i>
   <i type="int" name="TAUPAR">     1</i>
   <i type="int" name="OMEGAPAR">    -1</i>
   <i name="LAMBDA">      1.00000000</i>
  </separator>
  <separator name="External order field" >
   <i name="OFIELD_KAPPA">      0.00000000</i>
   <v name="OFIELD_K">      0.00000000      0.00000000      0.00000000</v>
   <i name="OFIELD_Q6_NEAR">      0.00000000</i>
   <i name="OFIELD_Q6_FAR">      0.00000000</i>
   <i name="OFIELD_A">      0.00000000</i>
  </separator>
 </parameters>
 <atominfo>
  <atoms>       2 </atoms>
  <types>       1 </types>
  <array name="atoms" >
   <dimension dim="1">ion</dimension>
   <field type="string">element</field>
   <field type="int">atomtype</field>
   <set>
    <rc><c>Si</c><c>   1</c></rc>
    <rc><c>Si</c><c>   1</c></rc>
   </set>
  </array>
  <array name="atomtypes" >
   <dimension dim="1">type</dimension>
   <field type="int">atomspertype</field>
   <field type="string">element</field>
   <field>mass</field>
   <field>valence</field>
   <field type="string">pseudopotential</field>
   <set>
    <rc><c>   2</c><c>Si</c><c>     28.08500000</c><c>      4.00000000</c><c>  PAW_PBE Si 05Jan2001                  </c></rc>
   </set>
  </array>
 </atominfo>
 <structure name="initialpos" >
  <crystal>
   <varray name="basis" >
    <v>       0.00000000       2.71550000       2.71550000 </v>
    <v>       2.71550000       0.00000000       2.71550000 </v>
    <v>       2.71550000       2.71550000       0.00000000 </v>
   </varray>
   <i name="volume">     40.04786950 </i>
   <varray name="rec_basis" >
    <v>      -0.18412815       0.18412815       0.18412815 </v>
    <v>       0.18412815      -0.18412815       0.18412815 </v>
    <v>       0.18412815       0.18412815      -0.18412815 </v>
   </varray>
  </crystal>
  <varray name="positions" >
   <v>       0.00000000       0.00000000       0.00000000 </v>
   <v>       0.25000000       0.25000000       0.25000000 </v>
  </varray>
 </structure>
 <calculation>
  <scstep>
   <time name="dav">    0.76    0.76</time>
   <time name="total">    0.84    0.84</time>
   <energy>
    <i name="alphaZ">      3.36228930 </i>
    <i name="ewald">   -228.52143995 </i>
    <i name="hartreedc">    -11.00937461 </i>
    <i name="XCdc">    -18.60403951 </i>
    <i name="pawpsdc">    176.24759923 </i>
    <i name="pawaedc">   -141.06103558 </i>
    <i name="eentropy">     -0.00073816 </i>
    <i name="bandstr">     18.06632217 </i>
    <i name="atom">    206.13149246 </i>
    <i name="e_fr_energy">      4.61107534 </i>
    <i name="e_wo_entrp">      4.61181350 </i>
    <i name="e_0_energy">      4.61144442 </i>
   </energy>
  </scstep>
  <scstep>
   <time name="dav">    1.22    1.22</time>
   <time name="total">    1.22    1.22</time>
   <energy>
    <i name="e_fr_energy">    -10.82674321 </i>
    <i name="e_wo_entrp">    -10.82674321 </i>
    <i name="e_0_energy">    -10.82674321 </i>
   </energy>
  </scstep>
  <scstep>
   <time name="dav">    1.01    1.01</time>
   <time name="total">    1.01    1.01</time>
   <energy>
    <i name="e_fr_energy">    -11.02371504 </i>
    <i name="e_wo_entrp">    -11.02371504 </i>
    <i name="e_0_energy">    -11.02371504 </i>
   </energy>
  </scstep>
  <scstep>
   <time name="dav">    1.33    1.32</time>
   <time name="total">    1.33    1.32</time>
   <energy>
    <i name="e_fr_energy">    -11.02458874 </i>
    <i name="e_wo_entrp">    -11.02458874 </i>
    <i name="e_0_energy">    -11.02458874 </i>
   </energy>
  </scstep>
  <scstep>
   <time name="dav">    0.99    0.99</time>
   <time name="total">    1.08    1.08</time>
   <energy>
    <i name="e_fr_energy">    -11.02458955 </i>
    <i name="e_wo_entrp">    -11.02458955 </i>
    <i name="e_0_energy">    -11.02458955 </i>
   </energy>
  </scstep>
  <scstep>
   <time name="dav">    0.89    0.89</time>
   <time name="total">    1.07    1.07</time>
   <energy>
    <i name="e_fr_energy">    -10.90010021 </i>
    <i name="e_wo_entrp">    -10.90010021 </i>
    <i name="e_0_energy">    -10.90010021 </i>
   </energy>
  </scstep>
  <scstep>
   <time name="dav">    1.02    1.02</time>
   <time name="total">    1.22    1.22</time>
   <energy>
    <i name="e_fr_energy">    -10.84344006 </i>
    <i name="e_wo_entrp">    -10.84344006 </i>
    <i name="e_0_energy">    -10.84344006 </i>
   </energy>
  </scstep>
  <scstep>
   <time name="dav">    0.89    0.89</time>
   <time name="total">    1.08    1.08</time>
   <energy>
    <i name="e_fr_energy">    -10.84449805 </i>
    <i name="e_wo_entrp">    -10.84449805 </i>
    <i name="e_0_energy">    -10.84449805 </i>
   </energy>
  </scstep>
  <scstep>
   <time name="dav">    1.16    1.16</time>
   <time name="total">    1.36    1.36</time>
   <energy>
    <i name="e_fr_energy">    -10.84468468 </i>
    <i name="e_wo_entrp">    -10.84468468 </i>
    <i name="e_0_energy">    -10.84468468 </i>
   </energy>
  </scstep>
  <scstep>
   <time name="dav">    0.59    0.59</time>
   <time name="total">    0.68    0.68</time>
   <energy>
    <i name="alphaZ">      3.36228930 </i>
    <i name="ewald">   -228.52143995 </i>
    <i name="hartreedc">    -14.92283742 </i>
    <i name="XCdc">    -17.96412949 </i>
    <i name="pawpsdc">    866.26762026 </i>
    <i name="pawaedc">   -831.30521378 </i>
    <i name="eentropy">     -0.00000000 </i>
    <i name="bandstr">      6.10750770 </i>
    <i name="atom">    206.13149246 </i>
    <i name="e_fr_energy">    -10.84471093 </i>
    <i name="e_wo_entrp">    -10.84471093 </i>
    <i name="e_0_energy">    -10.84471093 </i>
   </energy>
  </scstep>
  <structure>
   <crystal>
    <varray name="basis" >
     <v>       0.00000000       2.71550000       2.71550000 </v>
     <v>       2.71550000       0.00000000       2.71550000 </v>
     <v>       2.71550000       2.71550000       0.00000000 </v>
    </varray>
    <i name="volume">     40.04786950 </i>
    <varray name="rec_basis" >
     <v>      -0.18412815       0.18412815       0.18412815 </v>
     <v>       0.18412815      -0.18412815       0.18412815 </v>
     <v>       0.18412815       0.18412815      -0.18412815 </v>
    </varray>
   </crystal>
   <varray name="positions" >
    <v>       0.00000000       0.00000000       0.00000000 </v>
    <v>       0.25000000       0.25000000       0.25000000 </v>
   </varray>
  </structure>
  <varray name="forces" >
   <v>       0.00000000       0.00000000       0.00000000 </v>
   <v>      -0.00000000      -0.00000000      -0.00000000 </v>
  </varray>
  <varray name="stress" >
   <v>      19.16657208      -0.00000000       0.00000000 </v>
   <v>       0.00000000      19.16657208       0.00000000 </v>
   <v>      -0.00000000       0.00000000      19.16657208 </v>
  </varray>
  <energy>
   <i name="e_fr_energy">    -10.84471093 </i>
   <i name="e_wo_entrp">    -10.84471093 </i>
   <i name="e_0_energy">     -0.00000000 </i>
  </energy>
  <time name="totalsc">   12.62   12.61</time>
 </calculation>
 <calculation>
  <scstep>
   <time name="dav">    0.87    0.86</time>
   <time name="total">    1.04    1.04</time>
   <energy>
    <i name="alphaZ">      3.24836670 </i>
    <i name="ewald">   -225.91077330 </i>
    <i name="hartreedc">    -14.75124470 </i>
    <i name="XCdc">    -18.13297184 </i>
    <i name="pawpsdc">    867.85960713 </i>
    <i name="pawaedc">   -832.89676120 </i>
    <i name="eentropy">     -0.00000000 </i>
    <i name="bandstr">      3.59825492 </i>
    <i name="atom">    206.13149246 </i>
    <i name="e_fr_energy">    -10.85402984 </i>
    <i name="e_wo_entrp">    -10.85402984 </i>
    <i name="e_0_energy">    -10.85402984 </i>
   </energy>
  </scstep>
  <scstep>
   <time name="dav">    1.00    1.00</time>
   <time name="total">    1.16    1.16</time>
   <energy>
    <i name="e_fr_energy">    -10.84970421 </i>
    <i name="e_wo_entrp">    -10.84970421 </i>
    <i name="e_0_energy">    -10.84970421 </i>
   </energy>
  </scstep>
  <scstep>
   <time name="dav">    0.91    0.91</time>
   <time name="total">    1.09    1.09</time>
   <energy>
    <i name="e_fr_energy">    -10.84742907 </i>
    <i name="e_wo_entrp">    -10.84742907 </i>
    <i name="e_0_energy">    -10.84742907 </i>
   </energy>
  </scstep>
  <scstep>
   <time name="dav">    0.64    0.64</time>
   <time name="total">    0.72    0.72</time>
   <energy>
    <i name="alphaZ">      3.24836670 </i>
    <i name="ewald">   -225.91077330 </i>
    <i name="hartreedc">    -15.33419239 </i>
    <i name="XCdc">    -18.11857821 </i>
    <i name="pawpsdc">    789.53810778 </i>
    <i name="pawaedc">   -754.55135510 </i>
    <i name="eentropy">     -0.00000000 </i>
    <i name="bandstr">      4.14950221 </i>
    <i name="atom">    206.13149246 </i>
    <i name="e_fr_energy">    -10.84742985 </i>
    <i name="e_wo_entrp">    -10.84742985 </i>
    <i name="e_0_energy">    -10.84742985 </i>
   </energy>
  </scstep>
  <structure>
   <crystal>
    <varray name="basis" >
     <v>       0.00000000       2.74688082       2.74688082 </v>
     <v>       2.74688082      -0.00000000       2.74688082 </v>
     <v>       2.74688082       2.74688082       0.00000000 </v>
    </varray>
    <i name="volume">     41.45237767 </i>
    <varray name="rec_basis" >
     <v>      -0.18202464       0.18202464       0.18202464 </v>
     <v>       0.18202464      -0.18202464       0.18202464 </v>
     <v>       0.18202464       0.18202464      -0.18202464 </v>
    </varray>
   </crystal>
   <varray name="positions" >
    <v>      -0.00000000       0.00000000       0.00000000 </v>
    <v>       0.25000000       0.25000000       0.25000000 </v>
   </varray>
  </structure>
  <varray name="forces" >
   <v>      -0.00000000      -0.00000000      -0.00000000 </v>
   <v>       0.00000000       0.00000000       0.00000000 </v>
  </varray>
  <varray name="stress" >
   <v>     -11.88929468      -0.00000000       0.00000000 </v>
   <v>       0.00000000     -11.88929468       0.00000000 </v>
   <v>      -0.00000000       0.00000000     -11.88929468 </v>
  </varray>
  <energy>
   <i name="e_fr_energy">    -10.84742985 </i>
   <i name="e_wo_entrp">    -10.84742985 </i>
   <i name="e_0_energy">     -0.00000000 </i>
  </energy>
  <time name="totalsc">    5.60    5.59</time>
 </calculation>
 <calculation>
  <scstep>
   <time name="dav">    0.96    0.96</time>
   <time name="total">    1.14    1.14</time>
   <energy>
    <i name="alphaZ">      3.29228976 </i>
    <i name="ewald">   -226.92444198 </i>
    <i name="hartreedc">    -15.40549444 </i>
    <i name="XCdc">    -18.05620750 </i>
    <i name="pawpsdc">    805.71403513 </i>
    <i name="pawaedc">   -770.72106996 </i>
    <i name="eentropy">     -0.00000000 </i>
    <i name="bandstr">      5.11879629 </i>
    <i name="atom">    206.13149246 </i>
    <i name="e_fr_energy">    -10.85060025 </i>
    <i name="e_wo_entrp">    -10.85060025 </i>
    <i name="e_0_energy">    -10.85060025 </i>
   </energy>
  </scstep>
  <scstep>
   <time name="dav">    1.11    1.11</time>
   <time name="total">    1.31    1.31</time>
   <energy>
    <i name="e_fr_energy">    -10.84992970 </i>
    <i name="e_wo_entrp">    -10.84992970 </i>
    <i name="e_0_energy">    -10.84992970 </i>
   </energy>
  </scstep>
  <scstep>
   <time name="dav">    0.89    0.89</time>
   <time name="total">    1.08    1.08</time>
   <energy>
    <i name="e_fr_energy">    -10.84958590 </i>
    <i name="e_wo_entrp">    -10.84958590 </i>
    <i name="e_0_energy">    -10.84958590 </i>
   </energy>
  </scstep>
  <scstep>
   <time name="dav">    0.50    0.50</time>
   <time name="total">    0.59    0.59</time>
   <energy>
    <i name="alphaZ">      3.29228976 </i>
    <i name="ewald">   -226.92444198 </i>
    <i name="hartreedc">    -15.17360836 </i>
    <i name="XCdc">    -18.06155740 </i>
    <i name="pawpsdc">    834.35809759 </i>
    <i name="pawaedc">   -799.37449452 </i>
    <i name="eentropy">     -0.00000000 </i>
    <i name="bandstr">      4.90263564 </i>
    <i name="atom">    206.13149246 </i>
    <i name="e_fr_energy">    -10.84958681 </i>
    <i name="e_wo_entrp">    -10.84958681 </i>
    <i name="e_0_energy">    -10.84958681 </i>
   </energy>
  </scstep>
  <structure>
   <crystal>
    <varray name="basis" >
     <v>       0.00000000       2.73461054       2.73461054 </v>
     <v>       2.73461054      -0.00000000       2.73461054 </v>
     <v>       2.73461054       2.73461054       0.00000000 </v>
    </varray>
    <i name="volume">     40.89935362 </i>
    <varray name="rec_basis" >
     <v>      -0.18284139       0.18284139       0.18284139 </v>
     <v>       0.18284139      -0.18284139       0.18284139 </v>
     <v>       0.18284139       0.18284139      -0.18284139 </v>
    </varray>
   </crystal>
   <varray name="positions" >
    <v>      -0.00000000       0.00000000       0.00000000 </v>
    <v>       0.25000000       0.25000000       0.25000000 </v>
   </varray>
  </structure>
  <varray name="forces" >
   <v>      -0.00000000      -0.00000000      -0.00000000 </v>
   <v>       0.00000000       0.00000000       0.00000000 </v>
  </varray>
  <varray name="stress" >
   <v>      -0.40344299       0.00000000       0.00000000 </v>
   <v>       0.00000000      -0.40344299       0.00000000 </v>
   <v>       0.00000000       0.00000000      -0.40344299 </v>
  </varray>
  <energy>
   <i name="e_fr_energy">    -10.84958681 </i>
   <i name="e_wo_entrp">    -10.84958681 </i>
   <i name="e_0_energy">     -0.00000000 </i>
  </energy>
  <time name="totalsc">    5.77    5.76</time>
  <eigenvalues>
   <array>
    <dimension dim="1">band</dimension>
    <dimension dim="2">kpoint</dimension>
    <dimension dim="3">spin</dimension>
    <field>eigene</field>
    <field>occ</field>
    <set>
     <set comment="spin 1">
      <set comment="kpoint 1">
       <r>   -6.1494    1.0000 </r>
       <r>    5.0819    1.0000 </r>
       <r>    5.5306    1.0000 </r>
       <r>    5.5306    1.0000 </r>
       <r>    8.2093    0.0000 </r>
       <r>    8.2912    0.0000 </r>
       <r>    8.2912    0.0000 </r>
       <r>    9.1502    0.0000 </r>
      </set>
      <set comment="kpoint 2">
       <r>   -5.8832    1.0000 </r>
       <r>    3.5824    1.0000 </r>
       <r>    4.7300    1.0000 </r>
       <r>    5.4138    1.0000 </r>
       <r>    8.2618    0.0000 </r>
       <r>    8.5343    0.0000 </r>
       <r>    8.8234    0.0000 </r>
       <r>   10.6196    0.0000 </r>
      </set>
      <set comment="kpoint 3">
       <r>   -5.2408    1.0000 </r>
       <r>    1.3707    1.0000 </r>
       <r>    4.2452    1.0000 </r>
       <r>    4.9551    1.0000 </r>
       <r>    7.8153    0.0000 </r>
       <r>    9.0238    0.0000 </r>
       <r>    9.3080    0.0000 </r>
       <r>   12.1561    0.0000 </r>
      </set>
      <set comment="kpoint 4">
       <r>   -4.3452    1.0000 </r>
       <r>   -0.5030    1.0000 </r>
       <r>    4.0301    1.0000 </r>
       <r>    4.5511    1.0000 </r>
       <r>    7.5013    0.0000 </r>
       <r>    9.0853    0.0000 </r>
       <r>    9.0990    0.0000 </r>
       <r>   13.3997    0.0000 </r>
      </set>
      <set comment="kpoint 5">
       <r>   -3.9009    1.0000 </r>
       <r>   -1.1980    1.0000 </r>
       <r>    4.0793    1.0000 </r>
       <r>    4.3345    1.0000 </r>
       <r>    7.4213    0.0000 </r>
       <r>    8.8929    0.0000 </r>
       <r>    9.1616    0.0000 </r>
       <r>   13.4720    0.0000 </r>
      </set>
      <set comment="kpoint 6">
       <r>   -4.6518    1.0000 </r>
       <r>    0.0509    1.0000 </r>
       <r>    4.3550    1.0000 </r>
       <r>    4.3640    1.0000 </r>
       <r>    7.5875    0.0000 </r>
       <r>    8.9001    0.0000 </r>
       <r>    9.4189    0.0000 </r>
       <r>   12.5173    0.0000 </r>
      </set>
      <set comment="kpoint 7">
       <r>   -5.4926    1.0000 </r>
       <r>    2.0960    1.0000 </r>
       <r>    4.6291    1.0000 </r>
       <r>    4.8253    1.0000 </r>
       <r>    7.9422    0.0000 </r>
       <r>    8.7633    0.0000 </r>
       <r>    9.4763    0.0000 </r>
       <r>   11.3355    0.0000 </r>
      </set>
      <set comment="kpoint 8">
       <r>   -6.0156    1.0000 </r>
       <r>    4.3324    1.0000 </r>
       <r>    5.1074    1.0000 </r>
       <r>    5.2649    1.0000 </r>
       <r>    8.0066    0.0000 </r>
       <r>    8.5762    0.0000 </r>
       <r>    8.8672    0.0000 </r>
       <r>    9.8874    0.0000 </r>
      </set>
      <set comment="kpoint 9">
       <r>   -5.7492    1.0000 </r>
       <r>    3.4404    1.0000 </r>
       <r>    4.5538    1.0000 </r>
       <r>    4.6363    1.0000 </r>
       <r>    7.5882    0.0000 </r>
       <r>    9.3313    0.0000 </r>
       <r>    9.7208    0.0000 </r>
       <r>   10.2340    0.0000 </r>
      </set>
      <set comment="kpoint 10">
       <r>   -5.2283    1.0000 </r>
       <r>    1.9471    1.0000 </r>
       <r>    3.5904    1.0000 </r>
       <r>    4.3795    1.0000 </r>
       <r>    7.7559    0.0000 </r>
       <r>    9.4416    0.0000 </r>
       <r>   10.0570    0.0000 </r>
       <r>   10.5127    0.0000 </r>
      </set>
      <set comment="kpoint 11">
       <r>   -4.3894    1.0000 </r>
       <r>    0.1018    1.0000 </r>
       <r>    3.0976    1.0000 </r>
       <r>    3.9722    1.0000 </r>
       <r>    7.9487    0.0000 </r>
       <r>    9.3681    0.0000 </r>
       <r>   10.5409    0.0000 </r>
       <r>   10.8058    0.0000 </r>
      </set>
      <set comment="kpoint 12">
       <r>   -3.6340    1.0000 </r>
       <r>   -1.0982    1.0000 </r>
       <r>    2.8104    1.0000 </r>
       <r>    3.8798    1.0000 </r>
       <r>    8.0177    0.0000 </r>
       <r>    9.0631    0.0000 </r>
       <r>   10.3867    0.0000 </r>
       <r>   12.8201    0.0000 </r>
      </set>
      <set comment="kpoint 13">
       <r>   -4.0881    1.0000 </r>
       <r>   -0.4137    1.0000 </r>
       <r>    2.7379    1.0000 </r>
       <r>    4.1625    1.0000 </r>
       <r>    8.2968    0.0000 </r>
       <r>    8.9761    0.0000 </r>
       <r>   10.3328    0.0000 </r>
       <r>   12.0728    0.0000 </r>
      </set>
      <set comment="kpoint 14">
       <r>   -4.9821    1.0000 </r>
       <r>    1.3016    1.0000 </r>
       <r>    3.0383    1.0000 </r>
       <r>    4.6666    1.0000 </r>
       <r>    8.6081    0.0000 </r>
       <r>    8.9122    0.0000 </r>
       <r>   10.2112    0.0000 </r>
       <r>   10.6825    0.0000 </r>
      </set>
      <set comment="kpoint 15">
       <r>   -5.6198    1.0000 </r>
       <r>    2.7695    1.0000 </r>
       <r>    4.1570    1.0000 </r>
       <r>    5.0372    1.0000 </r>
       <r>    8.1494    0.0000 </r>
       <r>    8.8125    0.0000 </r>
       <r>    9.5339    0.0000 </r>
       <r>   10.7583    0.0000 </r>
      </set>
      <set comment="kpoint 16">
       <r>   -4.8305    1.0000 </r>
       <r>    1.4443    1.0000 </r>
       <r>    3.4500    1.0000 </r>
       <r>    3.5709    1.0000 </r>
       <r>    6.7820    0.0000 </r>
       <r>    8.4331    0.0000 </r>
       <r>   11.5725    0.0000 </r>
       <r>   11.7150    0.0000 </r>
      </set>
      <set comment="kpoint 17">
       <r>   -4.0839    1.0000 </r>
       <r>    0.2149    1.0000 </r>
       <r>    2.6685    1.0000 </r>
       <r>    3.2265    1.0000 </r>
       <r>    7.0942    0.0000 </r>
       <r>    8.2723    0.0000 </r>
       <r>   11.5343    0.0000 </r>
       <r>   12.7024    0.0000 </r>
      </set>
      <set comment="kpoint 18">
       <r>   -3.1927    1.0000 </r>
       <r>   -0.9739    1.0000 </r>
       <r>    1.8340    1.0000 </r>
       <r>    3.1953    1.0000 </r>
       <r>    7.3280    0.0000 </r>
       <r>    9.9248    0.0000 </r>
       <r>   11.1109    0.0000 </r>
       <r>   12.6161    0.0000 </r>
      </set>
      <set comment="kpoint 19">
       <r>   -3.2637    1.0000 </r>
       <r>   -0.8805    1.0000 </r>
       <r>    1.4836    1.0000 </r>
       <r>    3.5372    1.0000 </r>
       <r>    7.7285    0.0000 </r>
       <r>   10.6535    0.0000 </r>
       <r>   11.9541    0.0000 </r>
       <r>   12.2387    0.0000 </r>
      </set>
      <set comment="kpoint 20">
       <r>   -4.1534    1.0000 </r>
       <r>    0.0666    1.0000 </r>
       <r>    2.0833    1.0000 </r>
       <r>    4.1185    1.0000 </r>
       <r>    8.3566    0.0000 </r>
       <r>    9.5547    0.0000 </r>
       <r>   10.9801    0.0000 </r>
       <r>   11.2502    0.0000 </r>
      </set>
      <set comment="kpoint 21">
       <r>   -4.8697    1.0000 </r>
       <r>    0.7015    1.0000 </r>
       <r>    3.7051    1.0000 </r>
       <r>    4.5681    1.0000 </r>
       <r>    8.0741    0.0000 </r>
       <r>    8.9267    0.0000 </r>
       <r>    9.7778    0.0000 </r>
       <r>   11.4545    0.0000 </r>
      </set>
      <set comment="kpoint 22">
       <r>   -3.4347    1.0000 </r>
       <r>   -0.6427    1.0000 </r>
       <r>    2.7661    1.0000 </r>
       <r>    2.9818    1.0000 </r>
       <r>    6.3895    0.0000 </r>
       <r>    7.0963    0.0000 </r>
       <r>   13.8583    0.0000 </r>
       <r>   13.8657    0.0000 </r>
      </set>
      <set comment="kpoint 23">
       <r>   -2.5310    1.0000 </r>
       <r>   -1.6258    1.0000 </r>
       <r>    2.2122    1.0000 </r>
       <r>    2.7399    1.0000 </r>
       <r>    6.8187    0.0000 </r>
       <r>    7.5441    0.0000 </r>
       <r>   13.6077    0.0000 </r>
       <r>   14.6247    0.0000 </r>
      </set>
      <set comment="kpoint 24">
       <r>   -2.6279    1.0000 </r>
       <r>   -1.4608    1.0000 </r>
       <r>    1.4879    1.0000 </r>
       <r>    3.0528    1.0000 </r>
       <r>    7.1814    0.0000 </r>
       <r>    9.7698    0.0000 </r>
       <r>   12.0888    0.0000 </r>
       <r>   13.2315    0.0000 </r>
      </set>
      <set comment="kpoint 25">
       <r>   -3.3798    1.0000 </r>
       <r>   -1.0539    1.0000 </r>
       <r>    2.0356    1.0000 </r>
       <r>    3.6499    1.0000 </r>
       <r>    7.8482    0.0000 </r>
       <r>    9.8051    0.0000 </r>
       <r>   11.3390    0.0000 </r>
       <r>   12.5729    0.0000 </r>
      </set>
      <set comment="kpoint 26">
       <r>   -3.9845    1.0000 </r>
       <r>   -0.9035    1.0000 </r>
       <r>    3.5315    1.0000 </r>
       <r>    4.2347    1.0000 </r>
       <r>    7.8738    0.0000 </r>
       <r>    8.8260    0.0000 </r>
       <r>    9.5988    0.0000 </r>
       <r>   13.1392    0.0000 </r>
      </set>
      <set comment="kpoint 27">
       <r>   -2.5819    1.0000 </r>
       <r>   -1.6432    1.0000 </r>
       <r>    2.6293    1.0000 </r>
       <r>    2.8615    1.0000 </r>
       <r>    6.3854    0.0000 </r>
       <r>    6.7435    0.0000 </r>
       <r>   14.9310    0.0000 </r>
       <r>   15.0030    0.0000 </r>
      </set>
      <set comment="kpoint 28">
       <r>   -3.3498    1.0000 </r>
       <r>   -0.7061    1.0000 </r>
       <r>    2.3685    1.0000 </r>
       <r>    2.8984    1.0000 </r>
       <r>    6.9060    0.0000 </r>
       <r>    7.7936    0.0000 </r>
       <r>   12.5427    0.0000 </r>
       <r>   13.8586    0.0000 </r>
      </set>
      <set comment="kpoint 29">
       <r>   -3.8181    1.0000 </r>
       <r>   -0.4450    1.0000 </r>
       <r>    2.4286    1.0000 </r>
       <r>    3.4935    1.0000 </r>
       <r>    7.6041    0.0000 </r>
       <r>   10.1089    0.0000 </r>
       <r>   10.3330    0.0000 </r>
       <r>   11.5497    0.0000 </r>
      </set>
      <set comment="kpoint 30">
       <r>   -4.1882    1.0000 </r>
       <r>    0.3964    1.0000 </r>
       <r>    3.0399    1.0000 </r>
       <r>    3.2202    1.0000 </r>
       <r>    6.5201    0.0000 </r>
       <r>    7.6709    0.0000 </r>
       <r>   12.6987    0.0000 </r>
       <r>   12.7755    0.0000 </r>
      </set>
      <set comment="kpoint 31">
       <r>   -4.7139    1.0000 </r>
       <r>    1.1018    1.0000 </r>
       <r>    3.0854    1.0000 </r>
       <r>    3.7325    1.0000 </r>
       <r>    7.3842    0.0000 </r>
       <r>    8.9465    0.0000 </r>
       <r>   10.5943    0.0000 </r>
       <r>   11.5771    0.0000 </r>
      </set>
      <set comment="kpoint 32">
       <r>   -5.3528    1.0000 </r>
       <r>    2.4691    1.0000 </r>
       <r>    3.9915    1.0000 </r>
       <r>    4.0231    1.0000 </r>
       <r>    7.1523    0.0000 </r>
       <r>    9.2938    0.0000 </r>
       <r>   10.5275    0.0000 </r>
       <r>   10.6900    0.0000 </r>
      </set>
      <set comment="kpoint 33">
       <r>   -5.7524    1.0000 </r>
       <r>    2.8626    1.0000 </r>
       <r>    5.0927    1.0000 </r>
       <r>    5.0927    1.0000 </r>
       <r>    7.8153    0.0000 </r>
       <r>    8.9047    0.0000 </r>
       <r>    8.9047    0.0000 </r>
       <r>   11.2652    0.0000 </r>
      </set>
      <set comment="kpoint 34">
       <r>   -5.3627    1.0000 </r>
       <r>    2.0263    1.0000 </r>
       <r>    3.5879    1.0000 </r>
       <r>    5.1113    1.0000 </r>
       <r>    8.4680    0.0000 </r>
       <r>    9.0268    0.0000 </r>
       <r>    9.3174    0.0000 </r>
       <r>   11.3173    0.0000 </r>
      </set>
      <set comment="kpoint 35">
       <r>   -4.6203    1.0000 </r>
       <r>    0.6645    1.0000 </r>
       <r>    2.5132    1.0000 </r>
       <r>    4.6094    1.0000 </r>
       <r>    8.3147    0.0000 </r>
       <r>    9.7794    0.0000 </r>
       <r>    9.9833    0.0000 </r>
       <r>   11.6011    0.0000 </r>
      </set>
      <set comment="kpoint 36">
       <r>   -3.7318    1.0000 </r>
       <r>   -0.8149    1.0000 </r>
       <r>    2.3616    1.0000 </r>
       <r>    4.0814    1.0000 </r>
       <r>    7.8166    0.0000 </r>
       <r>    9.9584    0.0000 </r>
       <r>   10.1653    0.0000 </r>
       <r>   13.4482    0.0000 </r>
      </set>
      <set comment="kpoint 37">
       <r>   -3.7163    1.0000 </r>
       <r>   -0.8430    1.0000 </r>
       <r>    2.6593    1.0000 </r>
       <r>    3.7652    1.0000 </r>
       <r>    7.5396    0.0000 </r>
       <r>   10.0312    0.0000 </r>
       <r>   10.5087    0.0000 </r>
       <r>   11.4945    0.0000 </r>
      </set>
      <set comment="kpoint 38">
       <r>   -4.6035    1.0000 </r>
       <r>    0.6610    1.0000 </r>
       <r>    3.2684    1.0000 </r>
       <r>    3.7412    1.0000 </r>
       <r>    7.4722    0.0000 </r>
       <r>    9.6572    0.0000 </r>
       <r>   10.3056    0.0000 </r>
       <r>   10.8820    0.0000 </r>
      </set>
      <set comment="kpoint 39">
       <r>   -5.1075    1.0000 </r>
       <r>    1.3643    1.0000 </r>
       <r>    4.0915    1.0000 </r>
       <r>    4.1571    1.0000 </r>
       <r>    7.8653    0.0000 </r>
       <r>    9.2368    0.0000 </r>
       <r>   10.1432    0.0000 </r>
       <r>   10.5069    0.0000 </r>
      </set>
      <set comment="kpoint 40">
       <r>   -4.4850    1.0000 </r>
       <r>    0.5984    1.0000 </r>
       <r>    2.5697    1.0000 </r>
       <r>    3.9627    1.0000 </r>
       <r>    8.3542    0.0000 </r>
       <r>    9.3972    0.0000 </r>
       <r>    9.8762    0.0000 </r>
       <r>   11.3974    0.0000 </r>
      </set>
      <set comment="kpoint 41">
       <r>   -3.5994    1.0000 </r>
       <r>   -0.4973    1.0000 </r>
       <r>    1.7847    1.0000 </r>
       <r>    3.3978    1.0000 </r>
       <r>    8.8058    0.0000 </r>
       <r>    9.2889    0.0000 </r>
       <r>   10.5650    0.0000 </r>
       <r>   12.4865    0.0000 </r>
      </set>
      <set comment="kpoint 42">
       <r>   -3.1150    1.0000 </r>
       <r>   -1.1072    1.0000 </r>
       <r>    1.7883    1.0000 </r>
       <r>    3.0868    1.0000 </r>
       <r>    8.3361    0.0000 </r>
       <r>    9.6171    0.0000 </r>
       <r>   11.3428    0.0000 </r>
       <r>   12.6354    0.0000 </r>
      </set>
      <set comment="kpoint 43">
       <r>   -3.8823    1.0000 </r>
       <r>   -0.1081    1.0000 </r>
       <r>    2.2082    1.0000 </r>
       <r>    3.2649    1.0000 </r>
       <r>    8.0681    0.0000 </r>
       <r>    9.2756    0.0000 </r>
       <r>   10.1501    0.0000 </r>
       <r>   12.6157    0.0000 </r>
      </set>
      <set comment="kpoint 44">
       <r>   -3.9911    1.0000 </r>
       <r>   -0.0514    1.0000 </r>
       <r>    2.5406    1.0000 </r>
       <r>    3.4126    1.0000 </r>
       <r>    7.0919    0.0000 </r>
       <r>    9.1126    0.0000 </r>
       <r>   11.3852    0.0000 </r>
       <r>   11.7001    0.0000 </r>
      </set>
      <set comment="kpoint 45">
       <r>   -3.1921    1.0000 </r>
       <r>   -0.8454    1.0000 </r>
       <r>    1.9660    1.0000 </r>
       <r>    2.7311    1.0000 </r>
       <r>    7.8638    0.0000 </r>
       <r>    8.8721    0.0000 </r>
       <r>   11.0365    0.0000 </r>
       <r>   13.8349    0.0000 </r>
      </set>
      <set comment="kpoint 46">
       <r>   -2.3890    1.0000 </r>
       <r>   -1.5963    1.0000 </r>
       <r>    1.6492    1.0000 </r>
       <r>    2.2323    1.0000 </r>
       <r>    8.9804    0.0000 </r>
       <r>    9.9021    0.0000 </r>
       <r>   10.5926    0.0000 </r>
       <r>   11.5899    0.0000 </r>
      </set>
      <set comment="kpoint 47">
       <r>   -2.9883    1.0000 </r>
       <r>   -1.0512    1.0000 </r>
       <r>    1.6416    1.0000 </r>
       <r>    2.7053    1.0000 </r>
       <r>    9.0766    0.0000 </r>
       <r>    9.5024    0.0000 </r>
       <r>   10.2699    0.0000 </r>
       <r>   12.7453    0.0000 </r>
      </set>
      <set comment="kpoint 48">
       <r>   -2.5515    1.0000 </r>
       <r>   -1.5758    1.0000 </r>
       <r>    1.7533    1.0000 </r>
       <r>    3.0724    1.0000 </r>
       <r>    6.6602    0.0000 </r>
       <r>    8.5560    0.0000 </r>
       <r>   13.5204    0.0000 </r>
       <r>   13.7312    0.0000 </r>
      </set>
      <set comment="kpoint 49">
       <r>   -2.4517    1.0000 </r>
       <r>   -1.6057    1.0000 </r>
       <r>    1.8466    1.0000 </r>
       <r>    2.4465    1.0000 </r>
       <r>    7.7589    0.0000 </r>
       <r>    8.6706    0.0000 </r>
       <r>   12.0340    0.0000 </r>
       <r>   13.1422    0.0000 </r>
      </set>
      <set comment="kpoint 50">
       <r>   -3.2890    1.0000 </r>
       <r>   -0.8079    1.0000 </r>
       <r>    2.0184    1.0000 </r>
       <r>    3.1869    1.0000 </r>
       <r>    6.8091    0.0000 </r>
       <r>    8.7396    0.0000 </r>
       <r>   12.5432    0.0000 </r>
       <r>   12.6014    0.0000 </r>
      </set>
      <set comment="kpoint 51">
       <r>   -5.0008    1.0000 </r>
       <r>    0.6710    1.0000 </r>
       <r>    4.6820    1.0000 </r>
       <r>    4.6820    1.0000 </r>
       <r>    7.3637    0.0000 </r>
       <r>    9.1335    0.0000 </r>
       <r>    9.1335    0.0000 </r>
       <r>   13.2483    0.0000 </r>
      </set>
      <set comment="kpoint 52">
       <r>   -4.5241    1.0000 </r>
       <r>    0.0964    1.0000 </r>
       <r>    3.2239    1.0000 </r>
       <r>    4.5951    1.0000 </r>
       <r>    8.0795    0.0000 </r>
       <r>    9.3572    0.0000 </r>
       <r>    9.4029    0.0000 </r>
       <r>   12.6100    0.0000 </r>
      </set>
      <set comment="kpoint 53">
       <r>   -3.7365    1.0000 </r>
       <r>   -0.4332    1.0000 </r>
       <r>    1.7050    1.0000 </r>
       <r>    4.0176    1.0000 </r>
       <r>    7.7404    0.0000 </r>
       <r>   10.7965    0.0000 </r>
       <r>   10.9687    0.0000 </r>
       <r>   12.3694    0.0000 </r>
      </set>
      <set comment="kpoint 54">
       <r>   -2.9201    1.0000 </r>
       <r>   -1.2106    1.0000 </r>
       <r>    1.3687    1.0000 </r>
       <r>    3.4740    1.0000 </r>
       <r>    7.1257    0.0000 </r>
       <r>   11.0001    0.0000 </r>
       <r>   12.0625    0.0000 </r>
       <r>   12.3399    0.0000 </r>
      </set>
      <set comment="kpoint 55">
       <r>   -4.2117    1.0000 </r>
       <r>   -0.4585    1.0000 </r>
       <r>    3.5585    1.0000 </r>
       <r>    4.0348    1.0000 </r>
       <r>    7.7905    0.0000 </r>
       <r>    9.1384    0.0000 </r>
       <r>    9.8825    0.0000 </r>
       <r>   11.9171    0.0000 </r>
      </set>
      <set comment="kpoint 56">
       <r>   -3.5956    1.0000 </r>
       <r>   -0.8160    1.0000 </r>
       <r>    2.2563    1.0000 </r>
       <r>    3.5617    1.0000 </r>
       <r>    8.5581    0.0000 </r>
       <r>    8.9029    0.0000 </r>
       <r>   11.4394    0.0000 </r>
       <r>   11.6567    0.0000 </r>
      </set>
      <set comment="kpoint 57">
       <r>   -2.7827    1.0000 </r>
       <r>   -1.2756    1.0000 </r>
       <r>    1.4602    1.0000 </r>
       <r>    2.8522    1.0000 </r>
       <r>    8.2079    0.0000 </r>
       <r>   10.4449    0.0000 </r>
       <r>   11.2351    0.0000 </r>
       <r>   11.7636    0.0000 </r>
      </set>
      <set comment="kpoint 58">
       <r>   -3.2391    1.0000 </r>
       <r>   -1.0939    1.0000 </r>
       <r>    1.8654    1.0000 </r>
       <r>    3.5733    1.0000 </r>
       <r>    7.2736    0.0000 </r>
       <r>   10.9612    0.0000 </r>
       <r>   11.2703    0.0000 </r>
       <r>   11.3754    0.0000 </r>
      </set>
      <set comment="kpoint 59">
       <r>   -4.1170    1.0000 </r>
       <r>   -0.9640    1.0000 </r>
       <r>    4.4624    1.0000 </r>
       <r>    4.4624    1.0000 </r>
       <r>    7.1118    0.0000 </r>
       <r>    8.9931    0.0000 </r>
       <r>    8.9931    0.0000 </r>
       <r>   13.3621    0.0000 </r>
      </set>
      <set comment="kpoint 60">
       <r>   -3.7683    1.0000 </r>
       <r>   -1.1386    1.0000 </r>
       <r>    3.2435    1.0000 </r>
       <r>    4.1958    1.0000 </r>
       <r>    7.8218    0.0000 </r>
       <r>    9.1286    0.0000 </r>
       <r>    9.5701    0.0000 </r>
       <r>   13.7507    0.0000 </r>
      </set>
     </set>
    </set>
   </array>
  </eigenvalues>
  <separator name="orbital magnetization" >
   <v name="MAGDIPOLOUT">      0.00000000      0.00000000      0.00000000</v>
  </separator>
  <dos>
   <i name="efermi">      5.75012492 </i>
   <total>
    <array>
     <dimension dim="1">gridpoints</dimension>
     <dimension dim="2">spin</dimension>
     <field>energy</field>
     <field>total</field>
     <field>integrated</field>
     <set>
      <set comment="spin 1">
       <r>    -7.2071     0.0000     0.0000 </r>
       <r>    -7.1295     0.0000     0.0000 </r>
       <r>    -7.0519     0.0000     0.0000 </r>
       <r>    -6.9744     0.0000     0.0000 </r>
       <r>    -6.8968     0.0000     0.0000 </r>
       <r>    -6.8193     0.0000     0.0000 </r>
       <r>    -6.7417     0.0000     0.0000 </r>
       <r>    -6.6641     0.0000     0.0000 </r>
       <r>    -6.5866     0.0000     0.0000 </r>
       <r>    -6.5090     0.0000     0.0000 </r>
       <r>    -6.4315     0.0000     0.0000 </r>
       <r>    -6.3539     0.0000     0.0000 </r>
       <r>    -6.2764     0.0000     0.0000 </r>
       <r>    -6.1988     0.0082     0.0006 </r>
       <r>    -6.1212     0.0716     0.0062 </r>
       <r>    -6.0437     0.0854     0.0128 </r>
       <r>    -5.9661     0.2162     0.0296 </r>
       <r>    -5.8886     0.1544     0.0416 </r>
       <r>    -5.8110     0.1802     0.0555 </r>
       <r>    -5.7334     0.2636     0.0760 </r>
       <r>    -5.6559     0.2196     0.0930 </r>
       <r>    -5.5783     0.4426     0.1273 </r>
       <r>    -5.5008     0.1939     0.1424 </r>
       <r>    -5.4232     0.1915     0.1572 </r>
       <r>    -5.3456     0.3705     0.1860 </r>
       <r>    -5.2681     0.3629     0.2141 </r>
       <r>    -5.1905     0.6582     0.2652 </r>
       <r>    -5.1130     0.2390     0.2837 </r>
       <r>    -5.0354     0.2200     0.3008 </r>
       <r>    -4.9579     0.4988     0.3394 </r>
       <r>    -4.8803     0.4102     0.3713 </r>
       <r>    -4.8027     0.5732     0.4157 </r>
       <r>    -4.7252     0.3115     0.4399 </r>
       <r>    -4.6476     0.6176     0.4878 </r>
       <r>    -4.5701     0.6165     0.5356 </r>
       <r>    -4.4925     0.5426     0.5777 </r>
       <r>    -4.4149     0.5435     0.6198 </r>
       <r>    -4.3374     0.6046     0.6667 </r>
       <r>    -4.2598     0.1982     0.6821 </r>
       <r>    -4.1823     0.5137     0.7219 </r>
       <r>    -4.1047     1.0353     0.8022 </r>
       <r>    -4.0271     0.9946     0.8794 </r>
       <r>    -3.9496     0.7589     0.9382 </r>
       <r>    -3.8720     0.7405     0.9957 </r>
       <r>    -3.7945     0.8053     1.0581 </r>
       <r>    -3.7169     0.9055     1.1284 </r>
       <r>    -3.6393     0.7621     1.1875 </r>
       <r>    -3.5618     1.2089     1.2812 </r>
       <r>    -3.4842     0.2264     1.2988 </r>
       <r>    -3.4067     0.3810     1.3283 </r>
       <r>    -3.3291     0.9504     1.4020 </r>
       <r>    -3.2516     0.9614     1.4766 </r>
       <r>    -3.1740     1.2621     1.5745 </r>
       <r>    -3.0964     0.7690     1.6341 </r>
       <r>    -3.0189     0.3004     1.6574 </r>
       <r>    -2.9413     0.5158     1.6974 </r>
       <r>    -2.8638     0.2645     1.7180 </r>
       <r>    -2.7862     0.2887     1.7403 </r>
       <r>    -2.7086     0.3218     1.7653 </r>
       <r>    -2.6311     0.3145     1.7897 </r>
       <r>    -2.5535     0.8255     1.8537 </r>
       <r>    -2.4760     0.7889     1.9149 </r>
       <r>    -2.3984     0.6915     1.9685 </r>
       <r>    -2.3208     0.3892     1.9987 </r>
       <r>    -2.2433     0.0164     2.0000 </r>
       <r>    -2.1657     0.0000     2.0000 </r>
       <r>    -2.0882     0.0000     2.0000 </r>
       <r>    -2.0106     0.0000     2.0000 </r>
       <r>    -1.9331     0.0000     2.0000 </r>
       <r>    -1.8555     0.0000     2.0000 </r>
       <r>    -1.7779     0.0000     2.0000 </r>
       <r>    -1.7004     0.0298     2.0023 </r>
       <r>    -1.6228     0.8642     2.0693 </r>
       <r>    -1.5453     1.3910     2.1772 </r>
       <r>    -1.4677     0.3877     2.2073 </r>
       <r>    -1.3901     0.3358     2.2333 </r>
       <r>    -1.3126     0.1036     2.2414 </r>
       <r>    -1.2350     0.5581     2.2847 </r>
       <r>    -1.1575     0.6799     2.3374 </r>
       <r>    -1.0799     1.5255     2.4557 </r>
       <r>    -1.0023     1.4215     2.5659 </r>
       <r>    -0.9248     0.8379     2.6309 </r>
       <r>    -0.8472     1.5279     2.7494 </r>
       <r>    -0.7697     1.4947     2.8654 </r>
       <r>    -0.6921     0.5434     2.9075 </r>
       <r>    -0.6146     0.4206     2.9401 </r>
       <r>    -0.5370     0.2037     2.9559 </r>
       <r>    -0.4594     1.1334     3.0438 </r>
       <r>    -0.3819     1.2883     3.1438 </r>
       <r>    -0.3043     0.1603     3.1562 </r>
       <r>    -0.2268     0.0009     3.1563 </r>
       <r>    -0.1492     0.0745     3.1620 </r>
       <r>    -0.0716     0.5238     3.2027 </r>
       <r>     0.0059     0.3521     3.2300 </r>
       <r>     0.0835     0.9076     3.3004 </r>
       <r>     0.1610     0.8589     3.3670 </r>
       <r>     0.2386     0.4551     3.4023 </r>
       <r>     0.3162     0.1541     3.4142 </r>
       <r>     0.3937     0.1398     3.4251 </r>
       <r>     0.4713     0.1551     3.4371 </r>
       <r>     0.5488     0.0542     3.4413 </r>
       <r>     0.6264     0.5385     3.4831 </r>
       <r>     0.7039     0.9486     3.5566 </r>
       <r>     0.7815     0.3702     3.5854 </r>
       <r>     0.8591     0.0075     3.5859 </r>
       <r>     0.9366     0.0000     3.5859 </r>
       <r>     1.0142     0.0040     3.5862 </r>
       <r>     1.0917     0.2308     3.6042 </r>
       <r>     1.1693     0.3527     3.6315 </r>
       <r>     1.2469     0.0538     3.6357 </r>
       <r>     1.3244     0.5104     3.6753 </r>
       <r>     1.4020     0.8858     3.7440 </r>
       <r>     1.4795     1.2795     3.8432 </r>
       <r>     1.5571     0.8930     3.9125 </r>
       <r>     1.6347     0.4891     3.9504 </r>
       <r>     1.7122     0.9385     4.0232 </r>
       <r>     1.7898     1.1088     4.1092 </r>
       <r>     1.8673     1.5950     4.2329 </r>
       <r>     1.9449     0.8816     4.3012 </r>
       <r>     2.0225     1.2549     4.3986 </r>
       <r>     2.1000     1.2516     4.4957 </r>
       <r>     2.1776     0.6131     4.5432 </r>
       <r>     2.2551     1.5733     4.6652 </r>
       <r>     2.3327     0.7374     4.7224 </r>
       <r>     2.4102     0.9509     4.7962 </r>
       <r>     2.4878     1.2245     4.8911 </r>
       <r>     2.5654     0.8885     4.9600 </r>
       <r>     2.6429     0.8692     5.0275 </r>
       <r>     2.7205     1.7780     5.1654 </r>
       <r>     2.7980     2.3142     5.3448 </r>
       <r>     2.8756     1.4402     5.4565 </r>
       <r>     2.9532     0.7934     5.5181 </r>
       <r>     3.0307     0.9017     5.5880 </r>
       <r>     3.1083     2.3482     5.7701 </r>
       <r>     3.1858     1.2203     5.8648 </r>
       <r>     3.2634     1.9994     6.0199 </r>
       <r>     3.3410     0.7744     6.0799 </r>
       <r>     3.4185     0.7498     6.1381 </r>
       <r>     3.4961     1.4447     6.2501 </r>
       <r>     3.5736     2.5614     6.4488 </r>
       <r>     3.6512     1.8672     6.5936 </r>
       <r>     3.7287     1.1800     6.6851 </r>
       <r>     3.8063     0.8894     6.7541 </r>
       <r>     3.8839     0.3896     6.7843 </r>
       <r>     3.9614     0.8824     6.8528 </r>
       <r>     4.0390     1.7089     6.9853 </r>
       <r>     4.1165     1.5912     7.1087 </r>
       <r>     4.1941     1.8088     7.2490 </r>
       <r>     4.2717     1.0871     7.3333 </r>
       <r>     4.3492     0.8922     7.4025 </r>
       <r>     4.4268     1.0121     7.4810 </r>
       <r>     4.5043     0.2972     7.5041 </r>
       <r>     4.5819     1.0480     7.5853 </r>
       <r>     4.6595     1.4563     7.6983 </r>
       <r>     4.7370     0.8163     7.7616 </r>
       <r>     4.8146     0.2653     7.7822 </r>
       <r>     4.8921     0.1920     7.7971 </r>
       <r>     4.9697     0.2140     7.8137 </r>
       <r>     5.0472     0.5146     7.8536 </r>
       <r>     5.1248     0.8299     7.9179 </r>
       <r>     5.2024     0.2608     7.9382 </r>
       <r>     5.2799     0.1919     7.9531 </r>
       <r>     5.3575     0.1170     7.9621 </r>
       <r>     5.4350     0.2047     7.9780 </r>
       <r>     5.5126     0.1427     7.9891 </r>
       <r>     5.5902     0.1315     7.9993 </r>
       <r>     5.6677     0.0093     8.0000 </r>
       <r>     5.7453     0.0000     8.0000 </r>
       <r>     5.8228     0.0000     8.0000 </r>
       <r>     5.9004     0.0000     8.0000 </r>
       <r>     5.9780     0.0000     8.0000 </r>
       <r>     6.0555     0.0000     8.0000 </r>
       <r>     6.1331     0.0000     8.0000 </r>
       <r>     6.2106     0.0000     8.0000 </r>
       <r>     6.2882     0.0015     8.0001 </r>
       <r>     6.3657     0.1618     8.0127 </r>
       <r>     6.4433     0.4109     8.0445 </r>
       <r>     6.5209     0.1837     8.0588 </r>
       <r>     6.5984     0.1568     8.0709 </r>
       <r>     6.6760     0.2039     8.0868 </r>
       <r>     6.7535     0.3747     8.1158 </r>
       <r>     6.8311     0.9102     8.1864 </r>
       <r>     6.9087     0.6325     8.2355 </r>
       <r>     6.9862     0.2825     8.2574 </r>
       <r>     7.0638     0.2649     8.2779 </r>
       <r>     7.1413     1.3146     8.3799 </r>
       <r>     7.2189     0.8655     8.4470 </r>
       <r>     7.2965     0.4218     8.4797 </r>
       <r>     7.3740     0.8282     8.5440 </r>
       <r>     7.4516     0.7790     8.6044 </r>
       <r>     7.5291     0.8451     8.6699 </r>
       <r>     7.6067     1.3529     8.7748 </r>
       <r>     7.6842     0.7774     8.8351 </r>
       <r>     7.7618     1.6324     8.9618 </r>
       <r>     7.8394     2.5984     9.1633 </r>
       <r>     7.9169     1.9626     9.3155 </r>
       <r>     7.9945     1.0737     9.3988 </r>
       <r>     8.0720     1.4052     9.5078 </r>
       <r>     8.1496     1.1217     9.5948 </r>
       <r>     8.2272     0.9130     9.6656 </r>
       <r>     8.3047     1.6518     9.7937 </r>
       <r>     8.3823     1.9392     9.9441 </r>
       <r>     8.4598     0.6818     9.9970 </r>
       <r>     8.5374     0.7080    10.0519 </r>
       <r>     8.6150     1.3354    10.1554 </r>
       <r>     8.6925     0.7853    10.2163 </r>
       <r>     8.7701     0.7683    10.2759 </r>
       <r>     8.8476     2.0368    10.4339 </r>
       <r>     8.9252     2.8959    10.6585 </r>
       <r>     9.0028     2.4671    10.8499 </r>
       <r>     9.0803     1.8693    10.9948 </r>
       <r>     9.1579     1.8228    11.1362 </r>
       <r>     9.2354     0.7400    11.1936 </r>
       <r>     9.3130     1.6724    11.3233 </r>
       <r>     9.3905     1.9154    11.4719 </r>
       <r>     9.4681     1.6324    11.5985 </r>
       <r>     9.5457     1.5197    11.7163 </r>
       <r>     9.6232     1.6494    11.8443 </r>
       <r>     9.7008     0.7744    11.9043 </r>
       <r>     9.7783     1.1620    11.9944 </r>
       <r>     9.8559     1.4863    12.1097 </r>
       <r>     9.9335     1.7679    12.2468 </r>
       <r>    10.0110     1.0020    12.3246 </r>
       <r>    10.0886     0.9419    12.3976 </r>
       <r>    10.1661     1.3380    12.5014 </r>
       <r>    10.2437     1.2158    12.5957 </r>
       <r>    10.3213     1.3047    12.6969 </r>
       <r>    10.3988     1.2899    12.7969 </r>
       <r>    10.4764     0.9411    12.8699 </r>
       <r>    10.5539     1.9613    13.0220 </r>
       <r>    10.6315     2.0513    13.1811 </r>
       <r>    10.7090     1.3834    13.2884 </r>
       <r>    10.7866     0.9808    13.3645 </r>
       <r>    10.8642     0.7956    13.4262 </r>
       <r>    10.9417     0.4892    13.4641 </r>
       <r>    11.0193     1.2526    13.5613 </r>
       <r>    11.0968     0.8016    13.6234 </r>
       <r>    11.1744     0.4385    13.6574 </r>
       <r>    11.2520     0.8586    13.7240 </r>
       <r>    11.3295     1.5492    13.8442 </r>
       <r>    11.4071     1.9569    13.9960 </r>
       <r>    11.4846     1.4692    14.1099 </r>
       <r>    11.5622     1.6402    14.2371 </r>
       <r>    11.6398     1.7612    14.3737 </r>
       <r>    11.7173     0.9180    14.4449 </r>
       <r>    11.7949     0.6924    14.4986 </r>
       <r>    11.8724     0.1555    14.5107 </r>
       <r>    11.9500     0.4923    14.5489 </r>
       <r>    12.0275     0.7586    14.6077 </r>
       <r>    12.1051     1.4049    14.7167 </r>
       <r>    12.1827     0.5940    14.7627 </r>
       <r>    12.2602     0.4810    14.8000 </r>
       <r>    12.3378     0.3594    14.8279 </r>
       <r>    12.4153     0.3857    14.8578 </r>
       <r>    12.4929     0.5192    14.8981 </r>
       <r>    12.5705     1.6147    15.0233 </r>
       <r>    12.6480     2.2636    15.1989 </r>
       <r>    12.7256     1.3374    15.3026 </r>
       <r>    12.8031     1.0261    15.3822 </r>
       <r>    12.8807     0.4851    15.4198 </r>
       <r>    12.9583     0.0265    15.4219 </r>
       <r>    13.0358     0.0019    15.4220 </r>
       <r>    13.1134     0.2645    15.4425 </r>
       <r>    13.1909     0.9295    15.5146 </r>
       <r>    13.2685     0.6004    15.5612 </r>
       <r>    13.3460     0.1700    15.5744 </r>
       <r>    13.4236     0.3716    15.6032 </r>
       <r>    13.5012     0.5899    15.6489 </r>
       <r>    13.5787     0.4050    15.6804 </r>
       <r>    13.6563     0.4502    15.7153 </r>
       <r>    13.7338     0.3023    15.7387 </r>
       <r>    13.8114     0.5848    15.7841 </r>
       <r>    13.8890     1.2833    15.8836 </r>
       <r>    13.9665     0.2903    15.9061 </r>
       <r>    14.0441     0.0017    15.9062 </r>
       <r>    14.1216     0.0000    15.9062 </r>
       <r>    14.1992     0.0000    15.9062 </r>
       <r>    14.2768     0.0000    15.9062 </r>
       <r>    14.3543     0.0000    15.9062 </r>
       <r>    14.4319     0.0000    15.9063 </r>
       <r>    14.5094     0.0003    15.9063 </r>
       <r>    14.5870     0.0861    15.9130 </r>
       <r>    14.6646     0.4394    15.9470 </r>
       <r>    14.7421     0.0782    15.9531 </r>
       <r>    14.8197     0.0005    15.9531 </r>
       <r>    14.8972     0.0516    15.9571 </r>
       <r>    14.9748     0.2821    15.9790 </r>
       <r>    15.0523     0.2458    15.9981 </r>
       <r>    15.1299     0.0246    16.0000 </r>
       <r>    15.2075     0.0001    16.0000 </r>
       <r>    15.2850     0.0000    16.0000 </r>
       <r>    15.3626     0.0000    16.0000 </r>
       <r>    15.4401     0.0000    16.0000 </r>
       <r>    15.5177     0.0000    16.0000 </r>
       <r>    15.5953     0.0000    16.0000 </r>
       <r>    15.6728     0.0000    16.0000 </r>
       <r>    15.7504     0.0000    16.0000 </r>
       <r>    15.8279     0.0000    16.0000 </r>
       <r>    15.9055     0.0000    16.0000 </r>
       <r>    15.9831     0.0000    16.0000 </r>
       <r>    16.0606     0.0000    16.0000 </r>
      </set>
     </set>
    </array>
   </total>
  </dos>
 </calculation>
 <structure name="finalpos" >
  <crystal>
   <varray name="basis" >
    <v>       0.00000000       2.73461054       2.73461054 </v>
    <v>       2.73461054      -0.00000000       2.73461054 </v>
    <v>       2.73461054       2.73461054       0.00000000 </v>
   </varray>
   <i name="volume">     40.89935362 </i>
   <varray name="rec_basis" >
    <v>      -0.18284139       0.18284139       0.18284139 </v>
    <v>       0.18284139      -0.18284139       0.18284139 </v>
    <v>       0.18284139       0.18284139      -0.18284139 </v>
   </varray>
  </crystal>
  <varray name="positions" >
   <v>      -0.00000000       0.00000000       0.00000000 </v>
   <v>       0.25000000       0.25000000       0.25000000 </v>
  </varray>
 </structure>
</modeling>
