unknown system                          
           1
     0.000000    2.715500    2.715500
     2.715500    0.000000    2.715500
     2.715500    2.715500    0.000000
   Si
   2
Direct configuration=     1
   0.00000000  0.00000000  0.00000000
   0.25000000  0.25000000  0.25000000
unknown system                          
           1
     0.000000    2.746881    2.746881
     2.746881   -0.000000    2.746881
     2.746881    2.746881    0.000000
   Si
   2
Direct configuration=     2
  -0.00000000  0.00000000  0.00000000
   0.25000000  0.25000000  0.25000000
unknown system                          
           1
     0.000000    2.734611    2.734611
     2.734611   -0.000000    2.734611
     2.734611    2.734611    0.000000
   Si
   2
Direct configuration=     3
  -0.00000000  0.00000000  0.00000000
   0.25000000  0.25000000  0.25000000
