   2   2   1   0
  0.2044968E+02  0.3867323E-09  0.3867323E-09  0.3867323E-09  0.5000000E-15
   1.0000000000000000E-004
  CAR 
 unknown system                          
     16.63678814     -7.28721968  301      5.87596879      1.00000000
     -7.287  0.0000E+00  0.0000E+00
     -7.207  0.0000E+00  0.0000E+00
     -7.128  0.0000E+00  0.0000E+00
     -7.048  0.0000E+00  0.0000E+00
     -6.968  0.0000E+00  0.0000E+00
     -6.888  0.0000E+00  0.0000E+00
     -6.809  0.0000E+00  0.0000E+00
     -6.729  0.0000E+00  0.0000E+00
     -6.649  0.0000E+00  0.0000E+00
     -6.569  0.0000E+00  0.0000E+00
     -6.490  0.5221E-16  0.4163E-17
     -6.410  0.7723E-09  0.6159E-10
     -6.330  0.7355E-04  0.5865E-05
     -6.251  0.6408E-01  0.5116E-02
     -6.171  0.9875E+00  0.8386E-01
     -6.091  0.1084E+01  0.1703E+00
     -6.011  0.6571E+00  0.2227E+00
     -5.932  0.5188E+00  0.2641E+00
     -5.852  0.4451E+00  0.2996E+00
     -5.772  0.3966E+00  0.3312E+00
     -5.692  0.3616E+00  0.3601E+00
     -5.613  0.3352E+00  0.3868E+00
     -5.533  0.3150E+00  0.4119E+00
     -5.453  0.2999E+00  0.4358E+00
     -5.373  0.2863E+00  0.4587E+00
     -5.294  0.2684E+00  0.4801E+00
     -5.214  0.2520E+00  0.5002E+00
     -5.134  0.2541E+00  0.5204E+00
     -5.054  0.2559E+00  0.5408E+00
     -4.975  0.2262E+00  0.5589E+00
     -4.895  0.2247E+00  0.5768E+00
     -4.815  0.2498E+00  0.5967E+00
     -4.735  0.2066E+00  0.6132E+00
     -4.656  0.2144E+00  0.6303E+00
     -4.576  0.2356E+00  0.6491E+00
     -4.496  0.1824E+00  0.6636E+00
     -4.416  0.2416E+00  0.6829E+00
     -4.337  0.1997E+00  0.6988E+00
     -4.257  0.2146E+00  0.7159E+00
     -4.177  0.2361E+00  0.7348E+00
     -4.097  0.2009E+00  0.7508E+00
     -4.018  0.2888E+00  0.7738E+00
     -3.938  0.4460E+00  0.8094E+00
     -3.858  0.8816E+00  0.8797E+00
     -3.778  0.4682E+00  0.9170E+00
     -3.699  0.4021E+00  0.9491E+00
     -3.619  0.3140E+00  0.9741E+00
     -3.539  0.3151E+00  0.9993E+00
     -3.459  0.2774E+00  0.1021E+01
     -3.380  0.2763E+00  0.1043E+01
     -3.300  0.2533E+00  0.1064E+01
     -3.220  0.2627E+00  0.1085E+01
     -3.140  0.2308E+00  0.1103E+01
     -3.061  0.2558E+00  0.1123E+01
     -2.981  0.2296E+00  0.1142E+01
     -2.901  0.2257E+00  0.1160E+01
     -2.821  0.2871E+00  0.1183E+01
     -2.742  0.9431E+00  0.1258E+01
     -2.662  0.1478E+01  0.1376E+01
     -2.582  0.9550E+00  0.1452E+01
     -2.502  0.7149E+00  0.1509E+01
     -2.423  0.4018E+00  0.1541E+01
     -2.343  0.3462E+00  0.1568E+01
     -2.263  0.3638E+00  0.1597E+01
     -2.183  0.4363E+00  0.1632E+01
     -2.104  0.2667E+01  0.1845E+01
     -2.024  0.3557E+01  0.2129E+01
     -1.944  0.2938E+01  0.2363E+01
     -1.864  0.6342E+00  0.2413E+01
     -1.785  0.2754E+00  0.2435E+01
     -1.705  0.3435E+00  0.2463E+01
     -1.625  0.2993E+00  0.2487E+01
     -1.545  0.4729E+00  0.2524E+01
     -1.466  0.7312E+00  0.2583E+01
     -1.386  0.7575E+00  0.2643E+01
     -1.306  0.1038E+01  0.2726E+01
     -1.226  0.2002E+01  0.2886E+01
     -1.147  0.1609E+01  0.3014E+01
     -1.067  0.1269E+01  0.3115E+01
     -0.987  0.3282E+00  0.3141E+01
     -0.907  0.1891E+00  0.3156E+01
     -0.828  0.1817E+00  0.3171E+01
     -0.748  0.1312E+00  0.3181E+01
     -0.668  0.1953E+00  0.3197E+01
     -0.588  0.1357E+00  0.3208E+01
     -0.509  0.1354E+00  0.3218E+01
     -0.429  0.1790E+00  0.3233E+01
     -0.349  0.1183E+00  0.3242E+01
     -0.270  0.1417E+00  0.3253E+01
     -0.190  0.1607E+00  0.3266E+01
     -0.110  0.1074E+00  0.3275E+01
     -0.030  0.1460E+00  0.3286E+01
      0.049  0.1591E+00  0.3299E+01
      0.129  0.5815E-01  0.3304E+01
      0.209  0.2244E+00  0.3322E+01
      0.289  0.5136E-01  0.3326E+01
      0.368  0.1594E+00  0.3338E+01
      0.448  0.1360E+00  0.3349E+01
      0.528  0.8533E-01  0.3356E+01
      0.608  0.1607E+00  0.3369E+01
      0.687  0.9039E-01  0.3376E+01
      0.767  0.1511E+00  0.3388E+01
      0.847  0.9586E-01  0.3396E+01
      0.927  0.1261E+00  0.3406E+01
      1.006  0.1277E+00  0.3416E+01
      1.086  0.8858E-01  0.3423E+01
      1.166  0.1577E+00  0.3436E+01
      1.246  0.9645E-01  0.3443E+01
      1.325  0.5183E+00  0.3485E+01
      1.405  0.1291E+01  0.3588E+01
      1.485  0.7625E+00  0.3649E+01
      1.565  0.6834E+00  0.3703E+01
      1.644  0.9987E+00  0.3783E+01
      1.724  0.6974E+00  0.3838E+01
      1.804  0.7572E+00  0.3899E+01
      1.884  0.1593E+01  0.4026E+01
      1.963  0.1571E+01  0.4151E+01
      2.043  0.1222E+01  0.4248E+01
      2.123  0.1031E+01  0.4331E+01
      2.203  0.9392E+00  0.4406E+01
      2.282  0.9894E+00  0.4484E+01
      2.362  0.1347E+01  0.4592E+01
      2.442  0.1491E+01  0.4711E+01
      2.522  0.1355E+01  0.4819E+01
      2.601  0.1217E+01  0.4916E+01
      2.681  0.1375E+01  0.5026E+01
      2.761  0.1631E+01  0.5156E+01
      2.841  0.2659E+01  0.5368E+01
      2.920  0.1524E+01  0.5489E+01
      3.000  0.9282E+00  0.5563E+01
      3.080  0.7660E+00  0.5624E+01
      3.160  0.7706E+00  0.5686E+01
      3.239  0.9645E+00  0.5763E+01
      3.319  0.8714E+00  0.5832E+01
      3.399  0.6544E+00  0.5884E+01
      3.479  0.6414E+00  0.5936E+01
      3.558  0.6517E+00  0.5987E+01
      3.638  0.5558E+00  0.6032E+01
      3.718  0.6301E+00  0.6082E+01
      3.798  0.6254E+00  0.6132E+01
      3.877  0.5454E+00  0.6175E+01
      3.957  0.6015E+00  0.6223E+01
      4.037  0.6944E+00  0.6279E+01
      4.117  0.5024E+00  0.6319E+01
      4.196  0.6624E+00  0.6372E+01
      4.276  0.7517E+00  0.6432E+01
      4.356  0.6701E+00  0.6485E+01
      4.436  0.1627E+01  0.6615E+01
      4.515  0.1906E+01  0.6767E+01
      4.595  0.1126E+01  0.6857E+01
      4.675  0.9930E+00  0.6936E+01
      4.755  0.8817E+00  0.7006E+01
      4.834  0.8101E+00  0.7071E+01
      4.914  0.8511E+00  0.7139E+01
      4.994  0.7581E+00  0.7199E+01
      5.074  0.8282E+00  0.7265E+01
      5.153  0.8071E+00  0.7329E+01
      5.233  0.8281E+00  0.7395E+01
      5.313  0.8868E+00  0.7466E+01
      5.393  0.9723E+00  0.7544E+01
      5.472  0.1122E+01  0.7633E+01
      5.552  0.1580E+01  0.7759E+01
      5.632  0.2433E+01  0.7953E+01
      5.711  0.5827E+00  0.8000E+01
      5.791  0.3989E-02  0.8000E+01
      5.871  0.3011E-06  0.8000E+01
      5.951  0.1792E-12  0.8000E+01
      6.030  0.5318E-08  0.8000E+01
      6.110  0.1969E-03  0.8000E+01
      6.190  0.7362E-01  0.8006E+01
      6.270  0.6278E+00  0.8056E+01
      6.349  0.9081E+00  0.8128E+01
      6.429  0.1650E+01  0.8260E+01
      6.509  0.1069E+01  0.8345E+01
      6.589  0.8038E+00  0.8409E+01
      6.668  0.6935E+00  0.8465E+01
      6.748  0.6275E+00  0.8515E+01
      6.828  0.6312E+00  0.8565E+01
      6.908  0.7936E+00  0.8628E+01
      6.987  0.7447E+00  0.8688E+01
      7.067  0.8811E+00  0.8758E+01
      7.147  0.1452E+01  0.8874E+01
      7.227  0.1104E+01  0.8962E+01
      7.306  0.9554E+00  0.9038E+01
      7.386  0.8995E+00  0.9110E+01
      7.466  0.8378E+00  0.9177E+01
      7.546  0.8028E+00  0.9241E+01
      7.625  0.7657E+00  0.9302E+01
      7.705  0.8049E+00  0.9366E+01
      7.785  0.7571E+00  0.9426E+01
      7.865  0.7634E+00  0.9487E+01
      7.944  0.7738E+00  0.9549E+01
      8.024  0.7998E+00  0.9613E+01
      8.104  0.9281E+00  0.9687E+01
      8.184  0.2357E+01  0.9875E+01
      8.263  0.2862E+01  0.1010E+02
      8.343  0.1685E+01  0.1024E+02
      8.423  0.1476E+01  0.1035E+02
      8.503  0.1590E+01  0.1048E+02
      8.582  0.1578E+01  0.1061E+02
      8.662  0.1458E+01  0.1072E+02
      8.742  0.1713E+01  0.1086E+02
      8.822  0.2302E+01  0.1104E+02
      8.901  0.1937E+01  0.1120E+02
      8.981  0.2795E+01  0.1142E+02
      9.061  0.3111E+01  0.1167E+02
      9.141  0.2781E+01  0.1189E+02
      9.220  0.1735E+01  0.1203E+02
      9.300  0.8921E+00  0.1210E+02
      9.380  0.1046E+01  0.1218E+02
      9.460  0.9143E+00  0.1226E+02
      9.539  0.9676E+00  0.1233E+02
      9.619  0.8837E+00  0.1240E+02
      9.699  0.8510E+00  0.1247E+02
      9.779  0.1094E+01  0.1256E+02
      9.858  0.1046E+01  0.1264E+02
      9.938  0.1367E+01  0.1275E+02
     10.018  0.5315E+00  0.1279E+02
     10.098  0.5846E+00  0.1284E+02
     10.177  0.6401E+00  0.1289E+02
     10.257  0.4257E+00  0.1293E+02
     10.337  0.4657E+00  0.1296E+02
     10.417  0.5767E+00  0.1301E+02
     10.496  0.6121E+00  0.1306E+02
     10.576  0.1210E+01  0.1315E+02
     10.656  0.9107E+00  0.1323E+02
     10.736  0.8666E+00  0.1330E+02
     10.815  0.7458E+00  0.1336E+02
     10.895  0.6674E+00  0.1341E+02
     10.975  0.7346E+00  0.1347E+02
     11.055  0.6051E+00  0.1352E+02
     11.134  0.6911E+00  0.1357E+02
     11.214  0.9903E+00  0.1365E+02
     11.294  0.9022E+00  0.1372E+02
     11.374  0.7550E+00  0.1378E+02
     11.453  0.8686E+00  0.1385E+02
     11.533  0.7616E+00  0.1391E+02
     11.613  0.7294E+00  0.1397E+02
     11.692  0.8667E+00  0.1404E+02
     11.772  0.5606E+00  0.1408E+02
     11.852  0.9250E+00  0.1416E+02
     11.932  0.5362E+00  0.1420E+02
     12.011  0.5216E+00  0.1424E+02
     12.091  0.7857E+00  0.1430E+02
     12.171  0.6138E+00  0.1435E+02
     12.251  0.3248E+00  0.1438E+02
     12.330  0.9157E+00  0.1445E+02
     12.410  0.4350E+00  0.1449E+02
     12.490  0.5968E+00  0.1453E+02
     12.570  0.6281E+00  0.1459E+02
     12.649  0.5594E+00  0.1463E+02
     12.729  0.3943E+00  0.1466E+02
     12.809  0.5762E+00  0.1471E+02
     12.889  0.4790E+00  0.1475E+02
     12.968  0.4520E+00  0.1478E+02
     13.048  0.6053E+00  0.1483E+02
     13.128  0.4600E+00  0.1487E+02
     13.208  0.2794E+00  0.1489E+02
     13.287  0.6880E+00  0.1494E+02
     13.367  0.1230E+01  0.1504E+02
     13.447  0.1091E+01  0.1513E+02
     13.527  0.1010E+01  0.1521E+02
     13.606  0.7003E+00  0.1526E+02
     13.686  0.5585E+00  0.1531E+02
     13.766  0.4409E+00  0.1534E+02
     13.846  0.2437E+00  0.1536E+02
     13.925  0.1963E+00  0.1538E+02
     14.005  0.3275E+00  0.1541E+02
     14.085  0.1605E+00  0.1542E+02
     14.165  0.3001E+00  0.1544E+02
     14.244  0.2708E+00  0.1546E+02
     14.324  0.2266E+00  0.1548E+02
     14.404  0.2044E+00  0.1550E+02
     14.484  0.3895E+00  0.1553E+02
     14.563  0.1663E+00  0.1554E+02
     14.643  0.2315E+00  0.1556E+02
     14.723  0.3996E+00  0.1559E+02
     14.803  0.1868E+00  0.1561E+02
     14.882  0.2597E+00  0.1563E+02
     14.962  0.3998E+00  0.1566E+02
     15.042  0.2229E+00  0.1568E+02
     15.122  0.3381E+00  0.1571E+02
     15.201  0.4099E+00  0.1574E+02
     15.281  0.2932E+00  0.1576E+02
     15.361  0.5275E+00  0.1580E+02
     15.441  0.4936E+00  0.1584E+02
     15.520  0.9709E+00  0.1592E+02
     15.600  0.9341E+00  0.1599E+02
     15.680  0.6523E-01  0.1600E+02
     15.760  0.7759E-04  0.1600E+02
     15.839  0.8260E-09  0.1600E+02
     15.919  0.5801E-16  0.1600E+02
     15.999  0.0000E+00  0.1600E+02
     16.079  0.0000E+00  0.1600E+02
     16.158  0.0000E+00  0.1600E+02
     16.238  0.0000E+00  0.1600E+02
     16.318  0.0000E+00  0.1600E+02
     16.398  0.0000E+00  0.1600E+02
     16.477  0.0000E+00  0.1600E+02
     16.557  0.0000E+00  0.1600E+02
     16.637  0.0000E+00  0.1600E+02
     16.63678814     -7.28721968  301      5.87596879      1.00000000
     -7.287  0.0000E+00  0.0000E+00  0.0000E+00  0.0000E+00  0.0000E+00  0.0000E+00  0.0000E+00  0.0000E+00  0.0000E+00
     -7.207  0.0000E+00  0.0000E+00  0.0000E+00  0.0000E+00  0.0000E+00  0.0000E+00  0.0000E+00  0.0000E+00  0.0000E+00
     -7.128  0.0000E+00  0.0000E+00  0.0000E+00  0.0000E+00  0.0000E+00  0.0000E+00  0.0000E+00  0.0000E+00  0.0000E+00
     -7.048  0.0000E+00  0.0000E+00  0.0000E+00  0.0000E+00  0.0000E+00  0.0000E+00  0.0000E+00  0.0000E+00  0.0000E+00
     -6.968  0.0000E+00  0.0000E+00  0.0000E+00  0.0000E+00  0.0000E+00  0.0000E+00  0.0000E+00  0.0000E+00  0.0000E+00
     -6.888  0.0000E+00  0.0000E+00  0.0000E+00  0.0000E+00  0.0000E+00  0.0000E+00  0.0000E+00  0.0000E+00  0.0000E+00
     -6.809  0.0000E+00  0.0000E+00  0.0000E+00  0.0000E+00  0.0000E+00  0.0000E+00  0.0000E+00  0.0000E+00  0.0000E+00
     -6.729  0.0000E+00  0.0000E+00  0.0000E+00  0.0000E+00  0.0000E+00  0.0000E+00  0.0000E+00  0.0000E+00  0.0000E+00
     -6.649  0.0000E+00  0.0000E+00  0.0000E+00  0.0000E+00  0.0000E+00  0.0000E+00  0.0000E+00  0.0000E+00  0.0000E+00
     -6.569  0.0000E+00  0.0000E+00  0.0000E+00  0.0000E+00  0.0000E+00  0.0000E+00  0.0000E+00  0.0000E+00  0.0000E+00
     -6.490  0.1107E-16  0.3221E-21  0.4447E-22  0.1442E-21  0.0000E+00  0.0000E+00  0.0000E+00  0.0000E+00  0.0000E+00
     -6.410  0.1637E-09  0.1011E-13  0.2096E-14  0.4660E-14  0.0000E+00  0.0000E+00  0.0000E+00  0.0000E+00  0.0000E+00
     -6.330  0.1559E-04  0.1512E-08  0.3134E-09  0.6967E-09  0.0000E+00  0.0000E+00  0.0000E+00  0.0000E+00  0.0000E+00
     -6.251  0.1358E-01  0.2518E-05  0.5224E-06  0.1161E-05  0.0000E+00  0.0000E+00  0.0000E+00  0.0000E+00  0.0000E+00
     -6.171  0.2092E+00  0.1002E-03  0.2080E-04  0.4615E-04  0.0000E+00  0.0000E+00  0.0000E+00  0.0000E+00  0.0000E+00
     -6.091  0.2296E+00  0.3880E-03  0.8069E-04  0.1785E-03  0.0000E+00  0.0000E+00  0.0000E+00  0.0000E+00  0.0000E+00
     -6.011  0.1388E+00  0.5991E-03  0.1249E-03  0.2750E-03  0.0000E+00  0.0000E+00  0.0000E+00  0.0000E+00  0.0000E+00
     -5.932  0.1094E+00  0.7467E-03  0.1562E-03  0.3419E-03  0.0000E+00  0.0000E+00  0.0000E+00  0.0000E+00  0.0000E+00
     -5.852  0.9370E-01  0.8678E-03  0.1822E-03  0.3961E-03  0.0000E+00  0.0000E+00  0.0000E+00  0.0000E+00  0.0000E+00
     -5.772  0.8337E-01  0.9725E-03  0.2050E-03  0.4426E-03  0.0000E+00  0.0000E+00  0.0000E+00  0.0000E+00  0.0000E+00
     -5.692  0.7590E-01  0.1066E-02  0.2256E-03  0.4837E-03  0.0000E+00  0.0000E+00  0.0000E+00  0.0000E+00  0.0000E+00
     -5.613  0.7025E-01  0.1152E-02  0.2450E-03  0.5208E-03  0.0000E+00  0.0000E+00  0.0000E+00  0.0000E+00  0.0000E+00
     -5.533  0.6594E-01  0.1235E-02  0.2635E-03  0.5562E-03  0.0000E+00  0.0000E+00  0.0000E+00  0.0000E+00  0.0000E+00
     -5.453  0.6269E-01  0.1321E-02  0.2814E-03  0.5933E-03  0.0000E+00  0.0000E+00  0.0000E+00  0.0000E+00  0.0000E+00
     -5.373  0.5977E-01  0.1398E-02  0.2986E-03  0.6294E-03  0.0000E+00  0.0000E+00  0.0000E+00  0.0000E+00  0.0000E+00
     -5.294  0.5600E-01  0.1429E-02  0.3142E-03  0.6463E-03  0.0000E+00  0.0000E+00  0.0000E+00  0.0000E+00  0.0000E+00
     -5.214  0.5251E-01  0.1445E-02  0.3275E-03  0.6484E-03  0.0000E+00  0.0000E+00  0.0000E+00  0.0000E+00  0.0000E+00
     -5.134  0.5292E-01  0.1585E-02  0.3432E-03  0.6957E-03  0.0000E+00  0.0000E+00  0.0000E+00  0.0000E+00  0.0000E+00
     -5.054  0.5325E-01  0.1733E-02  0.3624E-03  0.7570E-03  0.0000E+00  0.0000E+00  0.0000E+00  0.0000E+00  0.0000E+00
     -4.975  0.4707E-01  0.1589E-02  0.3751E-03  0.7151E-03  0.0000E+00  0.0000E+00  0.0000E+00  0.0000E+00  0.0000E+00
     -4.895  0.4674E-01  0.1651E-02  0.3945E-03  0.7398E-03  0.0000E+00  0.0000E+00  0.0000E+00  0.0000E+00  0.0000E+00
     -4.815  0.5193E-01  0.2019E-02  0.4271E-03  0.8631E-03  0.0000E+00  0.0000E+00  0.0000E+00  0.0000E+00  0.0000E+00
     -4.735  0.4299E-01  0.1681E-02  0.4259E-03  0.7574E-03  0.0000E+00  0.0000E+00  0.0000E+00  0.0000E+00  0.0000E+00
     -4.656  0.4462E-01  0.1829E-02  0.4374E-03  0.8092E-03  0.0000E+00  0.0000E+00  0.0000E+00  0.0000E+00  0.0000E+00
     -4.576  0.4899E-01  0.2208E-02  0.4706E-03  0.9135E-03  0.0000E+00  0.0000E+00  0.0000E+00  0.0000E+00  0.0000E+00
     -4.496  0.3810E-01  0.1591E-02  0.4650E-03  0.7521E-03  0.0000E+00  0.0000E+00  0.0000E+00  0.0000E+00  0.0000E+00
     -4.416  0.5036E-01  0.2397E-02  0.5358E-03  0.9908E-03  0.0000E+00  0.0000E+00  0.0000E+00  0.0000E+00  0.0000E+00
     -4.337  0.4183E-01  0.1898E-02  0.5398E-03  0.8722E-03  0.0000E+00  0.0000E+00  0.0000E+00  0.0000E+00  0.0000E+00
     -4.257  0.4501E-01  0.2134E-02  0.5672E-03  0.9199E-03  0.0000E+00  0.0000E+00  0.0000E+00  0.0000E+00  0.0000E+00
     -4.177  0.4962E-01  0.2441E-02  0.6441E-03  0.1063E-02  0.0000E+00  0.0000E+00  0.0000E+00  0.0000E+00  0.0000E+00
     -4.097  0.4267E-01  0.1873E-02  0.6387E-03  0.8926E-03  0.0000E+00  0.0000E+00  0.0000E+00  0.0000E+00  0.0000E+00
     -4.018  0.6134E-01  0.2978E-02  0.8616E-03  0.1303E-02  0.0000E+00  0.0000E+00  0.0000E+00  0.0000E+00  0.0000E+00
     -3.938  0.9803E-01  0.2854E-02  0.1795E-02  0.2004E-02  0.0000E+00  0.0000E+00  0.0000E+00  0.0000E+00  0.0000E+00
     -3.858  0.1942E+00  0.5882E-02  0.3624E-02  0.3831E-02  0.0000E+00  0.0000E+00  0.0000E+00  0.0000E+00  0.0000E+00
     -3.778  0.1029E+00  0.3224E-02  0.2216E-02  0.2069E-02  0.0000E+00  0.0000E+00  0.0000E+00  0.0000E+00  0.0000E+00
     -3.699  0.8685E-01  0.4131E-02  0.1831E-02  0.1574E-02  0.0000E+00  0.0000E+00  0.0000E+00  0.0000E+00  0.0000E+00
     -3.619  0.6812E-01  0.2784E-02  0.1796E-02  0.1410E-02  0.0000E+00  0.0000E+00  0.0000E+00  0.0000E+00  0.0000E+00
     -3.539  0.6738E-01  0.3965E-02  0.1656E-02  0.1088E-02  0.0000E+00  0.0000E+00  0.0000E+00  0.0000E+00  0.0000E+00
     -3.459  0.5970E-01  0.2817E-02  0.1864E-02  0.1253E-02  0.0000E+00  0.0000E+00  0.0000E+00  0.0000E+00  0.0000E+00
     -3.380  0.5866E-01  0.3960E-02  0.1683E-02  0.8689E-03  0.0000E+00  0.0000E+00  0.0000E+00  0.0000E+00  0.0000E+00
     -3.300  0.5418E-01  0.2903E-02  0.1954E-02  0.1079E-02  0.0000E+00  0.0000E+00  0.0000E+00  0.0000E+00  0.0000E+00
     -3.220  0.5552E-01  0.3974E-02  0.1896E-02  0.8453E-03  0.0000E+00  0.0000E+00  0.0000E+00  0.0000E+00  0.0000E+00
     -3.140  0.4903E-01  0.3094E-02  0.1977E-02  0.8302E-03  0.0000E+00  0.0000E+00  0.0000E+00  0.0000E+00  0.0000E+00
     -3.061  0.5403E-01  0.3796E-02  0.2254E-02  0.8931E-03  0.0000E+00  0.0000E+00  0.0000E+00  0.0000E+00  0.0000E+00
     -2.981  0.4836E-01  0.3632E-02  0.2122E-02  0.6729E-03  0.0000E+00  0.0000E+00  0.0000E+00  0.0000E+00  0.0000E+00
     -2.901  0.4773E-01  0.3208E-02  0.2448E-02  0.7677E-03  0.0000E+00  0.0000E+00  0.0000E+00  0.0000E+00  0.0000E+00
     -2.821  0.6005E-01  0.5027E-02  0.2918E-02  0.7627E-03  0.0000E+00  0.0000E+00  0.0000E+00  0.0000E+00  0.0000E+00
     -2.742  0.1976E+00  0.1736E-01  0.1017E-01  0.1864E-02  0.0000E+00  0.0000E+00  0.0000E+00  0.0000E+00  0.0000E+00
     -2.662  0.3078E+00  0.2883E-01  0.1574E-01  0.2821E-02  0.0000E+00  0.0000E+00  0.0000E+00  0.0000E+00  0.0000E+00
     -2.582  0.1986E+00  0.1732E-01  0.1198E-01  0.2187E-02  0.0000E+00  0.0000E+00  0.0000E+00  0.0000E+00  0.0000E+00
     -2.502  0.1468E+00  0.1548E-01  0.8094E-02  0.1359E-02  0.0000E+00  0.0000E+00  0.0000E+00  0.0000E+00  0.0000E+00
     -2.423  0.8074E-01  0.1231E-01  0.2558E-02  0.2012E-03  0.0000E+00  0.0000E+00  0.0000E+00  0.0000E+00  0.0000E+00
     -2.343  0.6904E-01  0.1154E-01  0.1919E-02  0.5896E-04  0.0000E+00  0.0000E+00  0.0000E+00  0.0000E+00  0.0000E+00
     -2.263  0.7214E-01  0.1270E-01  0.1881E-02  0.3723E-04  0.0000E+00  0.0000E+00  0.0000E+00  0.0000E+00  0.0000E+00
     -2.183  0.8592E-01  0.1629E-01  0.1938E-02  0.2245E-04  0.0000E+00  0.0000E+00  0.0000E+00  0.0000E+00  0.0000E+00
     -2.104  0.5194E+00  0.1116E+00  0.4224E-02  0.4020E-04  0.0000E+00  0.0000E+00  0.0000E+00  0.0000E+00  0.0000E+00
     -2.024  0.7034E+00  0.1334E+00  0.1830E-01  0.9088E-04  0.0000E+00  0.0000E+00  0.0000E+00  0.0000E+00  0.0000E+00
     -1.944  0.5929E+00  0.8597E-01  0.3633E-01  0.4606E-04  0.0000E+00  0.0000E+00  0.0000E+00  0.0000E+00  0.0000E+00
     -1.864  0.1267E+00  0.1990E-01  0.7343E-02  0.6205E-05  0.0000E+00  0.0000E+00  0.0000E+00  0.0000E+00  0.0000E+00
     -1.785  0.5407E-01  0.1008E-01  0.2455E-02  0.1380E-04  0.0000E+00  0.0000E+00  0.0000E+00  0.0000E+00  0.0000E+00
     -1.705  0.6700E-01  0.1337E-01  0.2684E-02  0.3379E-04  0.0000E+00  0.0000E+00  0.0000E+00  0.0000E+00  0.0000E+00
     -1.625  0.5842E-01  0.1097E-01  0.3170E-02  0.8904E-04  0.0000E+00  0.0000E+00  0.0000E+00  0.0000E+00  0.0000E+00
     -1.545  0.9038E-01  0.1318E-01  0.9639E-02  0.9239E-03  0.0000E+00  0.0000E+00  0.0000E+00  0.0000E+00  0.0000E+00
     -1.466  0.1378E+00  0.1667E-01  0.1916E-01  0.2149E-02  0.0000E+00  0.0000E+00  0.0000E+00  0.0000E+00  0.0000E+00
     -1.386  0.1423E+00  0.1619E-01  0.2156E-01  0.2434E-02  0.0000E+00  0.0000E+00  0.0000E+00  0.0000E+00  0.0000E+00
     -1.306  0.1911E+00  0.2595E-01  0.2731E-01  0.4319E-02  0.0000E+00  0.0000E+00  0.0000E+00  0.0000E+00  0.0000E+00
     -1.226  0.3093E+00  0.5398E-01  0.5655E-01  0.2723E-01  0.0000E+00  0.0000E+00  0.0000E+00  0.0000E+00  0.0000E+00
     -1.147  0.2150E+00  0.4602E-01  0.4710E-01  0.3272E-01  0.0000E+00  0.0000E+00  0.0000E+00  0.0000E+00  0.0000E+00
     -1.067  0.1746E+00  0.3770E-01  0.3579E-01  0.2436E-01  0.0000E+00  0.0000E+00  0.0000E+00  0.0000E+00  0.0000E+00
     -0.987  0.4574E-01  0.8427E-02  0.1037E-01  0.6403E-02  0.0000E+00  0.0000E+00  0.0000E+00  0.0000E+00  0.0000E+00
     -0.907  0.2785E-01  0.6176E-02  0.4747E-02  0.3132E-02  0.0000E+00  0.0000E+00  0.0000E+00  0.0000E+00  0.0000E+00
     -0.828  0.2778E-01  0.5620E-02  0.4767E-02  0.2774E-02  0.0000E+00  0.0000E+00  0.0000E+00  0.0000E+00  0.0000E+00
     -0.748  0.1889E-01  0.3096E-02  0.4437E-02  0.2593E-02  0.0000E+00  0.0000E+00  0.0000E+00  0.0000E+00  0.0000E+00
     -0.668  0.2967E-01  0.7392E-02  0.4197E-02  0.2914E-02  0.0000E+00  0.0000E+00  0.0000E+00  0.0000E+00  0.0000E+00
     -0.588  0.2102E-01  0.3590E-02  0.4209E-02  0.2220E-02  0.0000E+00  0.0000E+00  0.0000E+00  0.0000E+00  0.0000E+00
     -0.509  0.1839E-01  0.4339E-02  0.3866E-02  0.2956E-02  0.0000E+00  0.0000E+00  0.0000E+00  0.0000E+00  0.0000E+00
     -0.429  0.2947E-01  0.6748E-02  0.3919E-02  0.2058E-02  0.0000E+00  0.0000E+00  0.0000E+00  0.0000E+00  0.0000E+00
     -0.349  0.1525E-01  0.3512E-02  0.3745E-02  0.2984E-02  0.0000E+00  0.0000E+00  0.0000E+00  0.0000E+00  0.0000E+00
     -0.270  0.2270E-01  0.4873E-02  0.3677E-02  0.2012E-02  0.0000E+00  0.0000E+00  0.0000E+00  0.0000E+00  0.0000E+00
     -0.190  0.2327E-01  0.6656E-02  0.3513E-02  0.2875E-02  0.0000E+00  0.0000E+00  0.0000E+00  0.0000E+00  0.0000E+00
     -0.110  0.1589E-01  0.2619E-02  0.3791E-02  0.2273E-02  0.0000E+00  0.0000E+00  0.0000E+00  0.0000E+00  0.0000E+00
     -0.030  0.2174E-01  0.6710E-02  0.2809E-02  0.2324E-02  0.0000E+00  0.0000E+00  0.0000E+00  0.0000E+00  0.0000E+00
      0.049  0.2364E-01  0.5509E-02  0.4454E-02  0.3042E-02  0.0000E+00  0.0000E+00  0.0000E+00  0.0000E+00  0.0000E+00
      0.129  0.7920E-02  0.2038E-02  0.1714E-02  0.1363E-02  0.0000E+00  0.0000E+00  0.0000E+00  0.0000E+00  0.0000E+00
      0.209  0.3322E-01  0.9408E-02  0.5295E-02  0.4032E-02  0.0000E+00  0.0000E+00  0.0000E+00  0.0000E+00  0.0000E+00
      0.289  0.7870E-02  0.2195E-02  0.1169E-02  0.8367E-03  0.0000E+00  0.0000E+00  0.0000E+00  0.0000E+00  0.0000E+00
      0.368  0.2146E-01  0.5471E-02  0.4970E-02  0.4012E-02  0.0000E+00  0.0000E+00  0.0000E+00  0.0000E+00  0.0000E+00
      0.448  0.2141E-01  0.7244E-02  0.2163E-02  0.1678E-02  0.0000E+00  0.0000E+00  0.0000E+00  0.0000E+00  0.0000E+00
      0.528  0.1150E-01  0.2900E-02  0.2735E-02  0.2228E-02  0.0000E+00  0.0000E+00  0.0000E+00  0.0000E+00  0.0000E+00
      0.608  0.2198E-01  0.6408E-02  0.4511E-02  0.3790E-02  0.0000E+00  0.0000E+00  0.0000E+00  0.0000E+00  0.0000E+00
      0.687  0.1480E-01  0.5757E-02  0.8706E-03  0.7089E-03  0.0000E+00  0.0000E+00  0.0000E+00  0.0000E+00  0.0000E+00
      0.767  0.1934E-01  0.4868E-02  0.5252E-02  0.4501E-02  0.0000E+00  0.0000E+00  0.0000E+00  0.0000E+00  0.0000E+00
      0.847  0.1406E-01  0.5456E-02  0.1628E-02  0.1488E-02  0.0000E+00  0.0000E+00  0.0000E+00  0.0000E+00  0.0000E+00
      0.927  0.1878E-01  0.6376E-02  0.2669E-02  0.2271E-02  0.0000E+00  0.0000E+00  0.0000E+00  0.0000E+00  0.0000E+00
      1.006  0.1535E-01  0.4447E-02  0.4435E-02  0.4090E-02  0.0000E+00  0.0000E+00  0.0000E+00  0.0000E+00  0.0000E+00
      1.086  0.1398E-01  0.6063E-02  0.8748E-03  0.8024E-03  0.0000E+00  0.0000E+00  0.0000E+00  0.0000E+00  0.0000E+00
      1.166  0.2147E-01  0.6998E-02  0.4330E-02  0.3963E-02  0.0000E+00  0.0000E+00  0.0000E+00  0.0000E+00  0.0000E+00
      1.246  0.9109E-02  0.3989E-02  0.3590E-02  0.3387E-02  0.0000E+00  0.0000E+00  0.0000E+00  0.0000E+00  0.0000E+00
      1.325  0.1945E-01  0.2686E-01  0.2329E-01  0.2116E-01  0.0000E+00  0.0000E+00  0.0000E+00  0.0000E+00  0.0000E+00
      1.405  0.2051E-01  0.6144E-01  0.6350E-01  0.6460E-01  0.0000E+00  0.0000E+00  0.0000E+00  0.0000E+00  0.0000E+00
      1.485  0.8407E-02  0.3452E-01  0.4020E-01  0.3913E-01  0.0000E+00  0.0000E+00  0.0000E+00  0.0000E+00  0.0000E+00
      1.565  0.2537E-01  0.3128E-01  0.3348E-01  0.3106E-01  0.0000E+00  0.0000E+00  0.0000E+00  0.0000E+00  0.0000E+00
      1.644  0.1978E-01  0.4377E-01  0.5166E-01  0.5231E-01  0.0000E+00  0.0000E+00  0.0000E+00  0.0000E+00  0.0000E+00
      1.724  0.1191E-01  0.3039E-01  0.3762E-01  0.3662E-01  0.0000E+00  0.0000E+00  0.0000E+00  0.0000E+00  0.0000E+00
      1.804  0.2801E-01  0.3461E-01  0.3688E-01  0.3699E-01  0.0000E+00  0.0000E+00  0.0000E+00  0.0000E+00  0.0000E+00
      1.884  0.1543E-01  0.6513E-01  0.8277E-01  0.1003E+00  0.0000E+00  0.0000E+00  0.0000E+00  0.0000E+00  0.0000E+00
      1.963  0.1396E-01  0.5959E-01  0.8706E-01  0.1005E+00  0.0000E+00  0.0000E+00  0.0000E+00  0.0000E+00  0.0000E+00
      2.043  0.2713E-01  0.4433E-01  0.6915E-01  0.7397E-01  0.0000E+00  0.0000E+00  0.0000E+00  0.0000E+00  0.0000E+00
      2.123  0.1420E-01  0.3199E-01  0.6554E-01  0.6595E-01  0.0000E+00  0.0000E+00  0.0000E+00  0.0000E+00  0.0000E+00
      2.203  0.1670E-01  0.2981E-01  0.5972E-01  0.5972E-01  0.0000E+00  0.0000E+00  0.0000E+00  0.0000E+00  0.0000E+00
      2.282  0.2488E-01  0.3128E-01  0.6208E-01  0.6233E-01  0.0000E+00  0.0000E+00  0.0000E+00  0.0000E+00  0.0000E+00
      2.362  0.1279E-01  0.3770E-01  0.8817E-01  0.9747E-01  0.0000E+00  0.0000E+00  0.0000E+00  0.0000E+00  0.0000E+00
      2.442  0.1892E-01  0.4486E-01  0.9463E-01  0.1084E+00  0.0000E+00  0.0000E+00  0.0000E+00  0.0000E+00  0.0000E+00
      2.522  0.2267E-01  0.3808E-01  0.9018E-01  0.9791E-01  0.0000E+00  0.0000E+00  0.0000E+00  0.0000E+00  0.0000E+00
      2.601  0.1192E-01  0.2797E-01  0.8767E-01  0.9546E-01  0.0000E+00  0.0000E+00  0.0000E+00  0.0000E+00  0.0000E+00
      2.681  0.2036E-01  0.3421E-01  0.1003E+00  0.1047E+00  0.0000E+00  0.0000E+00  0.0000E+00  0.0000E+00  0.0000E+00
      2.761  0.1864E-01  0.2780E-01  0.1290E+00  0.1377E+00  0.0000E+00  0.0000E+00  0.0000E+00  0.0000E+00  0.0000E+00
      2.841  0.1209E-01  0.2531E-01  0.2361E+00  0.2398E+00  0.0000E+00  0.0000E+00  0.0000E+00  0.0000E+00  0.0000E+00
      2.920  0.1763E-01  0.2812E-01  0.1225E+00  0.1308E+00  0.0000E+00  0.0000E+00  0.0000E+00  0.0000E+00  0.0000E+00
      3.000  0.1655E-01  0.2708E-01  0.6541E-01  0.7245E-01  0.0000E+00  0.0000E+00  0.0000E+00  0.0000E+00  0.0000E+00
      3.080  0.1183E-01  0.2628E-01  0.5111E-01  0.6027E-01  0.0000E+00  0.0000E+00  0.0000E+00  0.0000E+00  0.0000E+00
      3.160  0.1595E-01  0.3365E-01  0.4562E-01  0.5758E-01  0.0000E+00  0.0000E+00  0.0000E+00  0.0000E+00  0.0000E+00
      3.239  0.1548E-01  0.5270E-01  0.4436E-01  0.7892E-01  0.0000E+00  0.0000E+00  0.0000E+00  0.0000E+00  0.0000E+00
      3.319  0.1212E-01  0.4846E-01  0.4072E-01  0.7162E-01  0.0000E+00  0.0000E+00  0.0000E+00  0.0000E+00  0.0000E+00
      3.399  0.1387E-01  0.3250E-01  0.3738E-01  0.4803E-01  0.0000E+00  0.0000E+00  0.0000E+00  0.0000E+00  0.0000E+00
      3.479  0.1322E-01  0.2775E-01  0.3779E-01  0.5038E-01  0.0000E+00  0.0000E+00  0.0000E+00  0.0000E+00  0.0000E+00
      3.558  0.1466E-01  0.3118E-01  0.3864E-01  0.4731E-01  0.0000E+00  0.0000E+00  0.0000E+00  0.0000E+00  0.0000E+00
      3.638  0.1002E-01  0.2820E-01  0.3207E-01  0.4239E-01  0.0000E+00  0.0000E+00  0.0000E+00  0.0000E+00  0.0000E+00
      3.718  0.1224E-01  0.2772E-01  0.3852E-01  0.4886E-01  0.0000E+00  0.0000E+00  0.0000E+00  0.0000E+00  0.0000E+00
      3.798  0.1666E-01  0.3466E-01  0.3372E-01  0.4473E-01  0.0000E+00  0.0000E+00  0.0000E+00  0.0000E+00  0.0000E+00
      3.877  0.6191E-02  0.2552E-01  0.3524E-01  0.4277E-01  0.0000E+00  0.0000E+00  0.0000E+00  0.0000E+00  0.0000E+00
      3.957  0.1179E-01  0.2951E-01  0.3429E-01  0.4847E-01  0.0000E+00  0.0000E+00  0.0000E+00  0.0000E+00  0.0000E+00
      4.037  0.1701E-01  0.3867E-01  0.4024E-01  0.4895E-01  0.0000E+00  0.0000E+00  0.0000E+00  0.0000E+00  0.0000E+00
      4.117  0.3271E-02  0.2391E-01  0.3153E-01  0.4366E-01  0.0000E+00  0.0000E+00  0.0000E+00  0.0000E+00  0.0000E+00
      4.196  0.1243E-01  0.3606E-01  0.3795E-01  0.5218E-01  0.0000E+00  0.0000E+00  0.0000E+00  0.0000E+00  0.0000E+00
      4.276  0.1429E-01  0.4213E-01  0.4364E-01  0.5818E-01  0.0000E+00  0.0000E+00  0.0000E+00  0.0000E+00  0.0000E+00
      4.356  0.1988E-02  0.3385E-01  0.4185E-01  0.6203E-01  0.0000E+00  0.0000E+00  0.0000E+00  0.0000E+00  0.0000E+00
      4.436  0.1337E-01  0.1032E+00  0.1019E+00  0.1295E+00  0.0000E+00  0.0000E+00  0.0000E+00  0.0000E+00  0.0000E+00
      4.515  0.8754E-02  0.1267E+00  0.1268E+00  0.1459E+00  0.0000E+00  0.0000E+00  0.0000E+00  0.0000E+00  0.0000E+00
      4.595  0.3089E-02  0.7054E-01  0.8166E-01  0.8238E-01  0.0000E+00  0.0000E+00  0.0000E+00  0.0000E+00  0.0000E+00
      4.675  0.1174E-01  0.6883E-01  0.6113E-01  0.7056E-01  0.0000E+00  0.0000E+00  0.0000E+00  0.0000E+00  0.0000E+00
      4.755  0.5496E-02  0.5335E-01  0.6149E-01  0.6535E-01  0.0000E+00  0.0000E+00  0.0000E+00  0.0000E+00  0.0000E+00
      4.834  0.6409E-02  0.5460E-01  0.5175E-01  0.5897E-01  0.0000E+00  0.0000E+00  0.0000E+00  0.0000E+00  0.0000E+00
      4.914  0.7185E-02  0.5282E-01  0.5813E-01  0.6168E-01  0.0000E+00  0.0000E+00  0.0000E+00  0.0000E+00  0.0000E+00
      4.994  0.5910E-02  0.5195E-01  0.4616E-01  0.5679E-01  0.0000E+00  0.0000E+00  0.0000E+00  0.0000E+00  0.0000E+00
      5.074  0.5520E-02  0.5174E-01  0.5828E-01  0.5946E-01  0.0000E+00  0.0000E+00  0.0000E+00  0.0000E+00  0.0000E+00
      5.153  0.5512E-02  0.5416E-01  0.5003E-01  0.6166E-01  0.0000E+00  0.0000E+00  0.0000E+00  0.0000E+00  0.0000E+00
      5.233  0.4995E-02  0.5614E-01  0.5469E-01  0.6009E-01  0.0000E+00  0.0000E+00  0.0000E+00  0.0000E+00  0.0000E+00
      5.313  0.4119E-02  0.5938E-01  0.5884E-01  0.6615E-01  0.0000E+00  0.0000E+00  0.0000E+00  0.0000E+00  0.0000E+00
      5.393  0.4101E-02  0.6662E-01  0.6219E-01  0.7431E-01  0.0000E+00  0.0000E+00  0.0000E+00  0.0000E+00  0.0000E+00
      5.472  0.3143E-02  0.7913E-01  0.7285E-01  0.8428E-01  0.0000E+00  0.0000E+00  0.0000E+00  0.0000E+00  0.0000E+00
      5.552  0.2406E-02  0.1126E+00  0.1014E+00  0.1212E+00  0.0000E+00  0.0000E+00  0.0000E+00  0.0000E+00  0.0000E+00
      5.632  0.9994E-03  0.1768E+00  0.1560E+00  0.1866E+00  0.0000E+00  0.0000E+00  0.0000E+00  0.0000E+00  0.0000E+00
      5.711  0.8119E-04  0.4240E-01  0.3779E-01  0.4434E-01  0.0000E+00  0.0000E+00  0.0000E+00  0.0000E+00  0.0000E+00
      5.791  0.1750E-06  0.2905E-03  0.2602E-03  0.3022E-03  0.0000E+00  0.0000E+00  0.0000E+00  0.0000E+00  0.0000E+00
      5.871  0.3645E-11  0.2208E-07  0.1962E-07  0.2269E-07  0.0000E+00  0.0000E+00  0.0000E+00  0.0000E+00  0.0000E+00
      5.951  0.5834E-16  0.1317E-13  0.1163E-13  0.1333E-13  0.0000E+00  0.0000E+00  0.0000E+00  0.0000E+00  0.0000E+00
      6.030  0.2787E-09  0.2374E-09  0.1051E-24  0.1107E-24  0.0000E+00  0.0000E+00  0.0000E+00  0.0000E+00  0.0000E+00
      6.110  0.1031E-04  0.8794E-05  0.1118E-16  0.1522E-16  0.0000E+00  0.0000E+00  0.0000E+00  0.0000E+00  0.0000E+00
      6.190  0.3853E-02  0.3295E-02  0.1796E-10  0.2446E-10  0.0000E+00  0.0000E+00  0.0000E+00  0.0000E+00  0.0000E+00
      6.270  0.3273E-01  0.2825E-01  0.2769E-06  0.3775E-06  0.0000E+00  0.0000E+00  0.0000E+00  0.0000E+00  0.0000E+00
      6.349  0.4657E-01  0.3831E-01  0.6440E-04  0.8795E-04  0.0000E+00  0.0000E+00  0.0000E+00  0.0000E+00  0.0000E+00
      6.429  0.8369E-01  0.6370E-01  0.6739E-03  0.9239E-03  0.0000E+00  0.0000E+00  0.0000E+00  0.0000E+00  0.0000E+00
      6.509  0.5321E-01  0.4193E-01  0.1426E-02  0.1969E-02  0.0000E+00  0.0000E+00  0.0000E+00  0.0000E+00  0.0000E+00
      6.589  0.3913E-01  0.3199E-01  0.1875E-02  0.2613E-02  0.0000E+00  0.0000E+00  0.0000E+00  0.0000E+00  0.0000E+00
      6.668  0.3307E-01  0.2783E-01  0.2215E-02  0.3117E-02  0.0000E+00  0.0000E+00  0.0000E+00  0.0000E+00  0.0000E+00
      6.748  0.2931E-01  0.2533E-01  0.2546E-02  0.3591E-02  0.0000E+00  0.0000E+00  0.0000E+00  0.0000E+00  0.0000E+00
      6.828  0.2929E-01  0.2324E-01  0.5260E-02  0.3892E-02  0.0000E+00  0.0000E+00  0.0000E+00  0.0000E+00  0.0000E+00
      6.908  0.3750E-01  0.2224E-01  0.1322E-01  0.4459E-02  0.0000E+00  0.0000E+00  0.0000E+00  0.0000E+00  0.0000E+00
      6.987  0.3483E-01  0.2163E-01  0.1230E-01  0.5298E-02  0.0000E+00  0.0000E+00  0.0000E+00  0.0000E+00  0.0000E+00
      7.067  0.7240E-01  0.2139E-01  0.1246E-01  0.6823E-02  0.0000E+00  0.0000E+00  0.0000E+00  0.0000E+00  0.0000E+00
      7.147  0.1763E+00  0.2677E-01  0.1618E-01  0.1164E-01  0.0000E+00  0.0000E+00  0.0000E+00  0.0000E+00  0.0000E+00
      7.227  0.1178E+00  0.2375E-01  0.1488E-01  0.9817E-02  0.0000E+00  0.0000E+00  0.0000E+00  0.0000E+00  0.0000E+00
      7.306  0.9013E-01  0.2340E-01  0.1417E-01  0.9521E-02  0.0000E+00  0.0000E+00  0.0000E+00  0.0000E+00  0.0000E+00
      7.386  0.7866E-01  0.2417E-01  0.1407E-01  0.9483E-02  0.0000E+00  0.0000E+00  0.0000E+00  0.0000E+00  0.0000E+00
      7.466  0.6985E-01  0.2352E-01  0.1431E-01  0.9900E-02  0.0000E+00  0.0000E+00  0.0000E+00  0.0000E+00  0.0000E+00
      7.546  0.6388E-01  0.2423E-01  0.1395E-01  0.9667E-02  0.0000E+00  0.0000E+00  0.0000E+00  0.0000E+00  0.0000E+00
      7.625  0.5985E-01  0.2402E-01  0.1408E-01  0.9891E-02  0.0000E+00  0.0000E+00  0.0000E+00  0.0000E+00  0.0000E+00
      7.705  0.5941E-01  0.2573E-01  0.1603E-01  0.1103E-01  0.0000E+00  0.0000E+00  0.0000E+00  0.0000E+00  0.0000E+00
      7.785  0.5459E-01  0.2636E-01  0.1497E-01  0.1080E-01  0.0000E+00  0.0000E+00  0.0000E+00  0.0000E+00  0.0000E+00
      7.865  0.5285E-01  0.2717E-01  0.1662E-01  0.1141E-01  0.0000E+00  0.0000E+00  0.0000E+00  0.0000E+00  0.0000E+00
      7.944  0.5136E-01  0.3032E-01  0.1639E-01  0.1224E-01  0.0000E+00  0.0000E+00  0.0000E+00  0.0000E+00  0.0000E+00
      8.024  0.5075E-01  0.3360E-01  0.1789E-01  0.1279E-01  0.0000E+00  0.0000E+00  0.0000E+00  0.0000E+00  0.0000E+00
      8.104  0.5090E-01  0.4412E-01  0.2286E-01  0.1775E-01  0.0000E+00  0.0000E+00  0.0000E+00  0.0000E+00  0.0000E+00
      8.184  0.5125E-01  0.1203E+00  0.8827E-01  0.9364E-01  0.0000E+00  0.0000E+00  0.0000E+00  0.0000E+00  0.0000E+00
      8.263  0.4668E-01  0.1200E+00  0.1265E+00  0.1350E+00  0.0000E+00  0.0000E+00  0.0000E+00  0.0000E+00  0.0000E+00
      8.343  0.3910E-01  0.5733E-01  0.8030E-01  0.7036E-01  0.0000E+00  0.0000E+00  0.0000E+00  0.0000E+00  0.0000E+00
      8.423  0.4736E-01  0.4405E-01  0.7925E-01  0.5654E-01  0.0000E+00  0.0000E+00  0.0000E+00  0.0000E+00  0.0000E+00
      8.503  0.6742E-01  0.4230E-01  0.8312E-01  0.5150E-01  0.0000E+00  0.0000E+00  0.0000E+00  0.0000E+00  0.0000E+00
      8.582  0.8265E-01  0.3495E-01  0.9863E-01  0.4600E-01  0.0000E+00  0.0000E+00  0.0000E+00  0.0000E+00  0.0000E+00
      8.662  0.6842E-01  0.3677E-01  0.7918E-01  0.4589E-01  0.0000E+00  0.0000E+00  0.0000E+00  0.0000E+00  0.0000E+00
      8.742  0.1113E+00  0.4602E-01  0.5135E-01  0.5950E-01  0.0000E+00  0.0000E+00  0.0000E+00  0.0000E+00  0.0000E+00
      8.822  0.2073E+00  0.5638E-01  0.6169E-01  0.6983E-01  0.0000E+00  0.0000E+00  0.0000E+00  0.0000E+00  0.0000E+00
      8.901  0.1182E+00  0.5740E-01  0.5860E-01  0.6093E-01  0.0000E+00  0.0000E+00  0.0000E+00  0.0000E+00  0.0000E+00
      8.981  0.8498E-01  0.8660E-01  0.9406E-01  0.9594E-01  0.0000E+00  0.0000E+00  0.0000E+00  0.0000E+00  0.0000E+00
      9.061  0.8170E-01  0.9716E-01  0.9876E-01  0.1200E+00  0.0000E+00  0.0000E+00  0.0000E+00  0.0000E+00  0.0000E+00
      9.141  0.5307E-01  0.9437E-01  0.9810E-01  0.1194E+00  0.0000E+00  0.0000E+00  0.0000E+00  0.0000E+00  0.0000E+00
      9.220  0.7922E-01  0.4984E-01  0.5553E-01  0.7450E-01  0.0000E+00  0.0000E+00  0.0000E+00  0.0000E+00  0.0000E+00
      9.300  0.3516E-01  0.2121E-01  0.2279E-01  0.4099E-01  0.0000E+00  0.0000E+00  0.0000E+00  0.0000E+00  0.0000E+00
      9.380  0.7374E-01  0.2328E-01  0.2982E-01  0.4963E-01  0.0000E+00  0.0000E+00  0.0000E+00  0.0000E+00  0.0000E+00
      9.460  0.4177E-01  0.2117E-01  0.1976E-01  0.4268E-01  0.0000E+00  0.0000E+00  0.0000E+00  0.0000E+00  0.0000E+00
      9.539  0.4480E-01  0.1988E-01  0.2798E-01  0.5072E-01  0.0000E+00  0.0000E+00  0.0000E+00  0.0000E+00  0.0000E+00
      9.619  0.5879E-01  0.2361E-01  0.2035E-01  0.4066E-01  0.0000E+00  0.0000E+00  0.0000E+00  0.0000E+00  0.0000E+00
      9.699  0.4145E-01  0.2112E-01  0.2192E-01  0.4054E-01  0.0000E+00  0.0000E+00  0.0000E+00  0.0000E+00  0.0000E+00
      9.779  0.5475E-01  0.2988E-01  0.2801E-01  0.5308E-01  0.0000E+00  0.0000E+00  0.0000E+00  0.0000E+00  0.0000E+00
      9.858  0.6255E-01  0.2855E-01  0.1540E-01  0.5147E-01  0.0000E+00  0.0000E+00  0.0000E+00  0.0000E+00  0.0000E+00
      9.938  0.5887E-01  0.3224E-01  0.2780E-01  0.7756E-01  0.0000E+00  0.0000E+00  0.0000E+00  0.0000E+00  0.0000E+00
     10.018  0.2621E-01  0.1218E-01  0.1447E-01  0.2807E-01  0.0000E+00  0.0000E+00  0.0000E+00  0.0000E+00  0.0000E+00
     10.098  0.2323E-01  0.1772E-01  0.2333E-01  0.2478E-01  0.0000E+00  0.0000E+00  0.0000E+00  0.0000E+00  0.0000E+00
     10.177  0.3056E-01  0.1776E-01  0.2750E-01  0.2804E-01  0.0000E+00  0.0000E+00  0.0000E+00  0.0000E+00  0.0000E+00
     10.257  0.2226E-01  0.1347E-01  0.1667E-01  0.1717E-01  0.0000E+00  0.0000E+00  0.0000E+00  0.0000E+00  0.0000E+00
     10.337  0.1398E-01  0.1038E-01  0.2003E-01  0.2587E-01  0.0000E+00  0.0000E+00  0.0000E+00  0.0000E+00  0.0000E+00
     10.417  0.2927E-01  0.1733E-01  0.2427E-01  0.2556E-01  0.0000E+00  0.0000E+00  0.0000E+00  0.0000E+00  0.0000E+00
     10.496  0.2936E-01  0.2040E-01  0.2172E-01  0.2239E-01  0.0000E+00  0.0000E+00  0.0000E+00  0.0000E+00  0.0000E+00
     10.576  0.5056E-01  0.4395E-01  0.5494E-01  0.3728E-01  0.0000E+00  0.0000E+00  0.0000E+00  0.0000E+00  0.0000E+00
     10.656  0.4734E-01  0.3219E-01  0.3360E-01  0.3011E-01  0.0000E+00  0.0000E+00  0.0000E+00  0.0000E+00  0.0000E+00
     10.736  0.3210E-01  0.2573E-01  0.3197E-01  0.3771E-01  0.0000E+00  0.0000E+00  0.0000E+00  0.0000E+00  0.0000E+00
     10.815  0.2891E-01  0.2104E-01  0.2930E-01  0.3517E-01  0.0000E+00  0.0000E+00  0.0000E+00  0.0000E+00  0.0000E+00
     10.895  0.3066E-01  0.2376E-01  0.2504E-01  0.2406E-01  0.0000E+00  0.0000E+00  0.0000E+00  0.0000E+00  0.0000E+00
     10.975  0.3317E-01  0.2549E-01  0.2876E-01  0.3239E-01  0.0000E+00  0.0000E+00  0.0000E+00  0.0000E+00  0.0000E+00
     11.055  0.2342E-01  0.1801E-01  0.2581E-01  0.2599E-01  0.0000E+00  0.0000E+00  0.0000E+00  0.0000E+00  0.0000E+00
     11.134  0.3696E-01  0.2803E-01  0.2028E-01  0.2995E-01  0.0000E+00  0.0000E+00  0.0000E+00  0.0000E+00  0.0000E+00
     11.214  0.4868E-01  0.3475E-01  0.3070E-01  0.4691E-01  0.0000E+00  0.0000E+00  0.0000E+00  0.0000E+00  0.0000E+00
     11.294  0.3595E-01  0.3324E-01  0.2317E-01  0.3978E-01  0.0000E+00  0.0000E+00  0.0000E+00  0.0000E+00  0.0000E+00
     11.374  0.3711E-01  0.3102E-01  0.2450E-01  0.2930E-01  0.0000E+00  0.0000E+00  0.0000E+00  0.0000E+00  0.0000E+00
     11.453  0.3072E-01  0.3157E-01  0.4068E-01  0.3391E-01  0.0000E+00  0.0000E+00  0.0000E+00  0.0000E+00  0.0000E+00
     11.533  0.2741E-01  0.3208E-01  0.2527E-01  0.3025E-01  0.0000E+00  0.0000E+00  0.0000E+00  0.0000E+00  0.0000E+00
     11.613  0.3050E-01  0.2510E-01  0.2869E-01  0.2808E-01  0.0000E+00  0.0000E+00  0.0000E+00  0.0000E+00  0.0000E+00
     11.692  0.2409E-01  0.3138E-01  0.3375E-01  0.4034E-01  0.0000E+00  0.0000E+00  0.0000E+00  0.0000E+00  0.0000E+00
     11.772  0.1865E-01  0.1839E-01  0.2004E-01  0.2146E-01  0.0000E+00  0.0000E+00  0.0000E+00  0.0000E+00  0.0000E+00
     11.852  0.3274E-01  0.3233E-01  0.3419E-01  0.4081E-01  0.0000E+00  0.0000E+00  0.0000E+00  0.0000E+00  0.0000E+00
     11.932  0.1430E-01  0.2013E-01  0.2207E-01  0.2958E-01  0.0000E+00  0.0000E+00  0.0000E+00  0.0000E+00  0.0000E+00
     12.011  0.1939E-01  0.1940E-01  0.1644E-01  0.2423E-01  0.0000E+00  0.0000E+00  0.0000E+00  0.0000E+00  0.0000E+00
     12.091  0.2795E-01  0.2938E-01  0.3117E-01  0.4209E-01  0.0000E+00  0.0000E+00  0.0000E+00  0.0000E+00  0.0000E+00
     12.171  0.1614E-01  0.2138E-01  0.2306E-01  0.3498E-01  0.0000E+00  0.0000E+00  0.0000E+00  0.0000E+00  0.0000E+00
     12.251  0.1436E-01  0.1455E-01  0.1244E-01  0.1375E-01  0.0000E+00  0.0000E+00  0.0000E+00  0.0000E+00  0.0000E+00
     12.330  0.2571E-01  0.3334E-01  0.3357E-01  0.4621E-01  0.0000E+00  0.0000E+00  0.0000E+00  0.0000E+00  0.0000E+00
     12.410  0.9603E-02  0.1425E-01  0.1768E-01  0.2263E-01  0.0000E+00  0.0000E+00  0.0000E+00  0.0000E+00  0.0000E+00
     12.490  0.2332E-01  0.2206E-01  0.2408E-01  0.2881E-01  0.0000E+00  0.0000E+00  0.0000E+00  0.0000E+00  0.0000E+00
     12.570  0.1691E-01  0.1879E-01  0.3473E-01  0.3457E-01  0.0000E+00  0.0000E+00  0.0000E+00  0.0000E+00  0.0000E+00
     12.649  0.1395E-01  0.1389E-01  0.2550E-01  0.2924E-01  0.0000E+00  0.0000E+00  0.0000E+00  0.0000E+00  0.0000E+00
     12.729  0.1342E-01  0.1550E-01  0.1628E-01  0.2050E-01  0.0000E+00  0.0000E+00  0.0000E+00  0.0000E+00  0.0000E+00
     12.809  0.9015E-02  0.1563E-01  0.2278E-01  0.3676E-01  0.0000E+00  0.0000E+00  0.0000E+00  0.0000E+00  0.0000E+00
     12.889  0.1341E-01  0.1500E-01  0.2265E-01  0.2533E-01  0.0000E+00  0.0000E+00  0.0000E+00  0.0000E+00  0.0000E+00
     12.968  0.9876E-02  0.1563E-01  0.1294E-01  0.2787E-01  0.0000E+00  0.0000E+00  0.0000E+00  0.0000E+00  0.0000E+00
     13.048  0.9454E-02  0.2082E-01  0.2473E-01  0.3919E-01  0.0000E+00  0.0000E+00  0.0000E+00  0.0000E+00  0.0000E+00
     13.128  0.1281E-01  0.1141E-01  0.1923E-01  0.2474E-01  0.0000E+00  0.0000E+00  0.0000E+00  0.0000E+00  0.0000E+00
     13.208  0.6581E-02  0.8892E-02  0.1044E-01  0.1504E-01  0.0000E+00  0.0000E+00  0.0000E+00  0.0000E+00  0.0000E+00
     13.287  0.1172E-01  0.1366E-01  0.3159E-01  0.3398E-01  0.0000E+00  0.0000E+00  0.0000E+00  0.0000E+00  0.0000E+00
     13.367  0.1632E-01  0.2722E-01  0.3461E-01  0.3662E-01  0.0000E+00  0.0000E+00  0.0000E+00  0.0000E+00  0.0000E+00
     13.447  0.1077E-01  0.2926E-01  0.3149E-01  0.3363E-01  0.0000E+00  0.0000E+00  0.0000E+00  0.0000E+00  0.0000E+00
     13.527  0.1394E-01  0.2246E-01  0.4848E-01  0.3661E-01  0.0000E+00  0.0000E+00  0.0000E+00  0.0000E+00  0.0000E+00
     13.606  0.1063E-01  0.2003E-01  0.3658E-01  0.2241E-01  0.0000E+00  0.0000E+00  0.0000E+00  0.0000E+00  0.0000E+00
     13.686  0.3170E-02  0.2299E-01  0.2671E-01  0.1834E-01  0.0000E+00  0.0000E+00  0.0000E+00  0.0000E+00  0.0000E+00
     13.766  0.3209E-02  0.1070E-01  0.2555E-01  0.2625E-01  0.0000E+00  0.0000E+00  0.0000E+00  0.0000E+00  0.0000E+00
     13.846  0.3838E-02  0.5412E-02  0.1111E-01  0.1717E-01  0.0000E+00  0.0000E+00  0.0000E+00  0.0000E+00  0.0000E+00
     13.925  0.2968E-02  0.4342E-02  0.9360E-02  0.1403E-01  0.0000E+00  0.0000E+00  0.0000E+00  0.0000E+00  0.0000E+00
     14.005  0.3035E-02  0.4502E-02  0.2026E-01  0.2496E-01  0.0000E+00  0.0000E+00  0.0000E+00  0.0000E+00  0.0000E+00
     14.085  0.2174E-02  0.3186E-02  0.8217E-02  0.1206E-01  0.0000E+00  0.0000E+00  0.0000E+00  0.0000E+00  0.0000E+00
     14.165  0.4359E-02  0.6348E-02  0.1463E-01  0.2253E-01  0.0000E+00  0.0000E+00  0.0000E+00  0.0000E+00  0.0000E+00
     14.244  0.1782E-02  0.2610E-02  0.1860E-01  0.2200E-01  0.0000E+00  0.0000E+00  0.0000E+00  0.0000E+00  0.0000E+00
     14.324  0.3095E-02  0.4603E-02  0.1201E-01  0.1755E-01  0.0000E+00  0.0000E+00  0.0000E+00  0.0000E+00  0.0000E+00
     14.404  0.2366E-02  0.3447E-02  0.1139E-01  0.1670E-01  0.0000E+00  0.0000E+00  0.0000E+00  0.0000E+00  0.0000E+00
     14.484  0.3252E-02  0.4759E-02  0.2568E-01  0.3243E-01  0.0000E+00  0.0000E+00  0.0000E+00  0.0000E+00  0.0000E+00
     14.563  0.1874E-02  0.2769E-02  0.9816E-02  0.1396E-01  0.0000E+00  0.0000E+00  0.0000E+00  0.0000E+00  0.0000E+00
     14.643  0.2404E-02  0.3481E-02  0.1474E-01  0.2006E-01  0.0000E+00  0.0000E+00  0.0000E+00  0.0000E+00  0.0000E+00
     14.723  0.2774E-02  0.4067E-02  0.2795E-01  0.3553E-01  0.0000E+00  0.0000E+00  0.0000E+00  0.0000E+00  0.0000E+00
     14.803  0.1845E-02  0.2642E-02  0.1278E-01  0.1704E-01  0.0000E+00  0.0000E+00  0.0000E+00  0.0000E+00  0.0000E+00
     14.882  0.2070E-02  0.3000E-02  0.1856E-01  0.2428E-01  0.0000E+00  0.0000E+00  0.0000E+00  0.0000E+00  0.0000E+00
     14.962  0.2201E-02  0.3121E-02  0.3155E-01  0.3832E-01  0.0000E+00  0.0000E+00  0.0000E+00  0.0000E+00  0.0000E+00
     15.042  0.1724E-02  0.2426E-02  0.1698E-01  0.2215E-01  0.0000E+00  0.0000E+00  0.0000E+00  0.0000E+00  0.0000E+00
     15.122  0.1706E-02  0.2364E-02  0.2910E-01  0.3457E-01  0.0000E+00  0.0000E+00  0.0000E+00  0.0000E+00  0.0000E+00
     15.201  0.1698E-02  0.2345E-02  0.3634E-01  0.4271E-01  0.0000E+00  0.0000E+00  0.0000E+00  0.0000E+00  0.0000E+00
     15.281  0.1279E-02  0.1699E-02  0.2779E-01  0.3205E-01  0.0000E+00  0.0000E+00  0.0000E+00  0.0000E+00  0.0000E+00
     15.361  0.1261E-02  0.1658E-02  0.5290E-01  0.5841E-01  0.0000E+00  0.0000E+00  0.0000E+00  0.0000E+00  0.0000E+00
     15.441  0.9246E-03  0.1127E-02  0.5289E-01  0.5682E-01  0.0000E+00  0.0000E+00  0.0000E+00  0.0000E+00  0.0000E+00
     15.520  0.6188E-03  0.7584E-03  0.1119E+00  0.1145E+00  0.0000E+00  0.0000E+00  0.0000E+00  0.0000E+00  0.0000E+00
     15.600  0.1596E-03  0.1877E-03  0.1106E+00  0.1120E+00  0.0000E+00  0.0000E+00  0.0000E+00  0.0000E+00  0.0000E+00
     15.680  0.4506E-05  0.4928E-05  0.7836E-02  0.7781E-02  0.0000E+00  0.0000E+00  0.0000E+00  0.0000E+00  0.0000E+00
     15.760  0.2639E-08  0.2829E-08  0.9489E-05  0.9105E-05  0.0000E+00  0.0000E+00  0.0000E+00  0.0000E+00  0.0000E+00
     15.839  0.1574E-13  0.1703E-13  0.1028E-09  0.9518E-10  0.0000E+00  0.0000E+00  0.0000E+00  0.0000E+00  0.0000E+00
     15.919  0.2769E-21  0.2228E-21  0.7922E-17  0.5988E-17  0.0000E+00  0.0000E+00  0.0000E+00  0.0000E+00  0.0000E+00
     15.999  0.0000E+00  0.0000E+00  0.0000E+00  0.0000E+00  0.0000E+00  0.0000E+00  0.0000E+00  0.0000E+00  0.0000E+00
     16.079  0.0000E+00  0.0000E+00  0.0000E+00  0.0000E+00  0.0000E+00  0.0000E+00  0.0000E+00  0.0000E+00  0.0000E+00
     16.158  0.0000E+00  0.0000E+00  0.0000E+00  0.0000E+00  0.0000E+00  0.0000E+00  0.0000E+00  0.0000E+00  0.0000E+00
     16.238  0.0000E+00  0.0000E+00  0.0000E+00  0.0000E+00  0.0000E+00  0.0000E+00  0.0000E+00  0.0000E+00  0.0000E+00
     16.318  0.0000E+00  0.0000E+00  0.0000E+00  0.0000E+00  0.0000E+00  0.0000E+00  0.0000E+00  0.0000E+00  0.0000E+00
     16.398  0.0000E+00  0.0000E+00  0.0000E+00  0.0000E+00  0.0000E+00  0.0000E+00  0.0000E+00  0.0000E+00  0.0000E+00
     16.477  0.0000E+00  0.0000E+00  0.0000E+00  0.0000E+00  0.0000E+00  0.0000E+00  0.0000E+00  0.0000E+00  0.0000E+00
     16.557  0.0000E+00  0.0000E+00  0.0000E+00  0.0000E+00  0.0000E+00  0.0000E+00  0.0000E+00  0.0000E+00  0.0000E+00
     16.637  0.0000E+00  0.0000E+00  0.0000E+00  0.0000E+00  0.0000E+00  0.0000E+00  0.0000E+00  0.0000E+00  0.0000E+00
     16.63678814     -7.28721968  301      5.87596879      1.00000000
     -7.287  0.0000E+00  0.0000E+00  0.0000E+00  0.0000E+00  0.0000E+00  0.0000E+00  0.0000E+00  0.0000E+00  0.0000E+00
     -7.207  0.0000E+00  0.0000E+00  0.0000E+00  0.0000E+00  0.0000E+00  0.0000E+00  0.0000E+00  0.0000E+00  0.0000E+00
     -7.128  0.0000E+00  0.0000E+00  0.0000E+00  0.0000E+00  0.0000E+00  0.0000E+00  0.0000E+00  0.0000E+00  0.0000E+00
     -7.048  0.0000E+00  0.0000E+00  0.0000E+00  0.0000E+00  0.0000E+00  0.0000E+00  0.0000E+00  0.0000E+00  0.0000E+00
     -6.968  0.0000E+00  0.0000E+00  0.0000E+00  0.0000E+00  0.0000E+00  0.0000E+00  0.0000E+00  0.0000E+00  0.0000E+00
     -6.888  0.0000E+00  0.0000E+00  0.0000E+00  0.0000E+00  0.0000E+00  0.0000E+00  0.0000E+00  0.0000E+00  0.0000E+00
     -6.809  0.0000E+00  0.0000E+00  0.0000E+00  0.0000E+00  0.0000E+00  0.0000E+00  0.0000E+00  0.0000E+00  0.0000E+00
     -6.729  0.0000E+00  0.0000E+00  0.0000E+00  0.0000E+00  0.0000E+00  0.0000E+00  0.0000E+00  0.0000E+00  0.0000E+00
     -6.649  0.0000E+00  0.0000E+00  0.0000E+00  0.0000E+00  0.0000E+00  0.0000E+00  0.0000E+00  0.0000E+00  0.0000E+00
     -6.569  0.0000E+00  0.0000E+00  0.0000E+00  0.0000E+00  0.0000E+00  0.0000E+00  0.0000E+00  0.0000E+00  0.0000E+00
     -6.490  0.1107E-16  0.3221E-21  0.4447E-22  0.1442E-21  0.0000E+00  0.0000E+00  0.0000E+00  0.0000E+00  0.0000E+00
     -6.410  0.1637E-09  0.1011E-13  0.2096E-14  0.4660E-14  0.0000E+00  0.0000E+00  0.0000E+00  0.0000E+00  0.0000E+00
     -6.330  0.1559E-04  0.1512E-08  0.3134E-09  0.6967E-09  0.0000E+00  0.0000E+00  0.0000E+00  0.0000E+00  0.0000E+00
     -6.251  0.1358E-01  0.2518E-05  0.5224E-06  0.1161E-05  0.0000E+00  0.0000E+00  0.0000E+00  0.0000E+00  0.0000E+00
     -6.171  0.2092E+00  0.1002E-03  0.2080E-04  0.4615E-04  0.0000E+00  0.0000E+00  0.0000E+00  0.0000E+00  0.0000E+00
     -6.091  0.2296E+00  0.3880E-03  0.8069E-04  0.1785E-03  0.0000E+00  0.0000E+00  0.0000E+00  0.0000E+00  0.0000E+00
     -6.011  0.1388E+00  0.5991E-03  0.1249E-03  0.2750E-03  0.0000E+00  0.0000E+00  0.0000E+00  0.0000E+00  0.0000E+00
     -5.932  0.1094E+00  0.7467E-03  0.1562E-03  0.3419E-03  0.0000E+00  0.0000E+00  0.0000E+00  0.0000E+00  0.0000E+00
     -5.852  0.9370E-01  0.8678E-03  0.1822E-03  0.3961E-03  0.0000E+00  0.0000E+00  0.0000E+00  0.0000E+00  0.0000E+00
     -5.772  0.8337E-01  0.9725E-03  0.2050E-03  0.4426E-03  0.0000E+00  0.0000E+00  0.0000E+00  0.0000E+00  0.0000E+00
     -5.692  0.7590E-01  0.1066E-02  0.2256E-03  0.4837E-03  0.0000E+00  0.0000E+00  0.0000E+00  0.0000E+00  0.0000E+00
     -5.613  0.7025E-01  0.1152E-02  0.2450E-03  0.5208E-03  0.0000E+00  0.0000E+00  0.0000E+00  0.0000E+00  0.0000E+00
     -5.533  0.6594E-01  0.1235E-02  0.2635E-03  0.5562E-03  0.0000E+00  0.0000E+00  0.0000E+00  0.0000E+00  0.0000E+00
     -5.453  0.6269E-01  0.1321E-02  0.2814E-03  0.5933E-03  0.0000E+00  0.0000E+00  0.0000E+00  0.0000E+00  0.0000E+00
     -5.373  0.5977E-01  0.1398E-02  0.2986E-03  0.6294E-03  0.0000E+00  0.0000E+00  0.0000E+00  0.0000E+00  0.0000E+00
     -5.294  0.5600E-01  0.1429E-02  0.3142E-03  0.6463E-03  0.0000E+00  0.0000E+00  0.0000E+00  0.0000E+00  0.0000E+00
     -5.214  0.5251E-01  0.1445E-02  0.3275E-03  0.6484E-03  0.0000E+00  0.0000E+00  0.0000E+00  0.0000E+00  0.0000E+00
     -5.134  0.5292E-01  0.1585E-02  0.3432E-03  0.6957E-03  0.0000E+00  0.0000E+00  0.0000E+00  0.0000E+00  0.0000E+00
     -5.054  0.5325E-01  0.1733E-02  0.3624E-03  0.7570E-03  0.0000E+00  0.0000E+00  0.0000E+00  0.0000E+00  0.0000E+00
     -4.975  0.4707E-01  0.1589E-02  0.3751E-03  0.7151E-03  0.0000E+00  0.0000E+00  0.0000E+00  0.0000E+00  0.0000E+00
     -4.895  0.4674E-01  0.1651E-02  0.3945E-03  0.7398E-03  0.0000E+00  0.0000E+00  0.0000E+00  0.0000E+00  0.0000E+00
     -4.815  0.5193E-01  0.2019E-02  0.4271E-03  0.8631E-03  0.0000E+00  0.0000E+00  0.0000E+00  0.0000E+00  0.0000E+00
     -4.735  0.4299E-01  0.1681E-02  0.4259E-03  0.7574E-03  0.0000E+00  0.0000E+00  0.0000E+00  0.0000E+00  0.0000E+00
     -4.656  0.4462E-01  0.1829E-02  0.4374E-03  0.8092E-03  0.0000E+00  0.0000E+00  0.0000E+00  0.0000E+00  0.0000E+00
     -4.576  0.4899E-01  0.2208E-02  0.4706E-03  0.9135E-03  0.0000E+00  0.0000E+00  0.0000E+00  0.0000E+00  0.0000E+00
     -4.496  0.3810E-01  0.1591E-02  0.4650E-03  0.7521E-03  0.0000E+00  0.0000E+00  0.0000E+00  0.0000E+00  0.0000E+00
     -4.416  0.5036E-01  0.2397E-02  0.5358E-03  0.9908E-03  0.0000E+00  0.0000E+00  0.0000E+00  0.0000E+00  0.0000E+00
     -4.337  0.4183E-01  0.1898E-02  0.5398E-03  0.8722E-03  0.0000E+00  0.0000E+00  0.0000E+00  0.0000E+00  0.0000E+00
     -4.257  0.4501E-01  0.2134E-02  0.5672E-03  0.9199E-03  0.0000E+00  0.0000E+00  0.0000E+00  0.0000E+00  0.0000E+00
     -4.177  0.4962E-01  0.2441E-02  0.6441E-03  0.1063E-02  0.0000E+00  0.0000E+00  0.0000E+00  0.0000E+00  0.0000E+00
     -4.097  0.4267E-01  0.1873E-02  0.6387E-03  0.8926E-03  0.0000E+00  0.0000E+00  0.0000E+00  0.0000E+00  0.0000E+00
     -4.018  0.6134E-01  0.2978E-02  0.8616E-03  0.1303E-02  0.0000E+00  0.0000E+00  0.0000E+00  0.0000E+00  0.0000E+00
     -3.938  0.9803E-01  0.2854E-02  0.1795E-02  0.2004E-02  0.0000E+00  0.0000E+00  0.0000E+00  0.0000E+00  0.0000E+00
     -3.858  0.1942E+00  0.5882E-02  0.3624E-02  0.3831E-02  0.0000E+00  0.0000E+00  0.0000E+00  0.0000E+00  0.0000E+00
     -3.778  0.1029E+00  0.3224E-02  0.2216E-02  0.2069E-02  0.0000E+00  0.0000E+00  0.0000E+00  0.0000E+00  0.0000E+00
     -3.699  0.8685E-01  0.4131E-02  0.1831E-02  0.1574E-02  0.0000E+00  0.0000E+00  0.0000E+00  0.0000E+00  0.0000E+00
     -3.619  0.6812E-01  0.2784E-02  0.1796E-02  0.1410E-02  0.0000E+00  0.0000E+00  0.0000E+00  0.0000E+00  0.0000E+00
     -3.539  0.6738E-01  0.3965E-02  0.1656E-02  0.1088E-02  0.0000E+00  0.0000E+00  0.0000E+00  0.0000E+00  0.0000E+00
     -3.459  0.5970E-01  0.2817E-02  0.1864E-02  0.1253E-02  0.0000E+00  0.0000E+00  0.0000E+00  0.0000E+00  0.0000E+00
     -3.380  0.5866E-01  0.3960E-02  0.1683E-02  0.8689E-03  0.0000E+00  0.0000E+00  0.0000E+00  0.0000E+00  0.0000E+00
     -3.300  0.5418E-01  0.2903E-02  0.1954E-02  0.1079E-02  0.0000E+00  0.0000E+00  0.0000E+00  0.0000E+00  0.0000E+00
     -3.220  0.5552E-01  0.3974E-02  0.1896E-02  0.8453E-03  0.0000E+00  0.0000E+00  0.0000E+00  0.0000E+00  0.0000E+00
     -3.140  0.4903E-01  0.3094E-02  0.1977E-02  0.8302E-03  0.0000E+00  0.0000E+00  0.0000E+00  0.0000E+00  0.0000E+00
     -3.061  0.5403E-01  0.3796E-02  0.2254E-02  0.8931E-03  0.0000E+00  0.0000E+00  0.0000E+00  0.0000E+00  0.0000E+00
     -2.981  0.4836E-01  0.3632E-02  0.2122E-02  0.6729E-03  0.0000E+00  0.0000E+00  0.0000E+00  0.0000E+00  0.0000E+00
     -2.901  0.4773E-01  0.3208E-02  0.2448E-02  0.7677E-03  0.0000E+00  0.0000E+00  0.0000E+00  0.0000E+00  0.0000E+00
     -2.821  0.6005E-01  0.5027E-02  0.2918E-02  0.7627E-03  0.0000E+00  0.0000E+00  0.0000E+00  0.0000E+00  0.0000E+00
     -2.742  0.1976E+00  0.1736E-01  0.1017E-01  0.1864E-02  0.0000E+00  0.0000E+00  0.0000E+00  0.0000E+00  0.0000E+00
     -2.662  0.3078E+00  0.2883E-01  0.1574E-01  0.2821E-02  0.0000E+00  0.0000E+00  0.0000E+00  0.0000E+00  0.0000E+00
     -2.582  0.1986E+00  0.1732E-01  0.1198E-01  0.2187E-02  0.0000E+00  0.0000E+00  0.0000E+00  0.0000E+00  0.0000E+00
     -2.502  0.1468E+00  0.1548E-01  0.8094E-02  0.1359E-02  0.0000E+00  0.0000E+00  0.0000E+00  0.0000E+00  0.0000E+00
     -2.423  0.8074E-01  0.1231E-01  0.2558E-02  0.2012E-03  0.0000E+00  0.0000E+00  0.0000E+00  0.0000E+00  0.0000E+00
     -2.343  0.6904E-01  0.1154E-01  0.1919E-02  0.5896E-04  0.0000E+00  0.0000E+00  0.0000E+00  0.0000E+00  0.0000E+00
     -2.263  0.7214E-01  0.1270E-01  0.1881E-02  0.3723E-04  0.0000E+00  0.0000E+00  0.0000E+00  0.0000E+00  0.0000E+00
     -2.183  0.8592E-01  0.1629E-01  0.1938E-02  0.2245E-04  0.0000E+00  0.0000E+00  0.0000E+00  0.0000E+00  0.0000E+00
     -2.104  0.5194E+00  0.1116E+00  0.4224E-02  0.4020E-04  0.0000E+00  0.0000E+00  0.0000E+00  0.0000E+00  0.0000E+00
     -2.024  0.7034E+00  0.1334E+00  0.1830E-01  0.9088E-04  0.0000E+00  0.0000E+00  0.0000E+00  0.0000E+00  0.0000E+00
     -1.944  0.5929E+00  0.8597E-01  0.3633E-01  0.4606E-04  0.0000E+00  0.0000E+00  0.0000E+00  0.0000E+00  0.0000E+00
     -1.864  0.1267E+00  0.1990E-01  0.7343E-02  0.6205E-05  0.0000E+00  0.0000E+00  0.0000E+00  0.0000E+00  0.0000E+00
     -1.785  0.5407E-01  0.1008E-01  0.2455E-02  0.1380E-04  0.0000E+00  0.0000E+00  0.0000E+00  0.0000E+00  0.0000E+00
     -1.705  0.6700E-01  0.1337E-01  0.2684E-02  0.3379E-04  0.0000E+00  0.0000E+00  0.0000E+00  0.0000E+00  0.0000E+00
     -1.625  0.5842E-01  0.1097E-01  0.3170E-02  0.8904E-04  0.0000E+00  0.0000E+00  0.0000E+00  0.0000E+00  0.0000E+00
     -1.545  0.9038E-01  0.1318E-01  0.9639E-02  0.9239E-03  0.0000E+00  0.0000E+00  0.0000E+00  0.0000E+00  0.0000E+00
     -1.466  0.1378E+00  0.1667E-01  0.1916E-01  0.2149E-02  0.0000E+00  0.0000E+00  0.0000E+00  0.0000E+00  0.0000E+00
     -1.386  0.1423E+00  0.1619E-01  0.2156E-01  0.2434E-02  0.0000E+00  0.0000E+00  0.0000E+00  0.0000E+00  0.0000E+00
     -1.306  0.1911E+00  0.2595E-01  0.2731E-01  0.4319E-02  0.0000E+00  0.0000E+00  0.0000E+00  0.0000E+00  0.0000E+00
     -1.226  0.3093E+00  0.5398E-01  0.5655E-01  0.2723E-01  0.0000E+00  0.0000E+00  0.0000E+00  0.0000E+00  0.0000E+00
     -1.147  0.2150E+00  0.4602E-01  0.4710E-01  0.3272E-01  0.0000E+00  0.0000E+00  0.0000E+00  0.0000E+00  0.0000E+00
     -1.067  0.1746E+00  0.3770E-01  0.3579E-01  0.2436E-01  0.0000E+00  0.0000E+00  0.0000E+00  0.0000E+00  0.0000E+00
     -0.987  0.4574E-01  0.8427E-02  0.1037E-01  0.6403E-02  0.0000E+00  0.0000E+00  0.0000E+00  0.0000E+00  0.0000E+00
     -0.907  0.2785E-01  0.6176E-02  0.4747E-02  0.3132E-02  0.0000E+00  0.0000E+00  0.0000E+00  0.0000E+00  0.0000E+00
     -0.828  0.2778E-01  0.5620E-02  0.4767E-02  0.2774E-02  0.0000E+00  0.0000E+00  0.0000E+00  0.0000E+00  0.0000E+00
     -0.748  0.1889E-01  0.3096E-02  0.4437E-02  0.2593E-02  0.0000E+00  0.0000E+00  0.0000E+00  0.0000E+00  0.0000E+00
     -0.668  0.2967E-01  0.7392E-02  0.4197E-02  0.2914E-02  0.0000E+00  0.0000E+00  0.0000E+00  0.0000E+00  0.0000E+00
     -0.588  0.2102E-01  0.3590E-02  0.4209E-02  0.2220E-02  0.0000E+00  0.0000E+00  0.0000E+00  0.0000E+00  0.0000E+00
     -0.509  0.1839E-01  0.4339E-02  0.3866E-02  0.2956E-02  0.0000E+00  0.0000E+00  0.0000E+00  0.0000E+00  0.0000E+00
     -0.429  0.2947E-01  0.6748E-02  0.3919E-02  0.2058E-02  0.0000E+00  0.0000E+00  0.0000E+00  0.0000E+00  0.0000E+00
     -0.349  0.1525E-01  0.3512E-02  0.3745E-02  0.2984E-02  0.0000E+00  0.0000E+00  0.0000E+00  0.0000E+00  0.0000E+00
     -0.270  0.2270E-01  0.4873E-02  0.3677E-02  0.2012E-02  0.0000E+00  0.0000E+00  0.0000E+00  0.0000E+00  0.0000E+00
     -0.190  0.2327E-01  0.6656E-02  0.3513E-02  0.2875E-02  0.0000E+00  0.0000E+00  0.0000E+00  0.0000E+00  0.0000E+00
     -0.110  0.1589E-01  0.2619E-02  0.3791E-02  0.2273E-02  0.0000E+00  0.0000E+00  0.0000E+00  0.0000E+00  0.0000E+00
     -0.030  0.2174E-01  0.6710E-02  0.2809E-02  0.2324E-02  0.0000E+00  0.0000E+00  0.0000E+00  0.0000E+00  0.0000E+00
      0.049  0.2364E-01  0.5509E-02  0.4454E-02  0.3042E-02  0.0000E+00  0.0000E+00  0.0000E+00  0.0000E+00  0.0000E+00
      0.129  0.7920E-02  0.2038E-02  0.1714E-02  0.1363E-02  0.0000E+00  0.0000E+00  0.0000E+00  0.0000E+00  0.0000E+00
      0.209  0.3322E-01  0.9408E-02  0.5295E-02  0.4032E-02  0.0000E+00  0.0000E+00  0.0000E+00  0.0000E+00  0.0000E+00
      0.289  0.7870E-02  0.2195E-02  0.1169E-02  0.8367E-03  0.0000E+00  0.0000E+00  0.0000E+00  0.0000E+00  0.0000E+00
      0.368  0.2146E-01  0.5471E-02  0.4970E-02  0.4012E-02  0.0000E+00  0.0000E+00  0.0000E+00  0.0000E+00  0.0000E+00
      0.448  0.2141E-01  0.7244E-02  0.2163E-02  0.1678E-02  0.0000E+00  0.0000E+00  0.0000E+00  0.0000E+00  0.0000E+00
      0.528  0.1150E-01  0.2900E-02  0.2735E-02  0.2228E-02  0.0000E+00  0.0000E+00  0.0000E+00  0.0000E+00  0.0000E+00
      0.608  0.2198E-01  0.6408E-02  0.4511E-02  0.3790E-02  0.0000E+00  0.0000E+00  0.0000E+00  0.0000E+00  0.0000E+00
      0.687  0.1480E-01  0.5757E-02  0.8706E-03  0.7089E-03  0.0000E+00  0.0000E+00  0.0000E+00  0.0000E+00  0.0000E+00
      0.767  0.1934E-01  0.4868E-02  0.5252E-02  0.4501E-02  0.0000E+00  0.0000E+00  0.0000E+00  0.0000E+00  0.0000E+00
      0.847  0.1406E-01  0.5456E-02  0.1628E-02  0.1488E-02  0.0000E+00  0.0000E+00  0.0000E+00  0.0000E+00  0.0000E+00
      0.927  0.1878E-01  0.6376E-02  0.2669E-02  0.2271E-02  0.0000E+00  0.0000E+00  0.0000E+00  0.0000E+00  0.0000E+00
      1.006  0.1535E-01  0.4447E-02  0.4435E-02  0.4090E-02  0.0000E+00  0.0000E+00  0.0000E+00  0.0000E+00  0.0000E+00
      1.086  0.1398E-01  0.6063E-02  0.8748E-03  0.8024E-03  0.0000E+00  0.0000E+00  0.0000E+00  0.0000E+00  0.0000E+00
      1.166  0.2147E-01  0.6998E-02  0.4330E-02  0.3963E-02  0.0000E+00  0.0000E+00  0.0000E+00  0.0000E+00  0.0000E+00
      1.246  0.9109E-02  0.3989E-02  0.3590E-02  0.3387E-02  0.0000E+00  0.0000E+00  0.0000E+00  0.0000E+00  0.0000E+00
      1.325  0.1945E-01  0.2686E-01  0.2329E-01  0.2116E-01  0.0000E+00  0.0000E+00  0.0000E+00  0.0000E+00  0.0000E+00
      1.405  0.2051E-01  0.6144E-01  0.6350E-01  0.6460E-01  0.0000E+00  0.0000E+00  0.0000E+00  0.0000E+00  0.0000E+00
      1.485  0.8407E-02  0.3452E-01  0.4020E-01  0.3913E-01  0.0000E+00  0.0000E+00  0.0000E+00  0.0000E+00  0.0000E+00
      1.565  0.2537E-01  0.3128E-01  0.3348E-01  0.3106E-01  0.0000E+00  0.0000E+00  0.0000E+00  0.0000E+00  0.0000E+00
      1.644  0.1978E-01  0.4377E-01  0.5166E-01  0.5231E-01  0.0000E+00  0.0000E+00  0.0000E+00  0.0000E+00  0.0000E+00
      1.724  0.1191E-01  0.3039E-01  0.3762E-01  0.3662E-01  0.0000E+00  0.0000E+00  0.0000E+00  0.0000E+00  0.0000E+00
      1.804  0.2801E-01  0.3461E-01  0.3688E-01  0.3699E-01  0.0000E+00  0.0000E+00  0.0000E+00  0.0000E+00  0.0000E+00
      1.884  0.1543E-01  0.6513E-01  0.8277E-01  0.1003E+00  0.0000E+00  0.0000E+00  0.0000E+00  0.0000E+00  0.0000E+00
      1.963  0.1396E-01  0.5959E-01  0.8706E-01  0.1005E+00  0.0000E+00  0.0000E+00  0.0000E+00  0.0000E+00  0.0000E+00
      2.043  0.2713E-01  0.4433E-01  0.6915E-01  0.7397E-01  0.0000E+00  0.0000E+00  0.0000E+00  0.0000E+00  0.0000E+00
      2.123  0.1420E-01  0.3199E-01  0.6554E-01  0.6595E-01  0.0000E+00  0.0000E+00  0.0000E+00  0.0000E+00  0.0000E+00
      2.203  0.1670E-01  0.2981E-01  0.5972E-01  0.5972E-01  0.0000E+00  0.0000E+00  0.0000E+00  0.0000E+00  0.0000E+00
      2.282  0.2488E-01  0.3128E-01  0.6208E-01  0.6233E-01  0.0000E+00  0.0000E+00  0.0000E+00  0.0000E+00  0.0000E+00
      2.362  0.1279E-01  0.3770E-01  0.8817E-01  0.9747E-01  0.0000E+00  0.0000E+00  0.0000E+00  0.0000E+00  0.0000E+00
      2.442  0.1892E-01  0.4486E-01  0.9463E-01  0.1084E+00  0.0000E+00  0.0000E+00  0.0000E+00  0.0000E+00  0.0000E+00
      2.522  0.2267E-01  0.3808E-01  0.9018E-01  0.9791E-01  0.0000E+00  0.0000E+00  0.0000E+00  0.0000E+00  0.0000E+00
      2.601  0.1192E-01  0.2797E-01  0.8767E-01  0.9546E-01  0.0000E+00  0.0000E+00  0.0000E+00  0.0000E+00  0.0000E+00
      2.681  0.2036E-01  0.3421E-01  0.1003E+00  0.1047E+00  0.0000E+00  0.0000E+00  0.0000E+00  0.0000E+00  0.0000E+00
      2.761  0.1864E-01  0.2780E-01  0.1290E+00  0.1377E+00  0.0000E+00  0.0000E+00  0.0000E+00  0.0000E+00  0.0000E+00
      2.841  0.1209E-01  0.2531E-01  0.2361E+00  0.2398E+00  0.0000E+00  0.0000E+00  0.0000E+00  0.0000E+00  0.0000E+00
      2.920  0.1763E-01  0.2812E-01  0.1225E+00  0.1308E+00  0.0000E+00  0.0000E+00  0.0000E+00  0.0000E+00  0.0000E+00
      3.000  0.1655E-01  0.2708E-01  0.6541E-01  0.7245E-01  0.0000E+00  0.0000E+00  0.0000E+00  0.0000E+00  0.0000E+00
      3.080  0.1183E-01  0.2628E-01  0.5111E-01  0.6027E-01  0.0000E+00  0.0000E+00  0.0000E+00  0.0000E+00  0.0000E+00
      3.160  0.1595E-01  0.3365E-01  0.4562E-01  0.5758E-01  0.0000E+00  0.0000E+00  0.0000E+00  0.0000E+00  0.0000E+00
      3.239  0.1548E-01  0.5270E-01  0.4436E-01  0.7892E-01  0.0000E+00  0.0000E+00  0.0000E+00  0.0000E+00  0.0000E+00
      3.319  0.1212E-01  0.4846E-01  0.4072E-01  0.7162E-01  0.0000E+00  0.0000E+00  0.0000E+00  0.0000E+00  0.0000E+00
      3.399  0.1387E-01  0.3250E-01  0.3738E-01  0.4803E-01  0.0000E+00  0.0000E+00  0.0000E+00  0.0000E+00  0.0000E+00
      3.479  0.1322E-01  0.2775E-01  0.3779E-01  0.5038E-01  0.0000E+00  0.0000E+00  0.0000E+00  0.0000E+00  0.0000E+00
      3.558  0.1466E-01  0.3118E-01  0.3864E-01  0.4731E-01  0.0000E+00  0.0000E+00  0.0000E+00  0.0000E+00  0.0000E+00
      3.638  0.1002E-01  0.2820E-01  0.3207E-01  0.4239E-01  0.0000E+00  0.0000E+00  0.0000E+00  0.0000E+00  0.0000E+00
      3.718  0.1224E-01  0.2772E-01  0.3852E-01  0.4886E-01  0.0000E+00  0.0000E+00  0.0000E+00  0.0000E+00  0.0000E+00
      3.798  0.1666E-01  0.3466E-01  0.3372E-01  0.4473E-01  0.0000E+00  0.0000E+00  0.0000E+00  0.0000E+00  0.0000E+00
      3.877  0.6191E-02  0.2552E-01  0.3524E-01  0.4277E-01  0.0000E+00  0.0000E+00  0.0000E+00  0.0000E+00  0.0000E+00
      3.957  0.1179E-01  0.2951E-01  0.3429E-01  0.4847E-01  0.0000E+00  0.0000E+00  0.0000E+00  0.0000E+00  0.0000E+00
      4.037  0.1701E-01  0.3867E-01  0.4024E-01  0.4895E-01  0.0000E+00  0.0000E+00  0.0000E+00  0.0000E+00  0.0000E+00
      4.117  0.3271E-02  0.2391E-01  0.3153E-01  0.4366E-01  0.0000E+00  0.0000E+00  0.0000E+00  0.0000E+00  0.0000E+00
      4.196  0.1243E-01  0.3606E-01  0.3795E-01  0.5218E-01  0.0000E+00  0.0000E+00  0.0000E+00  0.0000E+00  0.0000E+00
      4.276  0.1429E-01  0.4213E-01  0.4364E-01  0.5818E-01  0.0000E+00  0.0000E+00  0.0000E+00  0.0000E+00  0.0000E+00
      4.356  0.1988E-02  0.3385E-01  0.4185E-01  0.6203E-01  0.0000E+00  0.0000E+00  0.0000E+00  0.0000E+00  0.0000E+00
      4.436  0.1337E-01  0.1032E+00  0.1019E+00  0.1295E+00  0.0000E+00  0.0000E+00  0.0000E+00  0.0000E+00  0.0000E+00
      4.515  0.8754E-02  0.1267E+00  0.1268E+00  0.1459E+00  0.0000E+00  0.0000E+00  0.0000E+00  0.0000E+00  0.0000E+00
      4.595  0.3089E-02  0.7054E-01  0.8166E-01  0.8238E-01  0.0000E+00  0.0000E+00  0.0000E+00  0.0000E+00  0.0000E+00
      4.675  0.1174E-01  0.6883E-01  0.6113E-01  0.7056E-01  0.0000E+00  0.0000E+00  0.0000E+00  0.0000E+00  0.0000E+00
      4.755  0.5496E-02  0.5335E-01  0.6149E-01  0.6535E-01  0.0000E+00  0.0000E+00  0.0000E+00  0.0000E+00  0.0000E+00
      4.834  0.6409E-02  0.5460E-01  0.5175E-01  0.5897E-01  0.0000E+00  0.0000E+00  0.0000E+00  0.0000E+00  0.0000E+00
      4.914  0.7185E-02  0.5282E-01  0.5813E-01  0.6168E-01  0.0000E+00  0.0000E+00  0.0000E+00  0.0000E+00  0.0000E+00
      4.994  0.5910E-02  0.5195E-01  0.4616E-01  0.5679E-01  0.0000E+00  0.0000E+00  0.0000E+00  0.0000E+00  0.0000E+00
      5.074  0.5520E-02  0.5174E-01  0.5828E-01  0.5946E-01  0.0000E+00  0.0000E+00  0.0000E+00  0.0000E+00  0.0000E+00
      5.153  0.5512E-02  0.5416E-01  0.5003E-01  0.6166E-01  0.0000E+00  0.0000E+00  0.0000E+00  0.0000E+00  0.0000E+00
      5.233  0.4995E-02  0.5614E-01  0.5469E-01  0.6009E-01  0.0000E+00  0.0000E+00  0.0000E+00  0.0000E+00  0.0000E+00
      5.313  0.4119E-02  0.5938E-01  0.5884E-01  0.6615E-01  0.0000E+00  0.0000E+00  0.0000E+00  0.0000E+00  0.0000E+00
      5.393  0.4101E-02  0.6662E-01  0.6219E-01  0.7431E-01  0.0000E+00  0.0000E+00  0.0000E+00  0.0000E+00  0.0000E+00
      5.472  0.3143E-02  0.7913E-01  0.7285E-01  0.8428E-01  0.0000E+00  0.0000E+00  0.0000E+00  0.0000E+00  0.0000E+00
      5.552  0.2406E-02  0.1126E+00  0.1014E+00  0.1212E+00  0.0000E+00  0.0000E+00  0.0000E+00  0.0000E+00  0.0000E+00
      5.632  0.9994E-03  0.1768E+00  0.1560E+00  0.1866E+00  0.0000E+00  0.0000E+00  0.0000E+00  0.0000E+00  0.0000E+00
      5.711  0.8119E-04  0.4240E-01  0.3779E-01  0.4434E-01  0.0000E+00  0.0000E+00  0.0000E+00  0.0000E+00  0.0000E+00
      5.791  0.1750E-06  0.2905E-03  0.2602E-03  0.3022E-03  0.0000E+00  0.0000E+00  0.0000E+00  0.0000E+00  0.0000E+00
      5.871  0.3645E-11  0.2208E-07  0.1962E-07  0.2269E-07  0.0000E+00  0.0000E+00  0.0000E+00  0.0000E+00  0.0000E+00
      5.951  0.5834E-16  0.1317E-13  0.1163E-13  0.1333E-13  0.0000E+00  0.0000E+00  0.0000E+00  0.0000E+00  0.0000E+00
      6.030  0.2787E-09  0.2374E-09  0.9208E-25  0.2684E-24  0.0000E+00  0.0000E+00  0.0000E+00  0.0000E+00  0.0000E+00
      6.110  0.1031E-04  0.8794E-05  0.1118E-16  0.1522E-16  0.0000E+00  0.0000E+00  0.0000E+00  0.0000E+00  0.0000E+00
      6.190  0.3853E-02  0.3295E-02  0.1796E-10  0.2446E-10  0.0000E+00  0.0000E+00  0.0000E+00  0.0000E+00  0.0000E+00
      6.270  0.3273E-01  0.2825E-01  0.2769E-06  0.3775E-06  0.0000E+00  0.0000E+00  0.0000E+00  0.0000E+00  0.0000E+00
      6.349  0.4657E-01  0.3831E-01  0.6440E-04  0.8795E-04  0.0000E+00  0.0000E+00  0.0000E+00  0.0000E+00  0.0000E+00
      6.429  0.8369E-01  0.6370E-01  0.6739E-03  0.9239E-03  0.0000E+00  0.0000E+00  0.0000E+00  0.0000E+00  0.0000E+00
      6.509  0.5321E-01  0.4193E-01  0.1426E-02  0.1969E-02  0.0000E+00  0.0000E+00  0.0000E+00  0.0000E+00  0.0000E+00
      6.589  0.3913E-01  0.3199E-01  0.1875E-02  0.2613E-02  0.0000E+00  0.0000E+00  0.0000E+00  0.0000E+00  0.0000E+00
      6.668  0.3307E-01  0.2783E-01  0.2215E-02  0.3117E-02  0.0000E+00  0.0000E+00  0.0000E+00  0.0000E+00  0.0000E+00
      6.748  0.2931E-01  0.2533E-01  0.2546E-02  0.3591E-02  0.0000E+00  0.0000E+00  0.0000E+00  0.0000E+00  0.0000E+00
      6.828  0.2929E-01  0.2324E-01  0.5260E-02  0.3892E-02  0.0000E+00  0.0000E+00  0.0000E+00  0.0000E+00  0.0000E+00
      6.908  0.3750E-01  0.2224E-01  0.1322E-01  0.4459E-02  0.0000E+00  0.0000E+00  0.0000E+00  0.0000E+00  0.0000E+00
      6.987  0.3483E-01  0.2163E-01  0.1230E-01  0.5298E-02  0.0000E+00  0.0000E+00  0.0000E+00  0.0000E+00  0.0000E+00
      7.067  0.7240E-01  0.2139E-01  0.1246E-01  0.6823E-02  0.0000E+00  0.0000E+00  0.0000E+00  0.0000E+00  0.0000E+00
      7.147  0.1763E+00  0.2677E-01  0.1618E-01  0.1164E-01  0.0000E+00  0.0000E+00  0.0000E+00  0.0000E+00  0.0000E+00
      7.227  0.1178E+00  0.2375E-01  0.1488E-01  0.9817E-02  0.0000E+00  0.0000E+00  0.0000E+00  0.0000E+00  0.0000E+00
      7.306  0.9013E-01  0.2340E-01  0.1417E-01  0.9521E-02  0.0000E+00  0.0000E+00  0.0000E+00  0.0000E+00  0.0000E+00
      7.386  0.7866E-01  0.2417E-01  0.1407E-01  0.9483E-02  0.0000E+00  0.0000E+00  0.0000E+00  0.0000E+00  0.0000E+00
      7.466  0.6985E-01  0.2352E-01  0.1431E-01  0.9900E-02  0.0000E+00  0.0000E+00  0.0000E+00  0.0000E+00  0.0000E+00
      7.546  0.6388E-01  0.2423E-01  0.1395E-01  0.9667E-02  0.0000E+00  0.0000E+00  0.0000E+00  0.0000E+00  0.0000E+00
      7.625  0.5985E-01  0.2402E-01  0.1408E-01  0.9891E-02  0.0000E+00  0.0000E+00  0.0000E+00  0.0000E+00  0.0000E+00
      7.705  0.5941E-01  0.2573E-01  0.1603E-01  0.1103E-01  0.0000E+00  0.0000E+00  0.0000E+00  0.0000E+00  0.0000E+00
      7.785  0.5459E-01  0.2636E-01  0.1497E-01  0.1080E-01  0.0000E+00  0.0000E+00  0.0000E+00  0.0000E+00  0.0000E+00
      7.865  0.5285E-01  0.2717E-01  0.1662E-01  0.1141E-01  0.0000E+00  0.0000E+00  0.0000E+00  0.0000E+00  0.0000E+00
      7.944  0.5136E-01  0.3032E-01  0.1639E-01  0.1224E-01  0.0000E+00  0.0000E+00  0.0000E+00  0.0000E+00  0.0000E+00
      8.024  0.5075E-01  0.3360E-01  0.1789E-01  0.1279E-01  0.0000E+00  0.0000E+00  0.0000E+00  0.0000E+00  0.0000E+00
      8.104  0.5090E-01  0.4412E-01  0.2286E-01  0.1775E-01  0.0000E+00  0.0000E+00  0.0000E+00  0.0000E+00  0.0000E+00
      8.184  0.5125E-01  0.1203E+00  0.8827E-01  0.9364E-01  0.0000E+00  0.0000E+00  0.0000E+00  0.0000E+00  0.0000E+00
      8.263  0.4668E-01  0.1200E+00  0.1265E+00  0.1350E+00  0.0000E+00  0.0000E+00  0.0000E+00  0.0000E+00  0.0000E+00
      8.343  0.3910E-01  0.5733E-01  0.8030E-01  0.7036E-01  0.0000E+00  0.0000E+00  0.0000E+00  0.0000E+00  0.0000E+00
      8.423  0.4736E-01  0.4405E-01  0.7925E-01  0.5654E-01  0.0000E+00  0.0000E+00  0.0000E+00  0.0000E+00  0.0000E+00
      8.503  0.6742E-01  0.4230E-01  0.8312E-01  0.5150E-01  0.0000E+00  0.0000E+00  0.0000E+00  0.0000E+00  0.0000E+00
      8.582  0.8265E-01  0.3495E-01  0.9863E-01  0.4600E-01  0.0000E+00  0.0000E+00  0.0000E+00  0.0000E+00  0.0000E+00
      8.662  0.6842E-01  0.3677E-01  0.7918E-01  0.4589E-01  0.0000E+00  0.0000E+00  0.0000E+00  0.0000E+00  0.0000E+00
      8.742  0.1113E+00  0.4602E-01  0.5135E-01  0.5950E-01  0.0000E+00  0.0000E+00  0.0000E+00  0.0000E+00  0.0000E+00
      8.822  0.2073E+00  0.5638E-01  0.6169E-01  0.6983E-01  0.0000E+00  0.0000E+00  0.0000E+00  0.0000E+00  0.0000E+00
      8.901  0.1182E+00  0.5740E-01  0.5860E-01  0.6093E-01  0.0000E+00  0.0000E+00  0.0000E+00  0.0000E+00  0.0000E+00
      8.981  0.8498E-01  0.8660E-01  0.9406E-01  0.9594E-01  0.0000E+00  0.0000E+00  0.0000E+00  0.0000E+00  0.0000E+00
      9.061  0.8170E-01  0.9716E-01  0.9876E-01  0.1200E+00  0.0000E+00  0.0000E+00  0.0000E+00  0.0000E+00  0.0000E+00
      9.141  0.5307E-01  0.9437E-01  0.9810E-01  0.1194E+00  0.0000E+00  0.0000E+00  0.0000E+00  0.0000E+00  0.0000E+00
      9.220  0.7922E-01  0.4984E-01  0.5553E-01  0.7450E-01  0.0000E+00  0.0000E+00  0.0000E+00  0.0000E+00  0.0000E+00
      9.300  0.3516E-01  0.2121E-01  0.2279E-01  0.4099E-01  0.0000E+00  0.0000E+00  0.0000E+00  0.0000E+00  0.0000E+00
      9.380  0.7374E-01  0.2328E-01  0.2982E-01  0.4963E-01  0.0000E+00  0.0000E+00  0.0000E+00  0.0000E+00  0.0000E+00
      9.460  0.4178E-01  0.2117E-01  0.1976E-01  0.4268E-01  0.0000E+00  0.0000E+00  0.0000E+00  0.0000E+00  0.0000E+00
      9.539  0.4481E-01  0.1988E-01  0.2798E-01  0.5072E-01  0.0000E+00  0.0000E+00  0.0000E+00  0.0000E+00  0.0000E+00
      9.619  0.5879E-01  0.2361E-01  0.2035E-01  0.4065E-01  0.0000E+00  0.0000E+00  0.0000E+00  0.0000E+00  0.0000E+00
      9.699  0.4145E-01  0.2112E-01  0.2192E-01  0.4054E-01  0.0000E+00  0.0000E+00  0.0000E+00  0.0000E+00  0.0000E+00
      9.779  0.5475E-01  0.2988E-01  0.2801E-01  0.5308E-01  0.0000E+00  0.0000E+00  0.0000E+00  0.0000E+00  0.0000E+00
      9.858  0.6255E-01  0.2855E-01  0.1540E-01  0.5147E-01  0.0000E+00  0.0000E+00  0.0000E+00  0.0000E+00  0.0000E+00
      9.938  0.5887E-01  0.3223E-01  0.2780E-01  0.7756E-01  0.0000E+00  0.0000E+00  0.0000E+00  0.0000E+00  0.0000E+00
     10.018  0.2621E-01  0.1218E-01  0.1447E-01  0.2808E-01  0.0000E+00  0.0000E+00  0.0000E+00  0.0000E+00  0.0000E+00
     10.098  0.2323E-01  0.1772E-01  0.2333E-01  0.2478E-01  0.0000E+00  0.0000E+00  0.0000E+00  0.0000E+00  0.0000E+00
     10.177  0.3056E-01  0.1776E-01  0.2750E-01  0.2804E-01  0.0000E+00  0.0000E+00  0.0000E+00  0.0000E+00  0.0000E+00
     10.257  0.2226E-01  0.1347E-01  0.1667E-01  0.1717E-01  0.0000E+00  0.0000E+00  0.0000E+00  0.0000E+00  0.0000E+00
     10.337  0.1398E-01  0.1039E-01  0.2003E-01  0.2587E-01  0.0000E+00  0.0000E+00  0.0000E+00  0.0000E+00  0.0000E+00
     10.417  0.2927E-01  0.1733E-01  0.2427E-01  0.2556E-01  0.0000E+00  0.0000E+00  0.0000E+00  0.0000E+00  0.0000E+00
     10.496  0.2936E-01  0.2040E-01  0.2173E-01  0.2238E-01  0.0000E+00  0.0000E+00  0.0000E+00  0.0000E+00  0.0000E+00
     10.576  0.5056E-01  0.4395E-01  0.5494E-01  0.3728E-01  0.0000E+00  0.0000E+00  0.0000E+00  0.0000E+00  0.0000E+00
     10.656  0.4734E-01  0.3219E-01  0.3360E-01  0.3011E-01  0.0000E+00  0.0000E+00  0.0000E+00  0.0000E+00  0.0000E+00
     10.736  0.3209E-01  0.2573E-01  0.3197E-01  0.3771E-01  0.0000E+00  0.0000E+00  0.0000E+00  0.0000E+00  0.0000E+00
     10.815  0.2891E-01  0.2104E-01  0.2930E-01  0.3517E-01  0.0000E+00  0.0000E+00  0.0000E+00  0.0000E+00  0.0000E+00
     10.895  0.3066E-01  0.2377E-01  0.2504E-01  0.2406E-01  0.0000E+00  0.0000E+00  0.0000E+00  0.0000E+00  0.0000E+00
     10.975  0.3317E-01  0.2549E-01  0.2876E-01  0.3239E-01  0.0000E+00  0.0000E+00  0.0000E+00  0.0000E+00  0.0000E+00
     11.055  0.2342E-01  0.1801E-01  0.2581E-01  0.2599E-01  0.0000E+00  0.0000E+00  0.0000E+00  0.0000E+00  0.0000E+00
     11.134  0.3696E-01  0.2803E-01  0.2029E-01  0.2995E-01  0.0000E+00  0.0000E+00  0.0000E+00  0.0000E+00  0.0000E+00
     11.214  0.4871E-01  0.3477E-01  0.3070E-01  0.4693E-01  0.0000E+00  0.0000E+00  0.0000E+00  0.0000E+00  0.0000E+00
     11.294  0.3596E-01  0.3326E-01  0.2317E-01  0.3980E-01  0.0000E+00  0.0000E+00  0.0000E+00  0.0000E+00  0.0000E+00
     11.374  0.3711E-01  0.3103E-01  0.2450E-01  0.2931E-01  0.0000E+00  0.0000E+00  0.0000E+00  0.0000E+00  0.0000E+00
     11.453  0.3072E-01  0.3158E-01  0.4067E-01  0.3391E-01  0.0000E+00  0.0000E+00  0.0000E+00  0.0000E+00  0.0000E+00
     11.533  0.2743E-01  0.3206E-01  0.2527E-01  0.3021E-01  0.0000E+00  0.0000E+00  0.0000E+00  0.0000E+00  0.0000E+00
     11.613  0.3054E-01  0.2505E-01  0.2867E-01  0.2803E-01  0.0000E+00  0.0000E+00  0.0000E+00  0.0000E+00  0.0000E+00
     11.692  0.2409E-01  0.3138E-01  0.3375E-01  0.4036E-01  0.0000E+00  0.0000E+00  0.0000E+00  0.0000E+00  0.0000E+00
     11.772  0.1863E-01  0.1840E-01  0.2006E-01  0.2147E-01  0.0000E+00  0.0000E+00  0.0000E+00  0.0000E+00  0.0000E+00
     11.852  0.3274E-01  0.3234E-01  0.3420E-01  0.4081E-01  0.0000E+00  0.0000E+00  0.0000E+00  0.0000E+00  0.0000E+00
     11.932  0.1428E-01  0.2015E-01  0.2211E-01  0.2963E-01  0.0000E+00  0.0000E+00  0.0000E+00  0.0000E+00  0.0000E+00
     12.011  0.1938E-01  0.1940E-01  0.1647E-01  0.2427E-01  0.0000E+00  0.0000E+00  0.0000E+00  0.0000E+00  0.0000E+00
     12.091  0.2792E-01  0.2939E-01  0.3117E-01  0.4217E-01  0.0000E+00  0.0000E+00  0.0000E+00  0.0000E+00  0.0000E+00
     12.171  0.1621E-01  0.2130E-01  0.2298E-01  0.3491E-01  0.0000E+00  0.0000E+00  0.0000E+00  0.0000E+00  0.0000E+00
     12.251  0.1435E-01  0.1455E-01  0.1246E-01  0.1375E-01  0.0000E+00  0.0000E+00  0.0000E+00  0.0000E+00  0.0000E+00
     12.330  0.2540E-01  0.3360E-01  0.3392E-01  0.4656E-01  0.0000E+00  0.0000E+00  0.0000E+00  0.0000E+00  0.0000E+00
     12.410  0.9422E-02  0.1440E-01  0.1789E-01  0.2280E-01  0.0000E+00  0.0000E+00  0.0000E+00  0.0000E+00  0.0000E+00
     12.490  0.2333E-01  0.2206E-01  0.2415E-01  0.2860E-01  0.0000E+00  0.0000E+00  0.0000E+00  0.0000E+00  0.0000E+00
     12.570  0.1673E-01  0.1886E-01  0.3497E-01  0.3460E-01  0.0000E+00  0.0000E+00  0.0000E+00  0.0000E+00  0.0000E+00
     12.649  0.1410E-01  0.1372E-01  0.2533E-01  0.2893E-01  0.0000E+00  0.0000E+00  0.0000E+00  0.0000E+00  0.0000E+00
     12.729  0.1338E-01  0.1549E-01  0.1628E-01  0.2033E-01  0.0000E+00  0.0000E+00  0.0000E+00  0.0000E+00  0.0000E+00
     12.809  0.9032E-02  0.1562E-01  0.2277E-01  0.3670E-01  0.0000E+00  0.0000E+00  0.0000E+00  0.0000E+00  0.0000E+00
     12.889  0.1355E-01  0.1552E-01  0.2296E-01  0.2435E-01  0.0000E+00  0.0000E+00  0.0000E+00  0.0000E+00  0.0000E+00
     12.968  0.9965E-02  0.1589E-01  0.1312E-01  0.2709E-01  0.0000E+00  0.0000E+00  0.0000E+00  0.0000E+00  0.0000E+00
     13.048  0.9150E-02  0.2048E-01  0.2611E-01  0.3844E-01  0.0000E+00  0.0000E+00  0.0000E+00  0.0000E+00  0.0000E+00
     13.128  0.1232E-01  0.1072E-01  0.2151E-01  0.2376E-01  0.0000E+00  0.0000E+00  0.0000E+00  0.0000E+00  0.0000E+00
     13.208  0.6555E-02  0.8088E-02  0.1029E-01  0.1626E-01  0.0000E+00  0.0000E+00  0.0000E+00  0.0000E+00  0.0000E+00
     13.287  0.1074E-01  0.1344E-01  0.3263E-01  0.3784E-01  0.0000E+00  0.0000E+00  0.0000E+00  0.0000E+00  0.0000E+00
     13.367  0.1417E-01  0.2670E-01  0.3789E-01  0.3995E-01  0.0000E+00  0.0000E+00  0.0000E+00  0.0000E+00  0.0000E+00
     13.447  0.9145E-02  0.2982E-01  0.3401E-01  0.3712E-01  0.0000E+00  0.0000E+00  0.0000E+00  0.0000E+00  0.0000E+00
     13.527  0.9780E-02  0.2318E-01  0.5491E-01  0.4239E-01  0.0000E+00  0.0000E+00  0.0000E+00  0.0000E+00  0.0000E+00
     13.606  0.8946E-02  0.2051E-01  0.3937E-01  0.2525E-01  0.0000E+00  0.0000E+00  0.0000E+00  0.0000E+00  0.0000E+00
     13.686  0.3101E-02  0.2300E-01  0.2700E-01  0.1838E-01  0.0000E+00  0.0000E+00  0.0000E+00  0.0000E+00  0.0000E+00
     13.766  0.3230E-02  0.1063E-01  0.2553E-01  0.2612E-01  0.0000E+00  0.0000E+00  0.0000E+00  0.0000E+00  0.0000E+00
     13.846  0.3840E-02  0.5411E-02  0.1111E-01  0.1717E-01  0.0000E+00  0.0000E+00  0.0000E+00  0.0000E+00  0.0000E+00
     13.925  0.2968E-02  0.4343E-02  0.9356E-02  0.1403E-01  0.0000E+00  0.0000E+00  0.0000E+00  0.0000E+00  0.0000E+00
     14.005  0.3035E-02  0.4503E-02  0.2025E-01  0.2497E-01  0.0000E+00  0.0000E+00  0.0000E+00  0.0000E+00  0.0000E+00
     14.085  0.2171E-02  0.3187E-02  0.8238E-02  0.1204E-01  0.0000E+00  0.0000E+00  0.0000E+00  0.0000E+00  0.0000E+00
     14.165  0.4351E-02  0.6354E-02  0.1467E-01  0.2250E-01  0.0000E+00  0.0000E+00  0.0000E+00  0.0000E+00  0.0000E+00
     14.244  0.1780E-02  0.2614E-02  0.1861E-01  0.2200E-01  0.0000E+00  0.0000E+00  0.0000E+00  0.0000E+00  0.0000E+00
     14.324  0.3089E-02  0.4616E-02  0.1201E-01  0.1755E-01  0.0000E+00  0.0000E+00  0.0000E+00  0.0000E+00  0.0000E+00
     14.404  0.2366E-02  0.3451E-02  0.1138E-01  0.1671E-01  0.0000E+00  0.0000E+00  0.0000E+00  0.0000E+00  0.0000E+00
     14.484  0.3246E-02  0.4772E-02  0.2567E-01  0.3245E-01  0.0000E+00  0.0000E+00  0.0000E+00  0.0000E+00  0.0000E+00
     14.563  0.1865E-02  0.2787E-02  0.9805E-02  0.1398E-01  0.0000E+00  0.0000E+00  0.0000E+00  0.0000E+00  0.0000E+00
     14.643  0.2391E-02  0.3499E-02  0.1472E-01  0.2008E-01  0.0000E+00  0.0000E+00  0.0000E+00  0.0000E+00  0.0000E+00
     14.723  0.2768E-02  0.4054E-02  0.2802E-01  0.3548E-01  0.0000E+00  0.0000E+00  0.0000E+00  0.0000E+00  0.0000E+00
     14.803  0.1848E-02  0.2635E-02  0.1278E-01  0.1705E-01  0.0000E+00  0.0000E+00  0.0000E+00  0.0000E+00  0.0000E+00
     14.882  0.2067E-02  0.3028E-02  0.1853E-01  0.2431E-01  0.0000E+00  0.0000E+00  0.0000E+00  0.0000E+00  0.0000E+00
     14.962  0.2214E-02  0.3100E-02  0.3162E-01  0.3823E-01  0.0000E+00  0.0000E+00  0.0000E+00  0.0000E+00  0.0000E+00
     15.042  0.1718E-02  0.2433E-02  0.1703E-01  0.2213E-01  0.0000E+00  0.0000E+00  0.0000E+00  0.0000E+00  0.0000E+00
     15.122  0.1717E-02  0.2323E-02  0.2917E-01  0.3452E-01  0.0000E+00  0.0000E+00  0.0000E+00  0.0000E+00  0.0000E+00
     15.201  0.1700E-02  0.2321E-02  0.3648E-01  0.4261E-01  0.0000E+00  0.0000E+00  0.0000E+00  0.0000E+00  0.0000E+00
     15.281  0.1283E-02  0.1699E-02  0.2775E-01  0.3208E-01  0.0000E+00  0.0000E+00  0.0000E+00  0.0000E+00  0.0000E+00
     15.361  0.1274E-02  0.1664E-02  0.5290E-01  0.5831E-01  0.0000E+00  0.0000E+00  0.0000E+00  0.0000E+00  0.0000E+00
     15.441  0.9092E-03  0.1170E-02  0.5290E-01  0.5674E-01  0.0000E+00  0.0000E+00  0.0000E+00  0.0000E+00  0.0000E+00
     15.520  0.6241E-03  0.7576E-03  0.1112E+00  0.1148E+00  0.0000E+00  0.0000E+00  0.0000E+00  0.0000E+00  0.0000E+00
     15.600  0.1581E-03  0.1882E-03  0.1110E+00  0.1115E+00  0.0000E+00  0.0000E+00  0.0000E+00  0.0000E+00  0.0000E+00
     15.680  0.4186E-05  0.5377E-05  0.7746E-02  0.7870E-02  0.0000E+00  0.0000E+00  0.0000E+00  0.0000E+00  0.0000E+00
     15.760  0.2412E-08  0.3363E-08  0.9083E-05  0.9520E-05  0.0000E+00  0.0000E+00  0.0000E+00  0.0000E+00  0.0000E+00
     15.839  0.1454E-13  0.2225E-13  0.9508E-10  0.1031E-09  0.0000E+00  0.0000E+00  0.0000E+00  0.0000E+00  0.0000E+00
     15.919  0.1875E-21  0.6670E-21  0.5985E-17  0.7937E-17  0.0000E+00  0.0000E+00  0.0000E+00  0.0000E+00  0.0000E+00
     15.999  0.0000E+00  0.0000E+00  0.0000E+00  0.0000E+00  0.0000E+00  0.0000E+00  0.0000E+00  0.0000E+00  0.0000E+00
     16.079  0.0000E+00  0.0000E+00  0.0000E+00  0.0000E+00  0.0000E+00  0.0000E+00  0.0000E+00  0.0000E+00  0.0000E+00
     16.158  0.0000E+00  0.0000E+00  0.0000E+00  0.0000E+00  0.0000E+00  0.0000E+00  0.0000E+00  0.0000E+00  0.0000E+00
     16.238  0.0000E+00  0.0000E+00  0.0000E+00  0.0000E+00  0.0000E+00  0.0000E+00  0.0000E+00  0.0000E+00  0.0000E+00
     16.318  0.0000E+00  0.0000E+00  0.0000E+00  0.0000E+00  0.0000E+00  0.0000E+00  0.0000E+00  0.0000E+00  0.0000E+00
     16.398  0.0000E+00  0.0000E+00  0.0000E+00  0.0000E+00  0.0000E+00  0.0000E+00  0.0000E+00  0.0000E+00  0.0000E+00
     16.477  0.0000E+00  0.0000E+00  0.0000E+00  0.0000E+00  0.0000E+00  0.0000E+00  0.0000E+00  0.0000E+00  0.0000E+00
     16.557  0.0000E+00  0.0000E+00  0.0000E+00  0.0000E+00  0.0000E+00  0.0000E+00  0.0000E+00  0.0000E+00  0.0000E+00
     16.637  0.0000E+00  0.0000E+00  0.0000E+00  0.0000E+00  0.0000E+00  0.0000E+00  0.0000E+00  0.0000E+00  0.0000E+00
