    2    2    1    1
  0.2044968E+02  0.3867323E-09  0.3867323E-09  0.3867323E-09  0.5000000E-15
   1.0000000000000000E-004
  CAR 
 unknown system                          
      8    240      8

  0.0000000E+00  0.0000000E+00  0.0000000E+00  0.4166667E-02
    1       -6.199765   1.000000
    2        5.613103   1.000000
    3        5.613103   1.000000
    4        5.613103   1.000000
    5        8.170291   0.000000
    6        8.170291   0.000000
    7        8.170291   0.000000
    8        8.743661   0.000000

  0.1282051E-01  0.0000000E+00  0.1282051E-01  0.4166667E-02
    1       -6.196946   1.000000
    2        5.592418   1.000000
    3        5.600926   1.000000
    4        5.600926   1.000000
    5        8.163230   0.000000
    6        8.185952   0.000000
    7        8.185952   0.000000
    8        8.763964   0.000000

  0.2564103E-01  0.0000000E+00  0.2564103E-01  0.4166667E-02
    1       -6.188476   1.000000
    2        5.531998   1.000000
    3        5.565269   1.000000
    4        5.565269   1.000000
    5        8.142278   0.000000
    6        8.232030   0.000000
    7        8.232030   0.000000
    8        8.823059   0.000000

  0.3846154E-01  0.0000000E+00  0.3846154E-01  0.4166667E-02
    1       -6.174352   1.000000
    2        5.436167   1.000000
    3        5.508621   1.000000
    4        5.508621   1.000000
    5        8.108095   0.000000
    6        8.306060   0.000000
    7        8.306060   0.000000
    8        8.916022   0.000000

  0.5128205E-01  0.0000000E+00  0.5128205E-01  0.4166667E-02
    1       -6.154576   1.000000
    2        5.310645   1.000000
    3        5.434380   1.000000
    4        5.434380   1.000000
    5        8.061718   0.000000
    6        8.404652   0.000000
    7        8.404653   0.000000
    8        9.036029   0.000000

  0.6410256E-01  0.0000000E+00  0.6410256E-01  0.4166667E-02
    1       -6.129157   1.000000
    2        5.161288   1.000000
    3        5.346141   1.000000
    4        5.346141   1.000000
    5        8.004439   0.000000
    6        8.524149   0.000000
    7        8.524149   0.000000
    8        9.175445   0.000000

  0.7692308E-01  0.0000000E+00  0.7692308E-01  0.4166667E-02
    1       -6.098107   1.000000
    2        4.993323   1.000000
    3        5.247309   1.000000
    4        5.247309   1.000000
    5        7.937723   0.000000
    6        8.661108   0.000000
    7        8.661108   0.000000
    8        9.326296   0.000000

  0.8974359E-01  0.0000000E+00  0.8974359E-01  0.4166667E-02
    1       -6.061442   1.000000
    2        4.811037   1.000000
    3        5.140835   1.000000
    4        5.140835   1.000000
    5        7.863099   0.000000
    6        8.812533   0.000000
    7        8.812533   0.000000
    8        9.480085   0.000000

  0.1025641E+00  0.0000000E+00  0.1025641E+00  0.4166667E-02
    1       -6.019185   1.000000
    2        4.617793   1.000000
    3        5.029151   1.000000
    4        5.029151   1.000000
    5        7.782083   0.000000
    6        8.975938   0.000000
    7        8.975938   0.000000
    8        9.627076   0.000000

  0.1153846E+00  0.0000000E+00  0.1153846E+00  0.4166667E-02
    1       -5.971335   1.000000
    2        4.416182   1.000000
    3        4.914221   1.000000
    4        4.914221   1.000000
    5        7.696146   0.000000
    6        9.149308   0.000000
    7        9.149309   0.000000
    8        9.755452   0.000000

  0.1282051E+00  0.0000000E+00  0.1282051E+00  0.4166667E-02
    1       -5.917915   1.000000
    2        4.208145   1.000000
    3        4.797551   1.000000
    4        4.797551   1.000000
    5        7.606605   0.000000
    6        9.330992   0.000000
    7        9.330992   0.000000
    8        9.850949   0.000000

  0.1410256E+00  0.0000000E+00  0.1410256E+00  0.4166667E-02
    1       -5.858939   1.000000
    2        3.995190   1.000000
    3        4.680468   1.000000
    4        4.680468   1.000000
    5        7.514741   0.000000
    6        9.519761   0.000000
    7        9.519762   0.000000
    8        9.898891   0.000000

  0.1538462E+00  0.0000000E+00  0.1538462E+00  0.4166667E-02
    1       -5.794435   1.000000
    2        3.778426   1.000000
    3        4.563906   1.000000
    4        4.563906   1.000000
    5        7.421636   0.000000
    6        9.714602   0.000000
    7        9.714602   0.000000
    8        9.889425   0.000000

  0.1666667E+00  0.0000000E+00  0.1666667E+00  0.4166667E-02
    1       -5.724423   1.000000
    2        3.558734   1.000000
    3        4.448667   1.000000
    4        4.448667   1.000000
    5        7.328265   0.000000
    6        9.823441   0.000000
    7        9.914610   0.000000
    8        9.914610   0.000000

  0.1794872E+00  0.0000000E+00  0.1794872E+00  0.4166667E-02
    1       -5.648949   1.000000
    2        3.336771   1.000000
    3        4.335284   1.000000
    4        4.335284   1.000000
    5        7.235424   0.000000
    6        9.710744   0.000000
    7       10.118998   0.000000
    8       10.118998   0.000000

  0.1923077E+00  0.0000000E+00  0.1923077E+00  0.4166667E-02
    1       -5.568038   1.000000
    2        3.113077   1.000000
    3        4.224366   1.000000
    4        4.224366   1.000000
    5        7.144004   0.000000
    6        9.564815   0.000000
    7       10.327336   0.000000
    8       10.327341   0.000000

  0.2051282E+00  0.0000000E+00  0.2051282E+00  0.4166667E-02
    1       -5.481714   1.000000
    2        2.888068   1.000000
    3        4.116300   1.000000
    4        4.116300   1.000000
    5        7.054611   0.000000
    6        9.397531   0.000000
    7       10.539123   0.000000
    8       10.539123   0.000000

  0.2179487E+00  0.0000000E+00  0.2179487E+00  0.4166667E-02
    1       -5.390008   1.000000
    2        2.662094   1.000000
    3        4.011450   1.000000
    4        4.011450   1.000000
    5        6.967857   0.000000
    6        9.217783   0.000000
    7       10.754199   0.000000
    8       10.754199   0.000000

  0.2307692E+00  0.0000000E+00  0.2307692E+00  0.4166667E-02
    1       -5.292968   1.000000
    2        2.435416   1.000000
    3        3.910063   1.000000
    4        3.910063   1.000000
    5        6.884215   0.000000
    6        9.031758   0.000000
    7       10.971797   0.000000
    8       10.971800   0.000000

  0.2435897E+00  0.0000000E+00  0.2435897E+00  0.4166667E-02
    1       -5.190632   1.000000
    2        2.208296   1.000000
    3        3.812392   1.000000
    4        3.812392   1.000000
    5        6.804136   0.000000
    6        8.843711   0.000000
    7       11.191833   0.000000
    8       11.191833   0.000000

  0.2564103E+00  0.0000000E+00  0.2564103E+00  0.4166667E-02
    1       -5.083047   1.000000
    2        1.980959   1.000000
    3        3.718645   1.000000
    4        3.718645   1.000000
    5        6.728036   0.000000
    6        8.656580   0.000000
    7       11.414100   0.000000
    8       11.414182   0.000000

  0.2692308E+00  0.0000000E+00  0.2692308E+00  0.4166667E-02
    1       -4.970276   1.000000
    2        1.753605   1.000000
    3        3.628997   1.000000
    4        3.628997   1.000000
    5        6.656272   0.000000
    6        8.472428   0.000000
    7       11.638400   0.000000
    8       11.638402   0.000000

  0.2820513E+00  0.0000000E+00  0.2820513E+00  0.4166667E-02
    1       -4.852361   1.000000
    2        1.526426   1.000000
    3        3.543595   1.000000
    4        3.543595   1.000000
    5        6.589161   0.000000
    6        8.292729   0.000000
    7       11.864579   0.000000
    8       11.864616   0.000000

  0.2948718E+00  0.0000000E+00  0.2948718E+00  0.4166667E-02
    1       -4.729353   1.000000
    2        1.299606   1.000000
    3        3.462568   1.000000
    4        3.462568   1.000000
    5        6.526990   0.000000
    6        8.118555   0.000000
    7       12.092506   0.000000
    8       12.092749   0.000000

  0.3076923E+00  0.0000000E+00  0.3076923E+00  0.4166667E-02
    1       -4.601312   1.000000
    2        1.073315   1.000000
    3        3.386036   1.000000
    4        3.386036   1.000000
    5        6.469992   0.000000
    6        7.950666   0.000000
    7       12.322019   0.000000
    8       12.322019   0.000000

  0.3205128E+00  0.0000000E+00  0.3205128E+00  0.4166667E-02
    1       -4.468303   1.000000
    2        0.847741   1.000000
    3        3.314076   1.000000
    4        3.314076   1.000000
    5        6.418451   0.000000
    6        7.789699   0.000000
    7       12.553105   0.000000
    8       12.553105   0.000000

  0.3333333E+00  0.0000000E+00  0.3333333E+00  0.4166667E-02
    1       -4.330398   1.000000
    2        0.623057   1.000000
    3        3.246760   1.000000
    4        3.246760   1.000000
    5        6.372353   0.000000
    6        7.635726   0.000000
    7       12.785532   0.000000
    8       12.785547   0.000000

  0.3461538E+00  0.0000000E+00  0.3461538E+00  0.4166667E-02
    1       -4.187664   1.000000
    2        0.399466   1.000000
    3        3.184204   1.000000
    4        3.184204   1.000000
    5        6.332300   0.000000
    6        7.489823   0.000000
    7       13.019417   0.000000
    8       13.019449   0.000000

  0.3589744E+00  0.0000000E+00  0.3589744E+00  0.4166667E-02
    1       -4.040198   1.000000
    2        0.177142   1.000000
    3        3.126450   1.000000
    4        3.126450   1.000000
    5        6.298280   0.000000
    6        7.351659   0.000000
    7       13.254503   0.000000
    8       13.254570   0.000000

  0.3717949E+00  0.0000000E+00  0.3717949E+00  0.4166667E-02
    1       -3.888067   1.000000
    2       -0.043730   1.000000
    3        3.073554   1.000000
    4        3.073554   1.000000
    5        6.270463   0.000000
    6        7.221507   0.000000
    7       13.490667   0.000000
    8       13.490693   0.000000

  0.3846154E+00  0.0000000E+00  0.3846154E+00  0.4166667E-02
    1       -3.731362   1.000000
    2       -0.262970   1.000000
    3        3.025551   1.000000
    4        3.025551   1.000000
    5        6.249084   0.000000
    6        7.099395   0.000000
    7       13.727721   0.000000
    8       13.727729   0.000000

  0.3974359E+00  0.0000000E+00  0.3974359E+00  0.4166667E-02
    1       -3.570167   1.000000
    2       -0.480380   1.000000
    3        2.982511   1.000000
    4        2.982511   1.000000
    5        6.234150   0.000000
    6        6.985514   0.000000
    7       13.965350   0.000000
    8       13.965383   0.000000

  0.4102564E+00  0.0000000E+00  0.4102564E+00  0.4166667E-02
    1       -3.404586   1.000000
    2       -0.695794   1.000000
    3        2.944455   1.000000
    4        2.944455   1.000000
    5        6.225883   0.000000
    6        6.879817   0.000000
    7       14.203061   0.000000
    8       14.203068   0.000000

  0.4230769E+00  0.0000000E+00  0.4230769E+00  0.4166667E-02
    1       -3.234722   1.000000
    2       -0.909013   1.000000
    3        2.911416   1.000000
    4        2.911416   1.000000
    5        6.224428   0.000000
    6        6.782309   0.000000
    7       14.440140   0.000000
    8       14.440151   0.000000

  0.4358974E+00  0.0000000E+00  0.4358974E+00  0.4166667E-02
    1       -3.060693   1.000000
    2       -1.119855   1.000000
    3        2.883416   1.000000
    4        2.883417   1.000000
    5        6.229909   0.000000
    6        6.692925   0.000000
    7       14.675198   0.000000
    8       14.675204   0.000000

  0.4487179E+00  0.0000000E+00  0.4487179E+00  0.4166667E-02
    1       -2.882620   1.000000
    2       -1.328139   1.000000
    3        2.860480   1.000000
    4        2.860480   1.000000
    5        6.242480   0.000000
    6        6.611648   0.000000
    7       14.905989   0.000000
    8       14.905996   0.000000

  0.4615385E+00  0.0000000E+00  0.4615385E+00  0.4166667E-02
    1       -2.700616   1.000000
    2       -1.533694   1.000000
    3        2.842623   1.000000
    4        2.842623   1.000000
    5        6.262249   0.000000
    6        6.538376   0.000000
    7       15.127256   0.000000
    8       15.127286   0.000000

  0.4743590E+00  0.0000000E+00  0.4743590E+00  0.4166667E-02
    1       -2.514808   1.000000
    2       -1.736349   1.000000
    3        2.829859   1.000000
    4        2.829859   1.000000
    5        6.289317   0.000000
    6        6.473050   0.000000
    7       15.328340   0.000000
    8       15.328435   0.000000

  0.4871795E+00  0.0000000E+00  0.4871795E+00  0.4166667E-02
    1       -2.325331   1.000000
    2       -1.935946   1.000000
    3        2.822198   1.000000
    4        2.822198   1.000000
    5        6.323820   0.000000
    6        6.415581   0.000000
    7       15.484540   0.000000
    8       15.484999   0.000000

  0.5000000E+00  0.0000000E+00  0.5000000E+00  0.4166667E-02
    1       -2.132328   1.000000
    2       -2.132328   1.000000
    3        2.819643   1.000000
    4        2.819643   1.000000
    5        6.365872   0.000000
    6        6.365872   0.000000
    7       15.547900   0.000000
    8       15.548583   0.000000

  0.5000000E+00  0.0000000E+00  0.5000000E+00  0.4166667E-02
    1       -2.132328   1.000000
    2       -2.132328   1.000000
    3        2.819643   1.000000
    4        2.819643   1.000000
    5        6.365872   0.000000
    6        6.365872   0.000000
    7       15.547806   0.000000
    8       15.549333   0.000000

  0.5000000E+00  0.6410256E-02  0.5064103E+00  0.4166667E-02
    1       -2.132099   1.000000
    2       -2.132099   1.000000
    3        2.817514   1.000000
    4        2.817514   1.000000
    5        6.369792   0.000000
    6        6.369792   0.000000
    7       15.541869   0.000000
    8       15.541967   0.000000

  0.5000000E+00  0.1282051E-01  0.5128205E+00  0.4166667E-02
    1       -2.131412   1.000000
    2       -2.131412   1.000000
    3        2.811162   1.000000
    4        2.811162   1.000000
    5        6.381521   0.000000
    6        6.381521   0.000000
    7       15.523253   0.000000
    8       15.528602   0.000000

  0.5000000E+00  0.1923077E-01  0.5192308E+00  0.4166667E-02
    1       -2.130272   1.000000
    2       -2.130272   1.000000
    3        2.800688   1.000000
    4        2.800688   1.000000
    5        6.400959   0.000000
    6        6.400959   0.000000
    7       15.491179   0.000000
    8       15.491549   0.000000

  0.5000000E+00  0.2564103E-01  0.5256410E+00  0.4166667E-02
    1       -2.128684   1.000000
    2       -2.128684   1.000000
    3        2.786254   1.000000
    4        2.786254   1.000000
    5        6.427947   0.000000
    6        6.427947   0.000000
    7       15.444384   0.000000
    8       15.445362   0.000000

  0.5000000E+00  0.3205128E-01  0.5320513E+00  0.4166667E-02
    1       -2.126656   1.000000
    2       -2.126656   1.000000
    3        2.768076   1.000000
    4        2.768076   1.000000
    5        6.462273   0.000000
    6        6.462273   0.000000
    7       15.381729   0.000000
    8       15.384252   0.000000

  0.5000000E+00  0.3846154E-01  0.5384615E+00  0.4166667E-02
    1       -2.124198   1.000000
    2       -2.124198   1.000000
    3        2.746417   1.000000
    4        2.746417   1.000000
    5        6.503681   0.000000
    6        6.503681   0.000000
    7       15.302996   0.000000
    8       15.303211   0.000000

  0.5000000E+00  0.4487179E-01  0.5448718E+00  0.4166667E-02
    1       -2.121322   1.000000
    2       -2.121322   1.000000
    3        2.721576   1.000000
    4        2.721576   1.000000
    5        6.551882   0.000000
    6        6.551882   0.000000
    7       15.208010   0.000000
    8       15.208134   0.000000

  0.5000000E+00  0.5128205E-01  0.5512821E+00  0.4166667E-02
    1       -2.118049   1.000000
    2       -2.118049   1.000000
    3        2.693870   1.000000
    4        2.693870   1.000000
    5        6.606533   0.000000
    6        6.606533   0.000000
    7       15.098811   0.000000
    8       15.098915   0.000000

  0.5000000E+00  0.5769231E-01  0.5576923E+00  0.4166667E-02
    1       -2.114383   1.000000
    2       -2.114383   1.000000
    3        2.663641   1.000000
    4        2.663641   1.000000
    5        6.667458   0.000000
    6        6.667458   0.000000
    7       14.977250   0.000000
    8       14.977350   0.000000

  0.5000000E+00  0.6410256E-01  0.5641026E+00  0.4166667E-02
    1       -2.110354   1.000000
    2       -2.110354   1.000000
    3        2.631222   1.000000
    4        2.631222   1.000000
    5        6.734087   0.000000
    6        6.734087   0.000000
    7       14.845474   0.000000
    8       14.845545   0.000000

  0.5000000E+00  0.7051282E-01  0.5705128E+00  0.4166667E-02
    1       -2.105976   1.000000
    2       -2.105976   1.000000
    3        2.596963   1.000000
    4        2.596964   1.000000
    5        6.806238   0.000000
    6        6.806238   0.000000
    7       14.705535   0.000000
    8       14.705731   0.000000

  0.5000000E+00  0.7692308E-01  0.5769231E+00  0.4166667E-02
    1       -2.101274   1.000000
    2       -2.101274   1.000000
    3        2.561197   1.000000
    4        2.561197   1.000000
    5        6.883662   0.000000
    6        6.883662   0.000000
    7       14.559290   0.000000
    8       14.559373   0.000000

  0.5000000E+00  0.8333333E-01  0.5833333E+00  0.4166667E-02
    1       -2.096273   1.000000
    2       -2.096273   1.000000
    3        2.524244   1.000000
    4        2.524244   1.000000
    5        6.965877   0.000000
    6        6.965877   0.000000
    7       14.408167   0.000000
    8       14.408190   0.000000

  0.5000000E+00  0.8974359E-01  0.5897436E+00  0.4166667E-02
    1       -2.091004   1.000000
    2       -2.091004   1.000000
    3        2.486414   1.000000
    4        2.486414   1.000000
    5        7.052654   0.000000
    6        7.052654   0.000000
    7       14.253177   0.000000
    8       14.253184   0.000000

  0.5000000E+00  0.9615385E-01  0.5961538E+00  0.4166667E-02
    1       -2.085501   1.000000
    2       -2.085501   1.000000
    3        2.447992   1.000000
    4        2.447992   1.000000
    5        7.143679   0.000000
    6        7.143679   0.000000
    7       14.095172   0.000000
    8       14.095226   0.000000

  0.5000000E+00  0.1025641E+00  0.6025641E+00  0.4166667E-02
    1       -2.079784   1.000000
    2       -2.079784   1.000000
    3        2.409267   1.000000
    4        2.409267   1.000000
    5        7.238786   0.000000
    6        7.238786   0.000000
    7       13.935107   0.000000
    8       13.935110   0.000000

  0.5000000E+00  0.1089744E+00  0.6089744E+00  0.4166667E-02
    1       -2.073889   1.000000
    2       -2.073889   1.000000
    3        2.370493   1.000000
    4        2.370493   1.000000
    5        7.337715   0.000000
    6        7.337715   0.000000
    7       13.773469   0.000000
    8       13.773470   0.000000

  0.5000000E+00  0.1153846E+00  0.6153846E+00  0.4166667E-02
    1       -2.067857   1.000000
    2       -2.067857   1.000000
    3        2.331912   1.000000
    4        2.331912   1.000000
    5        7.440180   0.000000
    6        7.440180   0.000000
    7       13.610646   0.000000
    8       13.610688   0.000000

  0.5000000E+00  0.1217949E+00  0.6217949E+00  0.4166667E-02
    1       -2.061722   1.000000
    2       -2.061722   1.000000
    3        2.293750   1.000000
    4        2.293750   1.000000
    5        7.546001   0.000000
    6        7.546001   0.000000
    7       13.447036   0.000000
    8       13.447053   0.000000

  0.5000000E+00  0.1282051E+00  0.6282051E+00  0.4166667E-02
    1       -2.055521   1.000000
    2       -2.055521   1.000000
    3        2.256218   1.000000
    4        2.256218   1.000000
    5        7.654978   0.000000
    6        7.654978   0.000000
    7       13.282953   0.000000
    8       13.282961   0.000000

  0.5000000E+00  0.1346154E+00  0.6346154E+00  0.4166667E-02
    1       -2.049295   1.000000
    2       -2.049295   1.000000
    3        2.219512   1.000000
    4        2.219512   1.000000
    5        7.766928   0.000000
    6        7.766928   0.000000
    7       13.118655   0.000000
    8       13.118657   0.000000

  0.5000000E+00  0.1410256E+00  0.6410256E+00  0.4166667E-02
    1       -2.043085   1.000000
    2       -2.043085   1.000000
    3        2.183813   1.000000
    4        2.183813   1.000000
    5        7.881676   0.000000
    6        7.881676   0.000000
    7       12.954369   0.000000
    8       12.954374   0.000000

  0.5000000E+00  0.1474359E+00  0.6474359E+00  0.4166667E-02
    1       -2.036931   1.000000
    2       -2.036931   1.000000
    3        2.149290   1.000000
    4        2.149290   1.000000
    5        7.999055   0.000000
    6        7.999055   0.000000
    7       12.790290   0.000000
    8       12.790290   0.000000

  0.5000000E+00  0.1538462E+00  0.6538462E+00  0.4166667E-02
    1       -2.030872   1.000000
    2       -2.030872   1.000000
    3        2.116099   1.000000
    4        2.116099   1.000000
    5        8.118942   0.000000
    6        8.118942   0.000000
    7       12.626633   0.000000
    8       12.626639   0.000000

  0.5000000E+00  0.1602564E+00  0.6602564E+00  0.4166667E-02
    1       -2.024956   1.000000
    2       -2.024956   1.000000
    3        2.084386   1.000000
    4        2.084386   1.000000
    5        8.241105   0.000000
    6        8.241105   0.000000
    7       12.463487   0.000000
    8       12.463487   0.000000

  0.5000000E+00  0.1666667E+00  0.6666667E+00  0.4166667E-02
    1       -2.019224   1.000000
    2       -2.019224   1.000000
    3        2.054282   1.000000
    4        2.054282   1.000000
    5        8.365421   0.000000
    6        8.365421   0.000000
    7       12.301054   0.000000
    8       12.301054   0.000000

  0.5000000E+00  0.1730769E+00  0.6730769E+00  0.4166667E-02
    1       -2.013715   1.000000
    2       -2.013715   1.000000
    3        2.025914   1.000000
    4        2.025914   1.000000
    5        8.491725   0.000000
    6        8.491725   0.000000
    7       12.139497   0.000000
    8       12.139497   0.000000

  0.5000000E+00  0.1794872E+00  0.6794872E+00  0.4166667E-02
    1       -2.008471   1.000000
    2       -2.008471   1.000000
    3        1.999396   1.000000
    4        1.999396   1.000000
    5        8.619836   0.000000
    6        8.619836   0.000000
    7       11.978991   0.000000
    8       11.978992   0.000000

  0.5000000E+00  0.1858974E+00  0.6858974E+00  0.4166667E-02
    1       -2.003534   1.000000
    2       -2.003534   1.000000
    3        1.974833   1.000000
    4        1.974833   1.000000
    5        8.749548   0.000000
    6        8.749548   0.000000
    7       11.819647   0.000000
    8       11.819647   0.000000

  0.5000000E+00  0.1923077E+00  0.6923077E+00  0.4166667E-02
    1       -1.998935   1.000000
    2       -1.998935   1.000000
    3        1.952320   1.000000
    4        1.952320   1.000000
    5        8.880616   0.000000
    6        8.880616   0.000000
    7       11.661877   0.000000
    8       11.661877   0.000000

  0.5000000E+00  0.1987179E+00  0.6987179E+00  0.4166667E-02
    1       -1.994707   1.000000
    2       -1.994707   1.000000
    3        1.931943   1.000000
    4        1.931943   1.000000
    5        9.012777   0.000000
    6        9.012777   0.000000
    7       11.505936   0.000000
    8       11.505936   0.000000

  0.5000000E+00  0.2051282E+00  0.7051282E+00  0.4166667E-02
    1       -1.990893   1.000000
    2       -1.990893   1.000000
    3        1.913779   1.000000
    4        1.913779   1.000000
    5        9.145493   0.000000
    6        9.145493   0.000000
    7       11.352189   0.000000
    8       11.352189   0.000000

  0.5000000E+00  0.2115385E+00  0.7115385E+00  0.4166667E-02
    1       -1.987525   1.000000
    2       -1.987525   1.000000
    3        1.897897   1.000000
    4        1.897897   1.000000
    5        9.278144   0.000000
    6        9.278144   0.000000
    7       11.201312   0.000000
    8       11.201312   0.000000

  0.5000000E+00  0.2179487E+00  0.7179487E+00  0.4166667E-02
    1       -1.984625   1.000000
    2       -1.984625   1.000000
    3        1.884356   1.000000
    4        1.884356   1.000000
    5        9.409709   0.000000
    6        9.409709   0.000000
    7       11.054336   0.000000
    8       11.054336   0.000000

  0.5000000E+00  0.2243590E+00  0.7243590E+00  0.4166667E-02
    1       -1.982220   1.000000
    2       -1.982220   1.000000
    3        1.873206   1.000000
    4        1.873206   1.000000
    5        9.538385   0.000000
    6        9.538385   0.000000
    7       10.913044   0.000000
    8       10.913044   0.000000

  0.5000000E+00  0.2307692E+00  0.7307692E+00  0.4166667E-02
    1       -1.980327   1.000000
    2       -1.980327   1.000000
    3        1.864492   1.000000
    4        1.864492   1.000000
    5        9.660804   0.000000
    6        9.660804   0.000000
    7       10.780829   0.000000
    8       10.780829   0.000000

  0.5000000E+00  0.2371795E+00  0.7371795E+00  0.4166667E-02
    1       -1.978967   1.000000
    2       -1.978967   1.000000
    3        1.858243   1.000000
    4        1.858243   1.000000
    5        9.770093   0.000000
    6        9.770093   0.000000
    7       10.664533   0.000000
    8       10.664533   0.000000

  0.5000000E+00  0.2435897E+00  0.7435897E+00  0.4166667E-02
    1       -1.978148   1.000000
    2       -1.978148   1.000000
    3        1.854485   1.000000
    4        1.854485   1.000000
    5        9.852177   0.000000
    6        9.852177   0.000000
    7       10.578146   0.000000
    8       10.578146   0.000000

  0.5000000E+00  0.2500000E+00  0.7500000E+00  0.4166667E-02
    1       -1.977873   1.000000
    2       -1.977873   1.000000
    3        1.853231   1.000000
    4        1.853231   1.000000
    5        9.884299   0.000000
    6        9.884299   0.000000
    7       10.544625   0.000000
    8       10.544625   0.000000

  0.5000000E+00  0.2500000E+00  0.7500000E+00  0.4166667E-02
    1       -1.977873   1.000000
    2       -1.977873   1.000000
    3        1.853231   1.000000
    4        1.853231   1.000000
    5        9.884299   0.000000
    6        9.884299   0.000000
    7       10.544625   0.000000
    8       10.544625   0.000000

  0.5000000E+00  0.2564103E+00  0.7435897E+00  0.4166667E-02
    1       -2.060299   1.000000
    2       -1.896170   1.000000
    3        1.794522   1.000000
    4        1.916918   1.000000
    5        9.815799   0.000000
    6        9.933672   0.000000
    7       10.490132   0.000000
    8       10.624085   0.000000

  0.5000000E+00  0.2628205E+00  0.7371795E+00  0.4166667E-02
    1       -2.143038   1.000000
    2       -1.815634   1.000000
    3        1.741320   1.000000
    4        1.985096   1.000000
    5        9.738567   0.000000
    6        9.949645   0.000000
    7       10.474930   0.000000
    8       10.718206   0.000000

  0.5000000E+00  0.2692308E+00  0.7307692E+00  0.4166667E-02
    1       -2.225729   1.000000
    2       -1.736784   1.000000
    3        1.694191   1.000000
    4        2.057301   1.000000
    5        9.658190   0.000000
    6        9.925446   0.000000
    7       10.505657   0.000000
    8       10.821369   0.000000

  0.5000000E+00  0.2756410E+00  0.7243590E+00  0.4166667E-02
    1       -2.308051   1.000000
    2       -1.660168   1.000000
    3        1.653735   1.000000
    4        2.133110   1.000000
    5        9.577540   0.000000
    6        9.870494   0.000000
    7       10.572804   0.000000
    8       10.930638   0.000000

  0.5000000E+00  0.2820513E+00  0.7179487E+00  0.4166667E-02
    1       -2.389718   1.000000
    2       -1.586366   1.000000
    3        1.620587   1.000000
    4        2.212124   1.000000
    5        9.498226   0.000000
    6        9.798392   0.000000
    7       10.662808   0.000000
    8       11.044498   0.000000

  0.5000000E+00  0.2884615E+00  0.7115385E+00  0.4166667E-02
    1       -2.470480   1.000000
    2       -1.515993   1.000000
    3        1.595398   1.000000
    4        2.293966   1.000000
    5        9.421180   0.000000
    6        9.717978   0.000000
    7       10.766775   0.000000
    8       11.162025   0.000000

  0.5000000E+00  0.2948718E+00  0.7051282E+00  0.4166667E-02
    1       -2.550115   1.000000
    2       -1.449673   1.000000
    3        1.578822   1.000000
    4        2.378275   1.000000
    5        9.346944   0.000000
    6        9.633876   0.000000
    7       10.880012   0.000000
    8       11.282616   0.000000

  0.5000000E+00  0.3012821E+00  0.6987179E+00  0.4166667E-02
    1       -2.628431   1.000000
    2       -1.388017   1.000000
    3        1.571481   1.000000
    4        2.464702   1.000000
    5        9.276017   0.000000
    6        9.548459   0.000000
    7       11.000081   0.000000
    8       11.405879   0.000000

  0.5000000E+00  0.3076923E+00  0.6923077E+00  0.4166667E-02
    1       -2.705257   1.000000
    2       -1.331589   1.000000
    3        1.573960   1.000000
    4        2.552910   1.000000
    5        9.208669   0.000000
    6        9.463032   0.000000
    7       11.125737   0.000000
    8       11.531498   0.000000

  0.5000000E+00  0.3141026E+00  0.6858974E+00  0.4166667E-02
    1       -2.780434   1.000000
    2       -1.280865   1.000000
    3        1.586741   1.000000
    4        2.642576   1.000000
    5        9.145161   0.000000
    6        9.378277   0.000000
    7       11.256014   0.000000
    8       11.659183   0.000000

  0.5000000E+00  0.3205128E+00  0.6794872E+00  0.4166667E-02
    1       -2.853834   1.000000
    2       -1.236212   1.000000
    3        1.610188   1.000000
    4        2.733358   1.000000
    5        9.085616   0.000000
    6        9.294620   0.000000
    7       11.390499   0.000000
    8       11.788718   0.000000

  0.5000000E+00  0.3269231E+00  0.6730769E+00  0.4166667E-02
    1       -2.925335   1.000000
    2       -1.197854   1.000000
    3        1.644511   1.000000
    4        2.824934   1.000000
    5        9.030239   0.000000
    6        9.212283   0.000000
    7       11.528827   0.000000
    8       11.919851   0.000000

  0.5000000E+00  0.3333333E+00  0.6666667E+00  0.4166667E-02
    1       -2.994827   1.000000
    2       -1.165854   1.000000
    3        1.689755   1.000000
    4        2.916975   1.000000
    5        8.979200   0.000000
    6        9.131381   0.000000
    7       11.670710   0.000000
    8       12.052466   0.000000

  0.5000000E+00  0.3397436E+00  0.6602564E+00  0.4166667E-02
    1       -3.062230   1.000000
    2       -1.140111   1.000000
    3        1.745766   1.000000
    4        3.009144   1.000000
    5        8.932592   0.000000
    6        9.051932   0.000000
    7       11.815797   0.000000
    8       12.185942   0.000000

  0.5000000E+00  0.3461538E+00  0.6538462E+00  0.4166667E-02
    1       -3.127443   1.000000
    2       -1.120363   1.000000
    3        1.812249   1.000000
    4        3.101114   1.000000
    5        8.890611   0.000000
    6        8.973928   0.000000
    7       11.963476   0.000000
    8       12.320355   0.000000

  0.5000000E+00  0.3525641E+00  0.6474359E+00  0.4166667E-02
    1       -3.190400   1.000000
    2       -1.106218   1.000000
    3        1.888751   1.000000
    4        3.192531   1.000000
    5        8.853270   0.000000
    6        8.897271   0.000000
    7       12.108539   0.000000
    8       12.329409   0.000000

  0.5000000E+00  0.3589744E+00  0.6410256E+00  0.4166667E-02
    1       -3.251035   1.000000
    2       -1.097188   1.000000
    3        1.974702   1.000000
    4        3.283049   1.000000
    5        8.820546   0.000000
    6        8.821802   0.000000
    7       12.057352   0.000000
    8       12.287395   0.000000

  0.5000000E+00  0.3653846E+00  0.6346154E+00  0.4166667E-02
    1       -3.309288   1.000000
    2       -1.092707   1.000000
    3        2.069450   1.000000
    4        3.372317   1.000000
    5        8.747378   0.000000
    6        8.792834   0.000000
    7       11.818730   0.000000
    8       12.438190   0.000000

  0.5000000E+00  0.3717949E+00  0.6282051E+00  0.4166667E-02
    1       -3.365100   1.000000
    2       -1.092185   1.000000
    3        2.172297   1.000000
    4        3.459993   1.000000
    5        8.673725   0.000000
    6        8.770071   0.000000
    7       11.578906   0.000000
    8       12.598770   0.000000

  0.5000000E+00  0.3782051E+00  0.6217949E+00  0.4166667E-02
    1       -3.418430   1.000000
    2       -1.095026   1.000000
    3        2.282493   1.000000
    4        3.545709   1.000000
    5        8.600517   0.000000
    6        8.752241   0.000000
    7       11.343143   0.000000
    8       12.763696   0.000000

  0.5000000E+00  0.3846154E+00  0.6153846E+00  0.4166667E-02
    1       -3.469234   1.000000
    2       -1.100653   1.000000
    3        2.399291   1.000000
    4        3.629111   1.000000
    5        8.527336   0.000000
    6        8.739319   0.000000
    7       11.112626   0.000000
    8       12.932827   0.000000

  0.5000000E+00  0.3910256E+00  0.6089744E+00  0.4166667E-02
    1       -3.517466   1.000000
    2       -1.108511   1.000000
    3        2.521952   1.000000
    4        3.709877   1.000000
    5        8.453739   0.000000
    6        8.731330   0.000000
    7       10.888654   0.000000
    8       13.101014   0.000000

  0.5000000E+00  0.3974359E+00  0.6025641E+00  0.4166667E-02
    1       -3.563101   1.000000
    2       -1.118094   1.000000
    3        2.649713   1.000000
    4        3.787630   1.000000
    5        8.379124   0.000000
    6        8.728137   0.000000
    7       10.672105   0.000000
    8       13.280885   0.000000

  0.5000000E+00  0.4038462E+00  0.5961538E+00  0.4166667E-02
    1       -3.606105   1.000000
    2       -1.128943   1.000000
    3        2.781826   1.000000
    4        3.862062   1.000000
    5        8.302819   0.000000
    6        8.729582   0.000000
    7       10.463984   0.000000
    8       13.448609   0.000000

  0.5000000E+00  0.4102564E+00  0.5897436E+00  0.4166667E-02
    1       -3.646449   1.000000
    2       -1.140645   1.000000
    3        2.917512   1.000000
    4        3.932871   1.000000
    5        8.224074   0.000000
    6        8.735442   0.000000
    7       10.265735   0.000000
    8       13.539700   0.000000

  0.5000000E+00  0.4166667E+00  0.5833333E+00  0.4166667E-02
    1       -3.684111   1.000000
    2       -1.152831   1.000000
    3        3.055965   1.000000
    4        3.999770   1.000000
    5        8.142103   0.000000
    6        8.745399   0.000000
    7       10.078656   0.000000
    8       13.607597   0.000000

  0.5000000E+00  0.4230769E+00  0.5769231E+00  0.4166667E-02
    1       -3.719060   1.000000
    2       -1.165179   1.000000
    3        3.196341   1.000000
    4        4.062507   1.000000
    5        8.056184   0.000000
    6        8.759197   0.000000
    7        9.904106   0.000000
    8       13.659075   0.000000

  0.5000000E+00  0.4294872E+00  0.5705128E+00  0.4166667E-02
    1       -3.751281   1.000000
    2       -1.177408   1.000000
    3        3.337647   1.000000
    4        4.120835   1.000000
    5        7.965703   0.000000
    6        8.776138   0.000000
    7        9.743385   0.000000
    8       13.675299   0.000000

  0.5000000E+00  0.4358974E+00  0.5641026E+00  0.4166667E-02
    1       -3.780759   1.000000
    2       -1.189274   1.000000
    3        3.478812   1.000000
    4        4.174567   1.000000
    5        7.870438   0.000000
    6        8.795773   0.000000
    7        9.597676   0.000000
    8       13.673690   0.000000

  0.5000000E+00  0.4423077E+00  0.5576923E+00  0.4166667E-02
    1       -3.807477   1.000000
    2       -1.200565   1.000000
    3        3.618554   1.000000
    4        4.223512   1.000000
    5        7.770685   0.000000
    6        8.817359   0.000000
    7        9.467750   0.000000
    8       13.650813   0.000000

  0.5000000E+00  0.4487179E+00  0.5512821E+00  0.4166667E-02
    1       -3.831413   1.000000
    2       -1.211100   1.000000
    3        3.755359   1.000000
    4        4.267559   1.000000
    5        7.667438   0.000000
    6        8.840168   0.000000
    7        9.354046   0.000000
    8       13.611983   0.000000

  0.5000000E+00  0.4551282E+00  0.5448718E+00  0.4166667E-02
    1       -3.852561   1.000000
    2       -1.220724   1.000000
    3        3.887391   1.000000
    4        4.306589   1.000000
    5        7.562491   0.000000
    6        8.863325   0.000000
    7        9.256429   0.000000
    8       13.563239   0.000000

  0.5000000E+00  0.4615385E+00  0.5384615E+00  0.4166667E-02
    1       -3.870910   1.000000
    2       -1.229309   1.000000
    3        4.012385   1.000000
    4        4.340519   1.000000
    5        7.458544   0.000000
    6        8.886001   0.000000
    7        9.174471   0.000000
    8       13.510373   0.000000

  0.5000000E+00  0.4679487E+00  0.5320513E+00  0.4166667E-02
    1       -3.886453   1.000000
    2       -1.236747   1.000000
    3        4.127613   1.000000
    4        4.369289   1.000000
    5        7.359001   0.000000
    6        8.907100   0.000000
    7        9.107288   0.000000
    8       13.458230   0.000000

  0.5000000E+00  0.4743590E+00  0.5256410E+00  0.4166667E-02
    1       -3.899176   1.000000
    2       -1.242947   1.000000
    3        4.229847   1.000000
    4        4.392875   1.000000
    5        7.268051   0.000000
    6        8.926006   0.000000
    7        9.054028   0.000000
    8       13.410736   0.000000

  0.5000000E+00  0.4807692E+00  0.5192308E+00  0.4166667E-02
    1       -3.909081   1.000000
    2       -1.247842   1.000000
    3        4.315356   1.000000
    4        4.411227   1.000000
    5        7.190217   0.000000
    6        8.941625   0.000000
    7        9.013690   0.000000
    8       13.370861   0.000000

  0.5000000E+00  0.4871795E+00  0.5128205E+00  0.4166667E-02
    1       -3.916160   1.000000
    2       -1.251374   1.000000
    3        4.380256   1.000000
    4        4.424337   1.000000
    5        7.130203   0.000000
    6        8.953407   0.000000
    7        8.985364   0.000000
    8       13.340859   0.000000

  0.5000000E+00  0.4935897E+00  0.5064103E+00  0.4166667E-02
    1       -3.920408   1.000000
    2       -1.253508   1.000000
    3        4.420949   1.000000
    4        4.432208   1.000000
    5        7.092210   0.000000
    6        8.960723   0.000000
    7        8.968711   0.000000
    8       13.322264   0.000000

  0.5000000E+00  0.5000000E+00  0.5000000E+00  0.4166667E-02
    1       -3.921824   1.000000
    2       -1.254222   1.000000
    3        4.434832   1.000000
    4        4.434832   1.000000
    5        7.079185   0.000000
    6        8.963203   0.000000
    7        8.963203   0.000000
    8       13.315966   0.000000

  0.5000000E+00  0.5000000E+00  0.5000000E+00  0.4166667E-02
    1       -3.921824   1.000000
    2       -1.254222   1.000000
    3        4.434832   1.000000
    4        4.434832   1.000000
    5        7.079185   0.000000
    6        8.963203   0.000000
    7        8.963203   0.000000
    8       13.315967   0.000000

  0.4871795E+00  0.4871795E+00  0.4871795E+00  0.4166667E-02
    1       -3.930941   1.000000
    2       -1.241114   1.000000
    3        4.436000   1.000000
    4        4.436000   1.000000
    5        7.080546   0.000000
    6        8.964501   0.000000
    7        8.964501   0.000000
    8       13.317966   0.000000

  0.4743590E+00  0.4743590E+00  0.4743590E+00  0.4166667E-02
    1       -3.957729   1.000000
    2       -1.202330   1.000000
    3        4.439502   1.000000
    4        4.439502   1.000000
    5        7.084627   0.000000
    6        8.968372   0.000000
    7        8.968372   0.000000
    8       13.323917   0.000000

  0.4615385E+00  0.4615385E+00  0.4615385E+00  0.4166667E-02
    1       -4.000674   1.000000
    2       -1.139383   1.000000
    3        4.445338   1.000000
    4        4.445338   1.000000
    5        7.091454   0.000000
    6        8.974801   0.000000
    7        8.974801   0.000000
    8       13.333679   0.000000

  0.4487179E+00  0.4487179E+00  0.4487179E+00  0.4166667E-02
    1       -4.057610   1.000000
    2       -1.054462   1.000000
    3        4.453506   1.000000
    4        4.453506   1.000000
    5        7.100950   0.000000
    6        8.983529   0.000000
    7        8.983529   0.000000
    8       13.346903   0.000000

  0.4358974E+00  0.4358974E+00  0.4358974E+00  0.4166667E-02
    1       -4.126083   1.000000
    2       -0.950037   1.000000
    3        4.463991   1.000000
    4        4.463991   1.000000
    5        7.113152   0.000000
    6        8.994432   0.000000
    7        8.994432   0.000000
    8       13.363259   0.000000

  0.4230769E+00  0.4230769E+00  0.4230769E+00  0.4166667E-02
    1       -4.203645   1.000000
    2       -0.828571   1.000000
    3        4.476811   1.000000
    4        4.476811   1.000000
    5        7.128038   0.000000
    6        9.007285   0.000000
    7        9.007285   0.000000
    8       13.382054   0.000000

  0.4102564E+00  0.4102564E+00  0.4102564E+00  0.4166667E-02
    1       -4.288063   1.000000
    2       -0.692328   1.000000
    3        4.491954   1.000000
    4        4.491954   1.000000
    5        7.145611   0.000000
    6        9.021896   0.000000
    7        9.021896   0.000000
    8       13.402351   0.000000

  0.3974359E+00  0.3974359E+00  0.3974359E+00  0.4166667E-02
    1       -4.377403   1.000000
    2       -0.543290   1.000000
    3        4.509395   1.000000
    4        4.509395   1.000000
    5        7.165799   0.000000
    6        9.037630   0.000000
    7        9.037630   0.000000
    8       13.422650   0.000000

  0.3846154E+00  0.3846154E+00  0.3846154E+00  0.4166667E-02
    1       -4.470041   1.000000
    2       -0.383128   1.000000
    3        4.529154   1.000000
    4        4.529154   1.000000
    5        7.188554   0.000000
    6        9.054297   0.000000
    7        9.054297   0.000000
    8       13.440958   0.000000

  0.3717949E+00  0.3717949E+00  0.3717949E+00  0.4166667E-02
    1       -4.564625   1.000000
    2       -0.213224   1.000000
    3        4.551184   1.000000
    4        4.551184   1.000000
    5        7.213938   0.000000
    6        9.071165   0.000000
    7        9.071165   0.000000
    8       13.453672   0.000000

  0.3589744E+00  0.3589744E+00  0.3589744E+00  0.4166667E-02
    1       -4.660058   1.000000
    2       -0.034725   1.000000
    3        4.575479   1.000000
    4        4.575479   1.000000
    5        7.241862   0.000000
    6        9.087729   0.000000
    7        9.087729   0.000000
    8       13.457093   0.000000

  0.3461538E+00  0.3461538E+00  0.3461538E+00  0.4166667E-02
    1       -4.755454   1.000000
    2        0.151419   1.000000
    3        4.602016   1.000000
    4        4.602016   1.000000
    5        7.272278   0.000000
    6        9.103303   0.000000
    7        9.103303   0.000000
    8       13.439827   0.000000

  0.3333333E+00  0.3333333E+00  0.3333333E+00  0.4166667E-02
    1       -4.850094   1.000000
    2        0.344419   1.000000
    3        4.630765   1.000000
    4        4.630765   1.000000
    5        7.305128   0.000000
    6        9.117117   0.000000
    7        9.117117   0.000000
    8       13.409656   0.000000

  0.3205128E+00  0.3205128E+00  0.3205128E+00  0.4166667E-02
    1       -4.943394   1.000000
    2        0.543607   1.000000
    3        4.661691   1.000000
    4        4.661691   1.000000
    5        7.340343   0.000000
    6        9.128331   0.000000
    7        9.128331   0.000000
    8       13.317491   0.000000

  0.3076923E+00  0.3076923E+00  0.3076923E+00  0.4166667E-02
    1       -5.034877   1.000000
    2        0.748416   1.000000
    3        4.694750   1.000000
    4        4.694750   1.000000
    5        7.377844   0.000000
    6        9.136048   0.000000
    7        9.136048   0.000000
    8       13.213205   0.000000

  0.2948718E+00  0.2948718E+00  0.2948718E+00  0.4166667E-02
    1       -5.124161   1.000000
    2        0.958335   1.000000
    3        4.729878   1.000000
    4        4.729878   1.000000
    5        7.417517   0.000000
    6        9.139332   0.000000
    7        9.139332   0.000000
    8       13.059906   0.000000

  0.2820513E+00  0.2820513E+00  0.2820513E+00  0.4166667E-02
    1       -5.210924   1.000000
    2        1.172932   1.000000
    3        4.767029   1.000000
    4        4.767029   1.000000
    5        7.459288   0.000000
    6        9.137282   0.000000
    7        9.137282   0.000000
    8       12.877104   0.000000

  0.2692308E+00  0.2692308E+00  0.2692308E+00  0.4166667E-02
    1       -5.294889   1.000000
    2        1.391829   1.000000
    3        4.806117   1.000000
    4        4.806117   1.000000
    5        7.503021   0.000000
    6        9.129045   0.000000
    7        9.129045   0.000000
    8       12.676259   0.000000

  0.2564103E+00  0.2564103E+00  0.2564103E+00  0.4166667E-02
    1       -5.375830   1.000000
    2        1.614593   1.000000
    3        4.847053   1.000000
    4        4.847053   1.000000
    5        7.548550   0.000000
    6        9.113913   0.000000
    7        9.113913   0.000000
    8       12.469196   0.000000

  0.2435897E+00  0.2435897E+00  0.2435897E+00  0.4166667E-02
    1       -5.453565   1.000000
    2        1.840878   1.000000
    3        4.889709   1.000000
    4        4.889709   1.000000
    5        7.595695   0.000000
    6        9.091337   0.000000
    7        9.091337   0.000000
    8       12.253932   0.000000

  0.2307692E+00  0.2307692E+00  0.2307692E+00  0.4166667E-02
    1       -5.527931   1.000000
    2        2.070313   1.000000
    3        4.933959   1.000000
    4        4.933959   1.000000
    5        7.644256   0.000000
    6        9.061062   0.000000
    7        9.061062   0.000000
    8       12.033197   0.000000

  0.2179487E+00  0.2179487E+00  0.2179487E+00  0.4166667E-02
    1       -5.598796   1.000000
    2        2.302516   1.000000
    3        4.979648   1.000000
    4        4.979648   1.000000
    5        7.693993   0.000000
    6        9.023165   0.000000
    7        9.023165   0.000000
    8       11.808504   0.000000

  0.2051282E+00  0.2051282E+00  0.2051282E+00  0.4166667E-02
    1       -5.666044   1.000000
    2        2.537077   1.000000
    3        5.026579   1.000000
    4        5.026579   1.000000
    5        7.744626   0.000000
    6        8.977877   0.000000
    7        8.977877   0.000000
    8       11.580984   0.000000

  0.1923077E+00  0.1923077E+00  0.1923077E+00  0.4166667E-02
    1       -5.729584   1.000000
    2        2.773537   1.000000
    3        5.074546   1.000000
    4        5.074546   1.000000
    5        7.795797   0.000000
    6        8.925963   0.000000
    7        8.925963   0.000000
    8       11.351459   0.000000

  0.1794872E+00  0.1794872E+00  0.1794872E+00  0.4166667E-02
    1       -5.789334   1.000000
    2        3.011412   1.000000
    3        5.123266   1.000000
    4        5.123266   1.000000
    5        7.847184   0.000000
    6        8.868165   0.000000
    7        8.868165   0.000000
    8       11.120671   0.000000

  0.1666667E+00  0.1666667E+00  0.1666667E+00  0.4166667E-02
    1       -5.845213   1.000000
    2        3.250112   1.000000
    3        5.172436   1.000000
    4        5.172436   1.000000
    5        7.898298   0.000000
    6        8.805582   0.000000
    7        8.805582   0.000000
    8       10.889296   0.000000

  0.1538462E+00  0.1538462E+00  0.1538462E+00  0.4166667E-02
    1       -5.897153   1.000000
    2        3.488978   1.000000
    3        5.221722   1.000000
    4        5.221722   1.000000
    5        7.948746   0.000000
    6        8.739630   0.000000
    7        8.739630   0.000000
    8       10.658114   0.000000

  0.1410256E+00  0.1410256E+00  0.1410256E+00  0.4166667E-02
    1       -5.945104   1.000000
    2        3.727162   1.000000
    3        5.270692   1.000000
    4        5.270692   1.000000
    5        7.997674   0.000000
    6        8.671571   0.000000
    7        8.671571   0.000000
    8       10.427927   0.000000

  0.1282051E+00  0.1282051E+00  0.1282051E+00  0.4166667E-02
    1       -5.989019   1.000000
    2        3.963648   1.000000
    3        5.318874   1.000000
    4        5.318874   1.000000
    5        8.044511   0.000000
    6        8.602803   0.000000
    7        8.602803   0.000000
    8       10.199988   0.000000

  0.1153846E+00  0.1153846E+00  0.1153846E+00  0.4166667E-02
    1       -6.028855   1.000000
    2        4.197214   1.000000
    3        5.365728   1.000000
    4        5.365728   1.000000
    5        8.088346   0.000000
    6        8.534733   0.000000
    7        8.534733   0.000000
    8        9.975773   0.000000

  0.1025641E+00  0.1025641E+00  0.1025641E+00  0.4166667E-02
    1       -6.064581   1.000000
    2        4.426024   1.000000
    3        5.410636   1.000000
    4        5.410636   1.000000
    5        8.128125   0.000000
    6        8.468785   0.000000
    7        8.468785   0.000000
    8        9.757354   0.000000

  0.8974359E-01  0.8974359E-01  0.8974359E-01  0.4166667E-02
    1       -6.096178   1.000000
    2        4.647940   1.000000
    3        5.452918   1.000000
    4        5.452918   1.000000
    5        8.162507   0.000000
    6        8.406342   0.000000
    7        8.406342   0.000000
    8        9.547557   0.000000

  0.7692308E-01  0.7692308E-01  0.7692308E-01  0.4166667E-02
    1       -6.123612   1.000000
    2        4.860034   1.000000
    3        5.491838   1.000000
    4        5.491838   1.000000
    5        8.189806   0.000000
    6        8.348761   0.000000
    7        8.348761   0.000000
    8        9.350306   0.000000

  0.6410256E-01  0.6410256E-01  0.6410256E-01  0.4166667E-02
    1       -6.146858   1.000000
    2        5.058360   1.000000
    3        5.526617   1.000000
    4        5.526617   1.000000
    5        8.207943   0.000000
    6        8.297344   0.000000
    7        8.297344   0.000000
    8        9.170940   0.000000

  0.5128205E-01  0.5128205E-01  0.5128205E-01  0.4166667E-02
    1       -6.165892   1.000000
    2        5.237673   1.000000
    3        5.556498   1.000000
    4        5.556498   1.000000
    5        8.214718   0.000000
    6        8.253311   0.000000
    7        8.253311   0.000000
    8        9.016278   0.000000

  0.3846154E-01  0.3846154E-01  0.3846154E-01  0.4166667E-02
    1       -6.180713   1.000000
    2        5.391083   1.000000
    3        5.580665   1.000000
    4        5.580665   1.000000
    5        8.209069   0.000000
    6        8.217765   0.000000
    7        8.217765   0.000000
    8        8.893629   0.000000

  0.2564103E-01  0.2564103E-01  0.2564103E-01  0.4166667E-02
    1       -6.191304   1.000000
    2        5.510340   1.000000
    3        5.598475   1.000000
    4        5.598475   1.000000
    5        8.191643   0.000000
    6        8.191643   0.000000
    7        8.193785   0.000000
    8        8.807983   0.000000

  0.1282051E-01  0.1282051E-01  0.1282051E-01  0.4166667E-02
    1       -6.197652   1.000000
    2        5.586725   1.000000
    3        5.609424   1.000000
    4        5.609424   1.000000
    5        8.175669   0.000000
    6        8.175669   0.000000
    7        8.177360   0.000000
    8        8.759216   0.000000

  0.0000000E+00  0.0000000E+00  0.0000000E+00  0.4166667E-02
    1       -6.199765   1.000000
    2        5.613103   1.000000
    3        5.613103   1.000000
    4        5.613103   1.000000
    5        8.170291   0.000000
    6        8.170291   0.000000
    7        8.170291   0.000000
    8        8.743661   0.000000

  0.0000000E+00  0.0000000E+00  0.0000000E+00  0.4166667E-02
    1       -6.199765   1.000000
    2        5.613103   1.000000
    3        5.613103   1.000000
    4        5.613103   1.000000
    5        8.170291   0.000000
    6        8.170291   0.000000
    7        8.170291   0.000000
    8        8.743661   0.000000

  0.9615385E-02  0.9615385E-02  0.1923077E-01  0.4166667E-02
    1       -6.196595   1.000000
    2        5.577787   1.000000
    3        5.599335   1.000000
    4        5.611694   1.000000
    5        8.173565   0.000000
    6        8.176730   0.000000
    7        8.187187   0.000000
    8        8.766982   0.000000

  0.1923077E-01  0.1923077E-01  0.3846154E-01  0.4166667E-02
    1       -6.187067   1.000000
    2        5.477202   1.000000
    3        5.558709   1.000000
    4        5.607409   1.000000
    5        8.183391   0.000000
    6        8.195723   0.000000
    7        8.229413   0.000000
    8        8.839823   0.000000

  0.2884615E-01  0.2884615E-01  0.5769231E-01  0.4166667E-02
    1       -6.171187   1.000000
    2        5.324318   1.000000
    3        5.492808   1.000000
    4        5.600199   1.000000
    5        8.199763   0.000000
    6        8.226364   0.000000
    7        8.279512   0.000000
    8        8.966081   0.000000

  0.3846154E-01  0.3846154E-01  0.7692308E-01  0.4166667E-02
    1       -6.148961   1.000000
    2        5.133614   1.000000
    3        5.404109   1.000000
    4        5.589961   1.000000
    5        8.222684   0.000000
    6        8.267404   0.000000
    7        8.325349   0.000000
    8        9.142302   0.000000

  0.4807692E-01  0.4807692E-01  0.9615385E-01  0.4166667E-02
    1       -6.120416   1.000000
    2        4.917255   1.000000
    3        5.295429   1.000000
    4        5.576489   1.000000
    5        8.252148   0.000000
    6        8.317494   0.000000
    7        8.364300   0.000000
    8        9.357147   0.000000

  0.5769231E-01  0.5769231E-01  0.1153846E+00  0.4166667E-02
    1       -6.085578   1.000000
    2        4.684270   1.000000
    3        5.169737   1.000000
    4        5.559567   1.000000
    5        8.288150   0.000000
    6        8.375399   0.000000
    7        8.398171   0.000000
    8        9.597179   0.000000

  0.6730769E-01  0.6730769E-01  0.1346154E+00  0.4166667E-02
    1       -6.044493   1.000000
    2        4.440999   1.000000
    3        5.029914   1.000000
    4        5.538952   1.000000
    5        8.330685   0.000000
    6        8.429087   0.000000
    7        8.440112   0.000000
    8        9.850204   0.000000

  0.7692308E-01  0.7692308E-01  0.1538462E+00  0.4166667E-02
    1       -5.997195   1.000000
    2        4.191811   1.000000
    3        4.878584   1.000000
    4        5.514380   1.000000
    5        8.379744   0.000000
    6        8.458385   0.000000
    7        8.510884   0.000000
    8       10.105272   0.000000

  0.8653846E-01  0.8653846E-01  0.1730769E+00  0.4166667E-02
    1       -5.943725   1.000000
    2        3.939796   1.000000
    3        4.718214   1.000000
    4        5.485582   1.000000
    5        8.435323   0.000000
    6        8.486538   0.000000
    7        8.587216   0.000000
    8       10.351663   0.000000

  0.9615385E-01  0.9615385E-01  0.1923077E+00  0.4166667E-02
    1       -5.884138   1.000000
    2        3.687078   1.000000
    3        4.550879   1.000000
    4        5.452285   1.000000
    5        8.497386   0.000000
    6        8.513522   0.000000
    7        8.668763   0.000000
    8       10.578222   0.000000

  0.1057692E+00  0.1057692E+00  0.2115385E+00  0.4166667E-02
    1       -5.818494   1.000000
    2        3.435284   1.000000
    3        4.378449   1.000000
    4        5.414269   1.000000
    5        8.538886   0.000000
    6        8.565971   0.000000
    7        8.755464   0.000000
    8       10.773866   0.000000

  0.1153846E+00  0.1153846E+00  0.2307692E+00  0.4166667E-02
    1       -5.746874   1.000000
    2        3.185516   1.000000
    3        4.202508   1.000000
    4        5.371303   1.000000
    5        8.561823   0.000000
    6        8.641053   0.000000
    7        8.847264   0.000000
    8       10.929718   0.000000

  0.1250000E+00  0.1250000E+00  0.2500000E+00  0.4166667E-02
    1       -5.669361   1.000000
    2        2.938680   1.000000
    3        4.024530   1.000000
    4        5.323288   1.000000
    5        8.581256   0.000000
    6        8.722597   0.000000
    7        8.944104   0.000000
    8       11.042363   0.000000

  0.1346154E+00  0.1346154E+00  0.2692308E+00  0.4166667E-02
    1       -5.586064   1.000000
    2        2.695422   1.000000
    3        3.845723   1.000000
    4        5.270128   1.000000
    5        8.595898   0.000000
    6        8.810600   0.000000
    7        9.046094   0.000000
    8       11.115354   0.000000

  0.1442308E+00  0.1442308E+00  0.2884615E+00  0.4166667E-02
    1       -5.497078   1.000000
    2        2.456264   1.000000
    3        3.667176   1.000000
    4        5.211839   1.000000
    5        8.604306   0.000000
    6        8.905094   0.000000
    7        9.153334   0.000000
    8       11.157541   0.000000

  0.1538462E+00  0.1538462E+00  0.3076923E+00  0.4166667E-02
    1       -5.402532   1.000000
    2        2.221606   1.000000
    3        3.489850   1.000000
    4        5.148487   1.000000
    5        8.604971   0.000000
    6        9.005963   0.000000
    7        9.265907   0.000000
    8       11.179773   0.000000

  0.1634615E+00  0.1634615E+00  0.3269231E+00  0.4166667E-02
    1       -5.302569   1.000000
    2        1.991785   1.000000
    3        3.314603   1.000000
    4        5.080261   1.000000
    5        8.596453   0.000000
    6        9.113235   0.000000
    7        9.383861   0.000000
    8       11.192077   0.000000

  0.1730769E+00  0.1730769E+00  0.3461538E+00  0.4166667E-02
    1       -5.197355   1.000000
    2        1.767063   1.000000
    3        3.142211   1.000000
    4        5.007429   1.000000
    5        8.577530   0.000000
    6        9.226887   0.000000
    7        9.507308   0.000000
    8       11.202717   0.000000

  0.1826923E+00  0.1826923E+00  0.3653846E+00  0.4166667E-02
    1       -5.087072   1.000000
    2        1.547687   1.000000
    3        2.973397   1.000000
    4        4.930365   1.000000
    5        8.547362   0.000000
    6        9.346957   0.000000
    7        9.636394   0.000000
    8       11.217961   0.000000

  0.1923077E+00  0.1923077E+00  0.3846154E+00  0.4166667E-02
    1       -4.971963   1.000000
    2        1.333824   1.000000
    3        2.808831   1.000000
    4        4.849415   1.000000
    5        8.505586   0.000000
    6        9.473287   0.000000
    7        9.771020   0.000000
    8       11.242049   0.000000

  0.2019231E+00  0.2019231E+00  0.4038462E+00  0.4166667E-02
    1       -4.852254   1.000000
    2        1.125646   1.000000
    3        2.649132   1.000000
    4        4.765069   1.000000
    5        8.452284   0.000000
    6        9.605991   0.000000
    7        9.911249   0.000000
    8       11.277603   0.000000

  0.2115385E+00  0.2115385E+00  0.4230769E+00  0.4166667E-02
    1       -4.728225   1.000000
    2        0.923287   1.000000
    3        2.494928   1.000000
    4        4.677856   1.000000
    5        8.388393   0.000000
    6        9.744868   0.000000
    7       10.057185   0.000000
    8       11.326424   0.000000

  0.2211538E+00  0.2211538E+00  0.4423077E+00  0.4166667E-02
    1       -4.600205   1.000000
    2        0.726843   1.000000
    3        2.346802   1.000000
    4        4.588301   1.000000
    5        8.314923   0.000000
    6        9.889962   0.000000
    7       10.208761   0.000000
    8       11.388618   0.000000

  0.2307692E+00  0.2307692E+00  0.4615385E+00  0.4166667E-02
    1       -4.468564   1.000000
    2        0.536467   1.000000
    3        2.205374   1.000000
    4        4.496959   1.000000
    5        8.233261   0.000000
    6       10.041230   0.000000
    7       10.365942   0.000000
    8       11.464382   0.000000

  0.2403846E+00  0.2403846E+00  0.4807692E+00  0.4166667E-02
    1       -4.333735   1.000000
    2        0.352223   1.000000
    3        2.071254   1.000000
    4        4.404380   1.000000
    5        8.144915   0.000000
    6       10.198623   0.000000
    7       10.528617   0.000000
    8       11.554004   0.000000

  0.2500000E+00  0.2500000E+00  0.5000000E+00  0.4166667E-02
    1       -4.196233   1.000000
    2        0.174189   1.000000
    3        1.945087   1.000000
    4        4.311081   1.000000
    5        8.051372   0.000000
    6       10.362037   0.000000
    7       10.696560   0.000000
    8       11.654005   0.000000

  0.2596154E+00  0.2596154E+00  0.5192308E+00  0.4166667E-02
    1       -4.056610   1.000000
    2        0.002449   1.000000
    3        1.827562   1.000000
    4        4.217661   1.000000
    5        7.954146   0.000000
    6       10.531517   0.000000
    7       10.869553   0.000000
    8       11.765816   0.000000

  0.2692308E+00  0.2692308E+00  0.5384615E+00  0.4166667E-02
    1       -3.915532   1.000000
    2       -0.162956   1.000000
    3        1.719405   1.000000
    4        4.124564   1.000000
    5        7.854511   0.000000
    6       10.706919   0.000000
    7       11.046906   0.000000
    8       11.888314   0.000000

  0.2788462E+00  0.2788462E+00  0.5576923E+00  0.4166667E-02
    1       -3.773743   1.000000
    2       -0.321948   1.000000
    3        1.621420   1.000000
    4        4.032283   1.000000
    5        7.753678   0.000000
    6       10.888180   0.000000
    7       11.227658   0.000000
    8       12.019787   0.000000

  0.2884615E+00  0.2884615E+00  0.5769231E+00  0.4166667E-02
    1       -3.632092   1.000000
    2       -0.474484   1.000000
    3        1.534479   1.000000
    4        3.941281   1.000000
    5        7.652633   0.000000
    6       11.075299   0.000000
    7       11.409134   0.000000
    8       12.160189   0.000000

  0.2980769E+00  0.2980769E+00  0.5961538E+00  0.4166667E-02
    1       -3.491551   1.000000
    2       -0.620520   1.000000
    3        1.459513   1.000000
    4        3.851948   1.000000
    5        7.552305   0.000000
    6       11.268016   0.000000
    7       11.585351   0.000000
    8       12.308585   0.000000

  0.3076923E+00  0.3076923E+00  0.6153846E+00  0.4166667E-02
    1       -3.353197   1.000000
    2       -0.760008   1.000000
    3        1.397541   1.000000
    4        3.764673   1.000000
    5        7.453452   0.000000
    6       11.466263   0.000000
    7       11.736828   0.000000
    8       12.465995   0.000000

  0.3173077E+00  0.3173077E+00  0.6346154E+00  0.4166667E-02
    1       -3.218197   1.000000
    2       -0.892904   1.000000
    3        1.349634   1.000000
    4        3.679840   1.000000
    5        7.356757   0.000000
    6       11.669856   0.000000
    7       11.789152   0.000000
    8       12.518666   0.000000

  0.3269231E+00  0.3269231E+00  0.6538462E+00  0.4166667E-02
    1       -3.087789   1.000000
    2       -1.019173   1.000000
    3        1.316893   1.000000
    4        3.597758   1.000000
    5        7.262781   0.000000
    6       11.607996   0.000000
    7       11.878719   0.000000
    8       12.496459   0.000000

  0.3365385E+00  0.3365385E+00  0.6730769E+00  0.4166667E-02
    1       -2.963254   1.000000
    2       -1.138775   1.000000
    3        1.300405   1.000000
    4        3.518713   1.000000
    5        7.171873   0.000000
    6       11.270874   0.000000
    7       12.092684   0.000000
    8       12.641023   0.000000

  0.3461538E+00  0.3461538E+00  0.6923077E+00  0.4166667E-02
    1       -2.845856   1.000000
    2       -1.251696   1.000000
    3        1.301178   1.000000
    4        3.442993   1.000000
    5        7.084719   0.000000
    6       10.890698   0.000000
    7       12.311428   0.000000
    8       12.840716   0.000000

  0.3557692E+00  0.3557692E+00  0.7115385E+00  0.4166667E-02
    1       -2.736761   1.000000
    2       -1.357901   1.000000
    3        1.320052   1.000000
    4        3.370830   1.000000
    5        7.001544   0.000000
    6       10.500738   0.000000
    7       12.534754   0.000000
    8       13.058066   0.000000

  0.3653846E+00  0.3653846E+00  0.7307692E+00  0.4166667E-02
    1       -2.636958   1.000000
    2       -1.457366   1.000000
    3        1.357593   1.000000
    4        3.302442   1.000000
    5        6.922654   0.000000
    6       10.110978   0.000000
    7       12.762302   0.000000
    8       13.290689   0.000000

  0.3750000E+00  0.3750000E+00  0.7500000E+00  0.4166667E-02
    1       -2.547184   1.000000
    2       -1.550068   1.000000
    3        1.413987   1.000000
    4        3.238028   1.000000
    5        6.848307   0.000000
    6        9.725840   0.000000
    7       12.993924   0.000000
    8       13.529872   0.000000

  0.3750000E+00  0.3750000E+00  0.7500000E+00  0.4166667E-02
    1       -2.547184   1.000000
    2       -1.550068   1.000000
    3        1.413987   1.000000
    4        3.238028   1.000000
    5        6.848307   0.000000
    6        9.725840   0.000000
    7       12.993813   0.000000
    8       13.529918   0.000000

  0.3782051E+00  0.3653846E+00  0.7435897E+00  0.4166667E-02
    1       -2.574461   1.000000
    2       -1.520561   1.000000
    3        1.394297   1.000000
    4        3.249682   1.000000
    5        6.886581   0.000000
    6        9.854492   0.000000
    7       12.871977   0.000000
    8       13.505452   0.000000

  0.3814103E+00  0.3557692E+00  0.7371795E+00  0.4166667E-02
    1       -2.599886   1.000000
    2       -1.491600   1.000000
    3        1.379089   1.000000
    4        3.243607   1.000000
    5        6.952980   0.000000
    6        9.985694   0.000000
    7       12.689200   0.000000
    8       13.324573   0.000000

  0.3846154E+00  0.3461538E+00  0.7307692E+00  0.4166667E-02
    1       -2.623467   1.000000
    2       -1.463243   1.000000
    3        1.368373   1.000000
    4        3.221245   1.000000
    5        7.045825   0.000000
    6       10.118890   0.000000
    7       12.480205   0.000000
    8       13.064095   0.000000

  0.3878205E+00  0.3365385E+00  0.7243590E+00  0.4166667E-02
    1       -2.645199   1.000000
    2       -1.435598   1.000000
    3        1.362147   1.000000
    4        3.184715   1.000000
    5        7.163122   0.000000
    6       10.253083   0.000000
    7       12.262121   0.000000
    8       12.806424   0.000000

  0.3910256E+00  0.3269231E+00  0.7179487E+00  0.4166667E-02
    1       -2.665066   1.000000
    2       -1.408800   1.000000
    3        1.360407   1.000000
    4        3.136504   1.000000
    5        7.302476   0.000000
    6       10.386783   0.000000
    7       12.042757   0.000000
    8       12.547623   0.000000

  0.3942308E+00  0.3173077E+00  0.7115385E+00  0.4166667E-02
    1       -2.683066   1.000000
    2       -1.383017   1.000000
    3        1.363133   1.000000
    4        3.079184   1.000000
    5        7.461279   0.000000
    6       10.516691   0.000000
    7       11.828196   0.000000
    8       12.289400   0.000000

  0.3974359E+00  0.3076923E+00  0.7051282E+00  0.4166667E-02
    1       -2.699177   1.000000
    2       -1.358458   1.000000
    3        1.370296   1.000000
    4        3.015294   1.000000
    5        7.637165   0.000000
    6       10.635250   0.000000
    7       11.627506   0.000000
    8       12.032736   0.000000

  0.4006410E+00  0.2980769E+00  0.6987179E+00  0.4166667E-02
    1       -2.713387   1.000000
    2       -1.335364   1.000000
    3        1.381857   1.000000
    4        2.947151   1.000000
    5        7.827858   0.000000
    6       10.722656   0.000000
    7       11.461280   0.000000
    8       11.778242   0.000000

  0.4038462E+00  0.2884615E+00  0.6923077E+00  0.4166667E-02
    1       -2.725677   1.000000
    2       -1.314012   1.000000
    3        1.397767   1.000000
    4        2.876835   1.000000
    5        8.031394   0.000000
    6       10.734339   0.000000
    7       11.374685   0.000000
    8       11.526567   0.000000

  0.4070513E+00  0.2788462E+00  0.6858974E+00  0.4166667E-02
    1       -2.736026   1.000000
    2       -1.294707   1.000000
    3        1.417968   1.000000
    4        2.806184   1.000000
    5        8.245688   0.000000
    6       10.637642   0.000000
    7       11.278276   0.000000
    8       11.400813   0.000000

  0.4102564E+00  0.2692308E+00  0.6794872E+00  0.4166667E-02
    1       -2.744414   1.000000
    2       -1.277777   1.000000
    3        1.442388   1.000000
    4        2.736803   1.000000
    5        8.469053   0.000000
    6       10.470059   0.000000
    7       11.033997   0.000000
    8       11.502442   0.000000

  0.4134615E+00  0.2596154E+00  0.6730769E+00  0.4166667E-02
    1       -2.750820   1.000000
    2       -1.263563   1.000000
    3        1.470945   1.000000
    4        2.670087   1.000000
    5        8.699376   0.000000
    6       10.273431   0.000000
    7       10.794965   0.000000
    8       11.638004   0.000000

  0.4166667E+00  0.2500000E+00  0.6666667E+00  0.4166667E-02
    1       -2.755211   1.000000
    2       -1.252411   1.000000
    3        1.503547   1.000000
    4        2.607245   1.000000
    5        8.933849   0.000000
    6       10.065786   0.000000
    7       10.563181   0.000000
    8       11.789576   0.000000

  0.4198718E+00  0.2403846E+00  0.6602564E+00  0.4166667E-02
    1       -2.757578   1.000000
    2       -1.244671   1.000000
    3        1.540081   1.000000
    4        2.549312   1.000000
    5        9.166800   0.000000
    6        9.854106   0.000000
    7       10.343618   0.000000
    8       11.950237   0.000000

  0.4230769E+00  0.2307692E+00  0.6538462E+00  0.4166667E-02
    1       -2.757889   1.000000
    2       -1.240662   1.000000
    3        1.580427   1.000000
    4        2.497161   1.000000
    5        9.381607   0.000000
    6        9.641864   0.000000
    7       10.152414   0.000000
    8       12.116913   0.000000

  0.4262821E+00  0.2211538E+00  0.6474359E+00  0.4166667E-02
    1       -2.756122   1.000000
    2       -1.240682   1.000000
    3        1.624450   1.000000
    4        2.451533   1.000000
    5        9.430649   0.000000
    6        9.513946   0.000000
    7       10.053504   0.000000
    8       12.288064   0.000000

  0.4294872E+00  0.2115385E+00  0.6410256E+00  0.4166667E-02
    1       -2.752255   1.000000
    2       -1.244969   1.000000
    3        1.671993   1.000000
    4        2.413001   1.000000
    5        9.221486   0.000000
    6        9.458321   0.000000
    7       10.152007   0.000000
    8       12.462740   0.000000

  0.4326923E+00  0.2019231E+00  0.6346154E+00  0.4166667E-02
    1       -2.746269   1.000000
    2       -1.253709   1.000000
    3        1.722881   1.000000
    4        2.381996   1.000000
    5        9.015098   0.000000
    6        9.291053   0.000000
    7       10.371301   0.000000
    8       12.640307   0.000000

  0.4358974E+00  0.1923077E+00  0.6282051E+00  0.4166667E-02
    1       -2.738144   1.000000
    2       -1.267009   1.000000
    3        1.776915   1.000000
    4        2.358791   1.000000
    5        8.812039   0.000000
    6        9.095442   0.000000
    7       10.627844   0.000000
    8       12.820355   0.000000

  0.4391026E+00  0.1826923E+00  0.6217949E+00  0.4166667E-02
    1       -2.727867   1.000000
    2       -1.284902   1.000000
    3        1.833876   1.000000
    4        2.343521   1.000000
    5        8.612815   0.000000
    6        8.893663   0.000000
    7       10.899369   0.000000
    8       13.002265   0.000000

  0.4423077E+00  0.1730769E+00  0.6153846E+00  0.4166667E-02
    1       -2.715422   1.000000
    2       -1.307313   1.000000
    3        1.893504   1.000000
    4        2.336161   1.000000
    5        8.417869   0.000000
    6        8.692169   0.000000
    7       11.179099   0.000000
    8       13.185660   0.000000

  0.4455128E+00  0.1634615E+00  0.6089744E+00  0.4166667E-02
    1       -2.700789   1.000000
    2       -1.334103   1.000000
    3        1.955520   1.000000
    4        2.336541   1.000000
    5        8.227668   0.000000
    6        8.493507   0.000000
    7       11.464525   0.000000
    8       13.370111   0.000000

  0.4487179E+00  0.1538462E+00  0.6025641E+00  0.4166667E-02
    1       -2.683978   1.000000
    2       -1.365059   1.000000
    3        2.019583   1.000000
    4        2.344346   1.000000
    5        8.042622   0.000000
    6        8.298981   0.000000
    7       11.754033   0.000000
    8       13.555026   0.000000

  0.4519231E+00  0.1442308E+00  0.5961538E+00  0.4166667E-02
    1       -2.664974   1.000000
    2       -1.399887   1.000000
    3        2.085330   1.000000
    4        2.359141   1.000000
    5        7.863286   0.000000
    6        8.109477   0.000000
    7       12.046819   0.000000
    8       13.739748   0.000000

  0.4551282E+00  0.1346154E+00  0.5897436E+00  0.4166667E-02
    1       -2.643781   1.000000
    2       -1.438251   1.000000
    3        2.152332   1.000000
    4        2.380367   1.000000
    5        7.690122   0.000000
    6        7.925651   0.000000
    7       12.342065   0.000000
    8       13.923483   0.000000

  0.4583333E+00  0.1250000E+00  0.5833333E+00  0.4166667E-02
    1       -2.620402   1.000000
    2       -1.479766   1.000000
    3        2.220104   1.000000
    4        2.407355   1.000000
    5        7.523785   0.000000
    6        7.748116   0.000000
    7       12.639096   0.000000
    8       14.105439   0.000000

  0.4615385E+00  0.1153846E+00  0.5769231E+00  0.4166667E-02
    1       -2.594849   1.000000
    2       -1.524034   1.000000
    3        2.288083   1.000000
    4        2.439334   1.000000
    5        7.364848   0.000000
    6        7.577475   0.000000
    7       12.937124   0.000000
    8       14.283557   0.000000

  0.4647436E+00  0.1057692E+00  0.5705128E+00  0.4166667E-02
    1       -2.567140   1.000000
    2       -1.570640   1.000000
    3        2.355636   1.000000
    4        2.475440   1.000000
    5        7.214046   0.000000
    6        7.414339   0.000000
    7       13.235266   0.000000
    8       14.456923   0.000000

  0.4679487E+00  0.9615385E-01  0.5641026E+00  0.4166667E-02
    1       -2.537291   1.000000
    2       -1.619169   1.000000
    3        2.422044   1.000000
    4        2.514716   1.000000
    5        7.072199   0.000000
    6        7.259460   0.000000
    7       13.532444   0.000000
    8       14.623001   0.000000

  0.4711538E+00  0.8653846E-01  0.5576923E+00  0.4166667E-02
    1       -2.505341   1.000000
    2       -1.669223   1.000000
    3        2.486489   1.000000
    4        2.556107   1.000000
    5        6.940093   0.000000
    6        7.113505   0.000000
    7       13.827090   0.000000
    8       14.779608   0.000000

  0.4743590E+00  0.7692308E-01  0.5512821E+00  0.4166667E-02
    1       -2.471321   1.000000
    2       -1.720409   1.000000
    3        2.548077   1.000000
    4        2.598488   1.000000
    5        6.818828   0.000000
    6        6.977438   0.000000
    7       14.117242   0.000000
    8       14.924831   0.000000

  0.4775641E+00  0.6730769E-01  0.5448718E+00  0.4166667E-02
    1       -2.435278   1.000000
    2       -1.772365   1.000000
    3        2.605830   1.000000
    4        2.640643   1.000000
    5        6.709369   0.000000
    6        6.852136   0.000000
    7       14.399915   0.000000
    8       15.055061   0.000000

  0.4807692E+00  0.5769231E-01  0.5384615E+00  0.4166667E-02
    1       -2.397267   1.000000
    2       -1.824752   1.000000
    3        2.658702   1.000000
    4        2.681279   1.000000
    5        6.612896   0.000000
    6        6.738596   0.000000
    7       14.671129   0.000000
    8       15.172172   0.000000

  0.4839744E+00  0.4807692E-01  0.5320513E+00  0.4166667E-02
    1       -2.357351   1.000000
    2       -1.877253   1.000000
    3        2.705629   1.000000
    4        2.719060   1.000000
    5        6.530570   0.000000
    6        6.637937   0.000000
    7       14.923256   0.000000
    8       15.272347   0.000000

  0.4871795E+00  0.3846154E-01  0.5256410E+00  0.4166667E-02
    1       -2.315603   1.000000
    2       -1.929580   1.000000
    3        2.745569   1.000000
    4        2.752617   1.000000
    5        6.463550   0.000000
    6        6.551360   0.000000
    7       15.147510   0.000000
    8       15.360362   0.000000

  0.4903846E+00  0.2884615E-01  0.5192308E+00  0.4166667E-02
    1       -2.272121   1.000000
    2       -1.981479   1.000000
    3        2.777575   1.000000
    4        2.780611   1.000000
    5        6.412806   0.000000
    6        6.479882   0.000000
    7       15.329643   0.000000
    8       15.434001   0.000000

  0.4935897E+00  0.1923077E-01  0.5128205E+00  0.4166667E-02
    1       -2.227002   1.000000
    2       -2.032708   1.000000
    3        2.800878   1.000000
    4        2.801792   1.000000
    5        6.379244   0.000000
    6        6.424582   0.000000
    7       15.457975   0.000000
    8       15.491887   0.000000

  0.4967949E+00  0.9615385E-02  0.5064103E+00  0.4166667E-02
    1       -2.180360   1.000000
    2       -2.083054   1.000000
    3        2.814964   1.000000
    4        2.815079   1.000000
    5        6.363492   0.000000
    6        6.386357   0.000000
    7       15.528489   0.000000
    8       15.534476   0.000000

  0.5000000E+00  0.0000000E+00  0.5000000E+00  0.4166667E-02
    1       -2.132328   1.000000
    2       -2.132328   1.000000
    3        2.819643   1.000000
    4        2.819643   1.000000
    5        6.365872   0.000000
    6        6.365872   0.000000
    7       15.548230   0.000000
    8       15.548398   0.000000
