 running on    2 total cores
 distrk:  each k-point on    2 cores,    1 groups
 distr:  one band on    1 cores,    2 groups
 using from now: INCAR     
 vasp.5.4.4.18Apr17-6-g9f103f2a35 (build Jul 17 2026 20:05:20) complex           
 POSCAR found type information on POSCAR  Si
 POSCAR found :  1 types and       2 ions
 scaLAPACK will be used
 LDA part: xc-table for Pade appr. of Perdew
 WARNING: stress and forces are not correct
 POSCAR, INCAR and KPOINTS ok, starting setup
 FFT: planning ...
 WAVECAR not read
 charge-density read from file: unknown                                 
 WARNING: random wavefunctions but no delay for mixing, default for NELMDL
 entering main loop
       N       E                     dE             d eps       ncg     rms          rms(c)
DAV:   1     0.581686306222E+01    0.58169E+01   -0.28138E+03  3840   0.612E+02
DAV:   2    -0.917668841185E+01   -0.14994E+02   -0.14399E+02  5872   0.723E+01
DAV:   3    -0.939922925988E+01   -0.22254E+00   -0.22254E+00  5032   0.108E+01
DAV:   4    -0.940016234361E+01   -0.93308E-03   -0.93308E-03  6448   0.724E-01
DAV:   5    -0.940016427643E+01   -0.19328E-05   -0.19330E-05  4976   0.198E-02
DAV:   6    -0.940016430117E+01   -0.24739E-07   -0.24739E-07  6256   0.158E-03
   1 F= -.94001643E+01 E0= -.94001643E+01  d E =-.131997E-14
