 vasp.5.4.4.18Apr17-6-g9f103f2a35 (build Jul 17 2026 20:05:20) complex           
 executed on             LinuxGNU date 2026.08.12  20:05:09
 running on    2 total cores
 distrk:  each k-point on    2 cores,    1 groups
 distr:  one band on NCORES_PER_BAND=   1 cores,    2 groups


--------------------------------------------------------------------------------------------------------


 INCAR:
 POTCAR:    PAW_PBE Si 05Jan2001                  
 POTCAR:    PAW_PBE Si 05Jan2001                  
   VRHFIN =Si: s2p2                                                             
   LEXCH  = PE                                                                  
   EATOM  =   103.0669 eV,    7.5752 Ry                                         
                                                                                
   TITEL  = PAW_PBE Si 05Jan2001                                                
   LULTRA =        F    use ultrasoft PP ?                                      
   IUNSCR =        1    unscreen: 0-lin 1-nonlin 2-no                           
   RPACOR =    1.500    partial core radius                                     
   POMASS =   28.085; ZVAL   =    4.000    mass and valenz                      
   RCORE  =    1.900    outmost cutoff radius                                   
   RWIGS  =    2.480; RWIGS  =    1.312    wigner-seitz radius (au A)           
   ENMAX  =  245.345; ENMIN  =  184.009 eV                                      
   ICORE  =        2    local potential                                         
   LCOR   =        T    correct aug charges                                     
   LPAW   =        T    paw PP                                                  
   EAUG   =  322.069                                                            
   DEXC   =    0.000                                                            
   RMAX   =    1.950    core radius for proj-oper                               
   RAUG   =    1.300    factor for augmentation sphere                          
   RDEP   =    1.993    radius for radial grids                                 
   RDEPT  =    1.837    core radius for aug-charge                              
                                                                                
   Atomic configuration                                                         
    6 entries                                                                   
     n  l   j            E        occ.                                          
     1  0  0.50     -1785.8828   2.0000                                         
     2  0  0.50      -139.4969   2.0000                                         
     2  1  1.50       -95.5546   6.0000                                         
     3  0  0.50       -10.8127   2.0000                                         
     3  1  0.50        -4.0811   2.0000                                         
     3  2  1.50        -4.0817   0.0000                                         
   Description                                                                  
     l       E           TYP  RCUT    TYP  RCUT                                 
     0    -10.8127223     23  1.900                                             
     0     -7.6451159     23  1.900                                             
     1     -4.0811372     23  1.900                                             
     1      2.4879257     23  1.900                                             
     2     -4.0817478      7  1.900                                             
  local pseudopotential read in
  partial core-charges read in
  partial kinetic energy density read in
  atomic valenz-charges read in
  non local Contribution for L=           0  read in
    real space projection operators read in
  non local Contribution for L=           0  read in
    real space projection operators read in
  non local Contribution for L=           1  read in
    real space projection operators read in
  non local Contribution for L=           1  read in
    real space projection operators read in
    PAW grid and wavefunctions read in

   number of l-projection  operators is LMAX  =           4
   number of lm-projection operators is LMMAX =           8

  PAW_PBE Si 05Jan2001                  :
 energy of atom  1       EATOM= -103.0669
 kinetic energy error for atom=    0.0012 (will be added to EATOM!!)


 POSCAR: Si diamond cubic                        
  positions in direct lattice
  velocities in cartesian coordinates
 exchange correlation table for  LEXCH =        8
   RHO(1)=    0.500       N(1)  =     2000
   RHO(2)=  100.500       N(2)  =     4000



--------------------------------------------------------------------------------------------------------


 ion  position               nearest neighbor table
   1  0.000  0.000  0.000-   2 2.37   2 2.37   2 2.37   2 2.37
   2  0.250  0.250  0.250-   1 2.37   1 2.37   1 2.37   1 2.37

  LATTYP: Found a face centered cubic cell.
 ALAT       =     5.4692210743
  
  Lattice vectors:
  
 A1 = (   0.0000000000,   2.7346105372,   2.7346105372)
 A2 = (   2.7346105372,  -0.0000000000,   2.7346105372)
 A3 = (   2.7346105372,   2.7346105372,   0.0000000000)


Analysis of symmetry for initial positions (statically):
=====================================================================
 Subroutine PRICEL returns:
 Original cell was already a primitive cell.
 

 Routine SETGRP: Setting up the symmetry group for a 
 face centered cubic supercell.


 Subroutine GETGRP returns: Found 48 space group operations
 (whereof 24 operations were pure point group operations)
 out of a pool of 48 trial point group operations.


The static configuration has the point symmetry T_d .
 The point group associated with its full space group is O_h .


Analysis of symmetry for dynamics (positions and initial velocities):
=====================================================================
 Subroutine PRICEL returns:
 Original cell was already a primitive cell.
 

 Routine SETGRP: Setting up the symmetry group for a 
 face centered cubic supercell.


 Subroutine GETGRP returns: Found 48 space group operations
 (whereof 24 operations were pure point group operations)
 out of a pool of 48 trial point group operations.


The dynamic configuration has the point symmetry T_d .
 The point group associated with its full space group is O_h .


 Subroutine INISYM returns: Found 48 space group operations
 (whereof 24 operations are pure point group operations),
 and found     1 'primitive' translations



 KPOINTS: K-Path for Si band structure (Setyawan-C
  interpolating k-points between supplied coordinates
  k-points in reciprocal lattice
Space group operators:
 irot       det(A)        alpha          n_x          n_y          n_z        tau_x        tau_y        tau_z
    1     1.000000     0.000001     1.000000     0.000000     0.000000     0.000000     0.000000     0.000000
    2     1.000000   120.000000    -0.577350    -0.577350    -0.577350     0.000000     0.000000     0.000000
    3     1.000000   120.000000     0.577350     0.577350     0.577350     0.000000     0.000000     0.000000
    4    -1.000000    90.000000     0.000000     0.000000    -1.000000     0.000000     0.000000     0.000000
    5    -1.000000   180.000000     0.000000     0.707107     0.707107     0.000000     0.000000     0.000000
    6    -1.000000    90.000000     0.000000     1.000000     0.000000     0.000000     0.000000     0.000000
    7     1.000000   180.000000     0.000000     0.000000     1.000000     0.000000     0.000000     0.000000
    8     1.000000   120.000000    -0.577350     0.577350     0.577350     0.000000     0.000000     0.000000
    9     1.000000   120.000000    -0.577350     0.577350    -0.577350     0.000000     0.000000     0.000000
   10    -1.000000    90.000000     0.000000     0.000000     1.000000     0.000000     0.000000     0.000000
   11    -1.000000    90.000000    -1.000000     0.000000     0.000000     0.000000     0.000000     0.000000
   12    -1.000000   180.000000     0.707107     0.000000     0.707107     0.000000     0.000000     0.000000
   13     1.000000   120.000000     0.577350    -0.577350     0.577350     0.000000     0.000000     0.000000
   14     1.000000   120.000000    -0.577350    -0.577350     0.577350     0.000000     0.000000     0.000000
   15     1.000000   180.000000     1.000000     0.000000     0.000000     0.000000     0.000000     0.000000
   16    -1.000000    90.000000     0.000000    -1.000000     0.000000     0.000000     0.000000     0.000000
   17    -1.000000   180.000000     0.707107     0.707107     0.000000     0.000000     0.000000     0.000000
   18    -1.000000    90.000000     1.000000     0.000000     0.000000     0.000000     0.000000     0.000000
   19     1.000000   120.000000     0.577350    -0.577350    -0.577350     0.000000     0.000000     0.000000
   20     1.000000   180.000000     0.000000     1.000000     0.000000     0.000000     0.000000     0.000000
   21     1.000000   120.000000     0.577350     0.577350    -0.577350     0.000000     0.000000     0.000000
   22    -1.000000   180.000000     0.000000    -0.707107     0.707107     0.000000     0.000000     0.000000
   23    -1.000000   180.000000     0.707107    -0.707107     0.000000     0.000000     0.000000     0.000000
   24    -1.000000   180.000000     0.707107     0.000000    -0.707107     0.000000     0.000000     0.000000
   25    -1.000000     0.000001     1.000000     0.000000     0.000000     0.250000     0.250000     0.250000
   26    -1.000000   120.000000    -0.577350    -0.577350    -0.577350     0.250000     0.250000     0.250000
   27    -1.000000   120.000000     0.577350     0.577350     0.577350     0.250000     0.250000     0.250000
   28     1.000000    90.000000     0.000000     0.000000    -1.000000     0.250000     0.250000     0.250000
   29     1.000000   180.000000     0.000000     0.707107     0.707107     0.250000     0.250000     0.250000
   30     1.000000    90.000000     0.000000     1.000000     0.000000     0.250000     0.250000     0.250000
   31    -1.000000   180.000000     0.000000     0.000000     1.000000     0.250000     0.250000     0.250000
   32    -1.000000   120.000000    -0.577350     0.577350     0.577350     0.250000     0.250000     0.250000
   33    -1.000000   120.000000    -0.577350     0.577350    -0.577350     0.250000     0.250000     0.250000
   34     1.000000    90.000000     0.000000     0.000000     1.000000     0.250000     0.250000     0.250000
   35     1.000000    90.000000    -1.000000     0.000000     0.000000     0.250000     0.250000     0.250000
   36     1.000000   180.000000     0.707107     0.000000     0.707107     0.250000     0.250000     0.250000
   37    -1.000000   120.000000     0.577350    -0.577350     0.577350     0.250000     0.250000     0.250000
   38    -1.000000   120.000000    -0.577350    -0.577350     0.577350     0.250000     0.250000     0.250000
   39    -1.000000   180.000000     1.000000     0.000000     0.000000     0.250000     0.250000     0.250000
   40     1.000000    90.000000     0.000000    -1.000000     0.000000     0.250000     0.250000     0.250000
   41     1.000000   180.000000     0.707107     0.707107     0.000000     0.250000     0.250000     0.250000
   42     1.000000    90.000000     1.000000     0.000000     0.000000     0.250000     0.250000     0.250000
   43    -1.000000   120.000000     0.577350    -0.577350    -0.577350     0.250000     0.250000     0.250000
   44    -1.000000   180.000000     0.000000     1.000000     0.000000     0.250000     0.250000     0.250000
   45    -1.000000   120.000000     0.577350     0.577350    -0.577350     0.250000     0.250000     0.250000
   46     1.000000   180.000000     0.000000    -0.707107     0.707107     0.250000     0.250000     0.250000
   47     1.000000   180.000000     0.707107    -0.707107     0.000000     0.250000     0.250000     0.250000
   48     1.000000   180.000000     0.707107     0.000000    -0.707107     0.250000     0.250000     0.250000


--------------------------------------------------------------------------------------------------------




 Dimension of arrays:
   k-points           NKPTS =    240   k-points in BZ     NKDIM =    240   number of bands    NBANDS=      8
   number of dos      NEDOS =    301   number of ions     NIONS =      2
   non local maximal  LDIM  =      4   non local SUM 2l+1 LMDIM =      8
   total plane-waves  NPLWV =  21952
   max r-space proj   IRMAX =      1   max aug-charges    IRDMAX= 143748
   dimension x,y,z NGX =    28 NGY =   28 NGZ =   28
   dimension x,y,z NGXF=    56 NGYF=   56 NGZF=   56
   support grid    NGXF=   112 NGYF=  112 NGZF=  112
   ions per type =               2
   NGX,Y,Z   is equivalent  to a cutoff of  12.04, 12.04, 12.04 a.u.
   NGXF,Y,Z  is equivalent  to a cutoff of  24.07, 24.07, 24.07 a.u.

 SYSTEM =  unknown system                          
 POSCAR =  Si diamond cubic                        

 Startparameter for this run:
   NWRITE =      2    write-flag & timer
   PREC   = accura    normal or accurate (medium, high low for compatibility)
   ISTART =      0    job   : 0-new  1-cont  2-samecut
   ICHARG =     11    charge: 1-file 2-atom 10-const
   ISPIN  =      1    spin polarized calculation?
   LNONCOLLINEAR =      F non collinear calculations
   LSORBIT =      F    spin-orbit coupling
   INIWAV =      1    electr: 0-lowe 1-rand  2-diag
   LASPH  =      F    aspherical Exc in radial PAW
   METAGGA=      F    non-selfconsistent MetaGGA calc.

 Electronic Relaxation 1
   ENCUT  =  400.0 eV  29.40 Ry    5.42 a.u.   6.31  6.31  6.31*2*pi/ulx,y,z
   ENINI  =  400.0     initial cutoff
   ENAUG  =  322.1 eV  augmentation charge cutoff
   NELM   =     60;   NELMIN=  2; NELMDL=  0     # of ELM steps 
   EDIFF  = 0.1E-05   stopping-criterion for ELM
   LREAL  =      F    real-space projection
   NLSPLINE    = F    spline interpolate recip. space projectors
   LCOMPAT=      F    compatible to vasp.4.4
   GGA_COMPAT  = T    GGA compatible to vasp.4.4-vasp.4.6
   LMAXPAW     = -100 max onsite density
   LMAXMIX     =    2 max onsite mixed and CHGCAR
   VOSKOWN=      0    Vosko Wilk Nusair interpolation
   ROPT   =    0.00000
 Ionic relaxation
   EDIFFG = 0.1E-04   stopping-criterion for IOM
   NSW    =      0    number of steps for IOM
   NBLOCK =      1;   KBLOCK =      1    inner block; outer block 
   IBRION =     -1    ionic relax: 0-MD 1-quasi-New 2-CG
   NFREE  =      0    steps in history (QN), initial steepest desc. (CG)
   ISIF   =      2    stress and relaxation
   IWAVPR =     10    prediction:  0-non 1-charg 2-wave 3-comb
   ISYM   =      2    0-nonsym 1-usesym 2-fastsym
   LCORR  =      T    Harris-Foulkes like correction to forces

   POTIM  = 0.5000    time-step for ionic-motion
   TEIN   =    0.0    initial temperature
   TEBEG  =    0.0;   TEEND  =   0.0 temperature during run
   SMASS  =  -3.00    Nose mass-parameter (am)
   estimated Nose-frequenzy (Omega)   =  0.10E-29 period in steps =****** mass=  -0.342E-27a.u.
   SCALEE = 1.0000    scale energy and forces
   NPACO  =    256;   APACO  = 16.0  distance and # of slots for P.C.
   PSTRESS=    0.0 pullay stress

  Mass of Ions in am
   POMASS =  28.09
  Ionic Valenz
   ZVAL   =   4.00
  Atomic Wigner-Seitz radii
   RWIGS  =  -1.00
  virtual crystal weights 
   VCA    =   1.00
   NELECT =       8.0000    total number of electrons
   NUPDOWN=      -1.0000    fix difference up-down

 DOS related values:
   EMIN   =  10.00;   EMAX   =-10.00  energy-range for DOS
   EFERMI =   0.00
   ISMEAR =     0;   SIGMA  =   0.05  broadening in eV -4-tet -1-fermi 0-gaus

 Electronic relaxation 2 (details)
   IALGO  =     38    algorithm
   LDIAG  =      T    sub-space diagonalisation (order eigenvalues)
   LSUBROT=      F    optimize rotation matrix (better conditioning)
   TURBO    =      0    0=normal 1=particle mesh
   IRESTART =      0    0=no restart 2=restart with 2 vectors
   NREBOOT  =      0    no. of reboots
   NMIN     =      0    reboot dimension
   EREF     =   0.00    reference energy to select bands
   IMIX   =      4    mixing-type and parameters
     AMIX     =   0.40;   BMIX     =  1.00
     AMIX_MAG =   1.60;   BMIX_MAG =  1.00
     AMIN     =   0.10
     WC   =   100.;   INIMIX=   1;  MIXPRE=   1;  MAXMIX= -45

 Intra band minimization:
   WEIMIN = 0.0000     energy-eigenvalue tresh-hold
   EBREAK =  0.31E-07  absolut break condition
   DEPER  =   0.30     relativ break condition  

   TIME   =   0.40     timestep for ELM

  volume/ion in A,a.u.               =      20.45       138.00
  Fermi-wavevector in a.u.,A,eV,Ry     =   0.950312  1.795828 12.287313  0.903092
  Thomas-Fermi vector in A             =   2.078676

 Write flags
   LWAVE        =      F    write WAVECAR
   LDOWNSAMPLE  =      F    k-point downsampling of WAVECAR
   LCHARG       =      F    write CHGCAR
   LVTOT        =      F    write LOCPOT, total local potential
   LVHAR        =      F    write LOCPOT, Hartree potential only
   LELF         =      F    write electronic localiz. function (ELF)
   LORBIT       =     11    0 simple, 1 ext, 2 COOP (PROOUT), +10 PAW based schemes


 Dipole corrections
   LMONO  =      F    monopole corrections only (constant potential shift)
   LDIPOL =      F    correct potential (dipole corrections)
   IDIPOL =      0    1-x, 2-y, 3-z, 4-all directions 
   EPSILON=  1.0000000 bulk dielectric constant

 Exchange correlation treatment:
   GGA     =    --    GGA type
   LEXCH   =     8    internal setting for exchange type
   VOSKOWN=      0    Vosko Wilk Nusair interpolation
   LHFCALC =     F    Hartree Fock is set to
   LHFONE  =     F    Hartree Fock one center treatment
   AEXX    =    0.0000 exact exchange contribution

 Linear response parameters
   LEPSILON=     F    determine dielectric tensor
   LRPA    =     F    only Hartree local field effects (RPA)
   LNABLA  =     F    use nabla operator in PAW spheres
   LVEL    =     F    velocity operator in full k-point grid
   LINTERFAST=   F  fast interpolation
   KINTER  =     0    interpolate to denser k-point grid
   CSHIFT  =0.1000    complex shift for real part using Kramers Kronig
   OMEGAMAX=  -1.0    maximum frequency
   DEG_THRESHOLD= 0.2000000E-02 threshold for treating states as degnerate
   RTIME   =   -0.100 relaxation time in fs
  (WPLASMAI=    0.000 imaginary part of plasma frequency in eV, 0.658/RTIME)
   DFIELD  = 0.0000000 0.0000000 0.0000000 field for delta impulse in time

 Orbital magnetization related:
   ORBITALMAG=     F  switch on orbital magnetization
   LCHIMAG   =     F  perturbation theory with respect to B field
   DQ        =  0.001000  dq finite difference perturbation B field
   LLRAUG    =     F  two centre corrections for induced B field



--------------------------------------------------------------------------------------------------------


 Static calculation
 charge density and potential remain constant during run
 non-spin polarized calculation
 Variant of blocked Davidson
 Davidson routine will perform the subspace rotation
 perform sub-space diagonalisation
    after iterative eigenvector-optimisation
 no mixing
 using additional bands            4
 reciprocal scheme for non local part
 use partial core corrections
 calculate Harris-corrections to forces   (improved forces if not selfconsistent)
 use gradient corrections 
 WARNING: stress and forces are not correct
  (second derivative of E(xc) not defined)
 use of overlap-Matrix (Vanderbilt PP)
 Gauss-broadening in eV      SIGMA  =   0.05


--------------------------------------------------------------------------------------------------------


  energy-cutoff  :      400.00
  volume of cell :       40.90
      direct lattice vectors                 reciprocal lattice vectors
     0.000000000  2.734610537  2.734610537    -0.182841393  0.182841393  0.182841393
     2.734610537 -0.000000000  2.734610537     0.182841393 -0.182841393  0.182841393
     2.734610537  2.734610537  0.000000000     0.182841393  0.182841393 -0.182841393

  length of vectors
     3.867323309  3.867323309  3.867323309     0.316690582  0.316690582  0.316690582



 k-points in units of 2pi/SCALE and weight: K-Path for Si band structure (Setyawan-C
   0.00000000  0.00000000  0.00000000       0.004
   0.00000000  0.02546184  0.00000000       0.004
   0.00000000  0.05092367  0.00000000       0.004
   0.00000000  0.07638551  0.00000000       0.004
   0.00000000  0.10184734  0.00000000       0.004
   0.00000000  0.12730918  0.00000000       0.004
   0.00000000  0.15277102  0.00000000       0.004
   0.00000000  0.17823285  0.00000000       0.004
   0.00000000  0.20369469  0.00000000       0.004
   0.00000000  0.22915652  0.00000000       0.004
   0.00000000  0.25461836  0.00000000       0.004
   0.00000000  0.28008020  0.00000000       0.004
   0.00000000  0.30554203  0.00000000       0.004
   0.00000000  0.33100387  0.00000000       0.004
   0.00000000  0.35646570  0.00000000       0.004
   0.00000000  0.38192754  0.00000000       0.004
   0.00000000  0.40738938  0.00000000       0.004
   0.00000000  0.43285121  0.00000000       0.004
   0.00000000  0.45831305  0.00000000       0.004
   0.00000000  0.48377488  0.00000000       0.004
   0.00000000  0.50923672  0.00000000       0.004
   0.00000000  0.53469856  0.00000000       0.004
   0.00000000  0.56016039  0.00000000       0.004
   0.00000000  0.58562223  0.00000000       0.004
   0.00000000  0.61108406  0.00000000       0.004
   0.00000000  0.63654590  0.00000000       0.004
   0.00000000  0.66200774  0.00000000       0.004
   0.00000000  0.68746957  0.00000000       0.004
   0.00000000  0.71293141  0.00000000       0.004
   0.00000000  0.73839325  0.00000000       0.004
   0.00000000  0.76385508  0.00000000       0.004
   0.00000000  0.78931692  0.00000000       0.004
   0.00000000  0.81477875  0.00000000       0.004
   0.00000000  0.84024059  0.00000000       0.004
   0.00000000  0.86570243  0.00000000       0.004
   0.00000000  0.89116426  0.00000000       0.004
   0.00000000  0.91662610  0.00000000       0.004
   0.00000000  0.94208793  0.00000000       0.004
   0.00000000  0.96754977  0.00000000       0.004
   0.00000000  0.99301161  0.00000000       0.004
   0.00000000  0.99301161  0.00000000       0.004
   0.01273092  0.99301161  0.00000000       0.004
   0.02546184  0.99301161  0.00000000       0.004
   0.03819275  0.99301161 -0.00000000       0.004
   0.05092367  0.99301161  0.00000000       0.004
   0.06365459  0.99301161  0.00000000       0.004
   0.07638551  0.99301161  0.00000000       0.004
   0.08911643  0.99301161  0.00000000       0.004
   0.10184734  0.99301161 -0.00000000       0.004
   0.11457826  0.99301161 -0.00000000       0.004
   0.12730918  0.99301161  0.00000000       0.004
   0.14004010  0.99301161  0.00000000       0.004
   0.15277102  0.99301161  0.00000000       0.004
   0.16550193  0.99301161 -0.00000000       0.004
   0.17823285  0.99301161 -0.00000000       0.004
   0.19096377  0.99301161  0.00000000       0.004
   0.20369469  0.99301161  0.00000000       0.004
   0.21642561  0.99301161 -0.00000000       0.004
   0.22915652  0.99301161 -0.00000000       0.004
   0.24188744  0.99301161 -0.00000000       0.004
   0.25461836  0.99301161  0.00000000       0.004
   0.26734928  0.99301161  0.00000000       0.004
   0.28008020  0.99301161  0.00000000       0.004
   0.29281111  0.99301161 -0.00000000       0.004
   0.30554203  0.99301161  0.00000000       0.004
   0.31827295  0.99301161  0.00000000       0.004
   0.33100387  0.99301161  0.00000000       0.004
   0.34373479  0.99301161  0.00000000       0.004
   0.35646570  0.99301161 -0.00000000       0.004
   0.36919662  0.99301161  0.00000000       0.004
   0.38192754  0.99301161  0.00000000       0.004
   0.39465846  0.99301161  0.00000000       0.004
   0.40738938  0.99301161  0.00000000       0.004
   0.42012029  0.99301161  0.00000000       0.004
   0.43285121  0.99301161  0.00000000       0.004
   0.44558213  0.99301161  0.00000000       0.004
   0.45831305  0.99301161  0.00000000       0.004
   0.47104397  0.99301161  0.00000000       0.004
   0.48377488  0.99301161  0.00000000       0.004
   0.49650580  0.99301161  0.00000000       0.004
   0.49650580  0.99301161  0.00000000       0.004
   0.49650580  0.98028069  0.01273092       0.004
   0.49650580  0.96754977  0.02546184       0.004
   0.49650580  0.95481885  0.03819275       0.004
   0.49650580  0.94208793  0.05092367       0.004
   0.49650580  0.92935702  0.06365459       0.004
   0.49650580  0.91662610  0.07638551       0.004
   0.49650580  0.90389518  0.08911643       0.004
   0.49650580  0.89116426  0.10184734       0.004
   0.49650580  0.87843334  0.11457826       0.004
   0.49650580  0.86570243  0.12730918       0.004
   0.49650580  0.85297151  0.14004010       0.004
   0.49650580  0.84024059  0.15277102       0.004
   0.49650580  0.82750967  0.16550193       0.004
   0.49650580  0.81477875  0.17823285       0.004
   0.49650580  0.80204784  0.19096377       0.004
   0.49650580  0.78931692  0.20369469       0.004
   0.49650580  0.77658600  0.21642561       0.004
   0.49650580  0.76385508  0.22915652       0.004
   0.49650580  0.75112416  0.24188744       0.004
   0.49650580  0.73839325  0.25461836       0.004
   0.49650580  0.72566233  0.26734928       0.004
   0.49650580  0.71293141  0.28008020       0.004
   0.49650580  0.70020049  0.29281111       0.004
   0.49650580  0.68746957  0.30554203       0.004
   0.49650580  0.67473866  0.31827295       0.004
   0.49650580  0.66200774  0.33100387       0.004
   0.49650580  0.64927682  0.34373479       0.004
   0.49650580  0.63654590  0.35646570       0.004
   0.49650580  0.62381498  0.36919662       0.004
   0.49650580  0.61108406  0.38192754       0.004
   0.49650580  0.59835315  0.39465846       0.004
   0.49650580  0.58562223  0.40738938       0.004
   0.49650580  0.57289131  0.42012029       0.004
   0.49650580  0.56016039  0.43285121       0.004
   0.49650580  0.54742947  0.44558213       0.004
   0.49650580  0.53469856  0.45831305       0.004
   0.49650580  0.52196764  0.47104397       0.004
   0.49650580  0.50923672  0.48377488       0.004
   0.49650580  0.49650580  0.49650580       0.004
   0.49650580  0.49650580  0.49650580       0.004
   0.48377488  0.48377488  0.48377488       0.004
   0.47104397  0.47104397  0.47104397       0.004
   0.45831305  0.45831305  0.45831305       0.004
   0.44558213  0.44558213  0.44558213       0.004
   0.43285121  0.43285121  0.43285121       0.004
   0.42012029  0.42012029  0.42012029       0.004
   0.40738938  0.40738938  0.40738938       0.004
   0.39465846  0.39465846  0.39465846       0.004
   0.38192754  0.38192754  0.38192754       0.004
   0.36919662  0.36919662  0.36919662       0.004
   0.35646570  0.35646570  0.35646570       0.004
   0.34373479  0.34373479  0.34373479       0.004
   0.33100387  0.33100387  0.33100387       0.004
   0.31827295  0.31827295  0.31827295       0.004
   0.30554203  0.30554203  0.30554203       0.004
   0.29281111  0.29281111  0.29281111       0.004
   0.28008020  0.28008020  0.28008020       0.004
   0.26734928  0.26734928  0.26734928       0.004
   0.25461836  0.25461836  0.25461836       0.004
   0.24188744  0.24188744  0.24188744       0.004
   0.22915652  0.22915652  0.22915652       0.004
   0.21642561  0.21642561  0.21642561       0.004
   0.20369469  0.20369469  0.20369469       0.004
   0.19096377  0.19096377  0.19096377       0.004
   0.17823285  0.17823285  0.17823285       0.004
   0.16550193  0.16550193  0.16550193       0.004
   0.15277102  0.15277102  0.15277102       0.004
   0.14004010  0.14004010  0.14004010       0.004
   0.12730918  0.12730918  0.12730918       0.004
   0.11457826  0.11457826  0.11457826       0.004
   0.10184734  0.10184734  0.10184734       0.004
   0.08911643  0.08911643  0.08911643       0.004
   0.07638551  0.07638551  0.07638551       0.004
   0.06365459  0.06365459  0.06365459       0.004
   0.05092367  0.05092367  0.05092367       0.004
   0.03819275  0.03819275  0.03819275       0.004
   0.02546184  0.02546184  0.02546184       0.004
   0.01273092  0.01273092  0.01273092       0.004
   0.00000000  0.00000000  0.00000000       0.004
   0.00000000  0.00000000  0.00000000       0.004
   0.01909638  0.01909638  0.00000000       0.004
   0.03819275  0.03819275  0.00000000       0.004
   0.05728913  0.05728913  0.00000000       0.004
   0.07638551  0.07638551  0.00000000       0.004
   0.09548189  0.09548189  0.00000000       0.004
   0.11457826  0.11457826  0.00000000       0.004
   0.13367464  0.13367464  0.00000000       0.004
   0.15277102  0.15277102  0.00000000       0.004
   0.17186739  0.17186739  0.00000000       0.004
   0.19096377  0.19096377  0.00000000       0.004
   0.21006015  0.21006015  0.00000000       0.004
   0.22915652  0.22915652  0.00000000       0.004
   0.24825290  0.24825290  0.00000000       0.004
   0.26734928  0.26734928  0.00000000       0.004
   0.28644566  0.28644566  0.00000000       0.004
   0.30554203  0.30554203  0.00000000       0.004
   0.32463841  0.32463841  0.00000000       0.004
   0.34373479  0.34373479  0.00000000       0.004
   0.36283116  0.36283116  0.00000000       0.004
   0.38192754  0.38192754  0.00000000       0.004
   0.40102392  0.40102392  0.00000000       0.004
   0.42012029  0.42012029  0.00000000       0.004
   0.43921667  0.43921667  0.00000000       0.004
   0.45831305  0.45831305  0.00000000       0.004
   0.47740943  0.47740943  0.00000000       0.004
   0.49650580  0.49650580  0.00000000       0.004
   0.51560218  0.51560218  0.00000000       0.004
   0.53469856  0.53469856  0.00000000       0.004
   0.55379493  0.55379493  0.00000000       0.004
   0.57289131  0.57289131  0.00000000       0.004
   0.59198769  0.59198769  0.00000000       0.004
   0.61108406  0.61108406  0.00000000       0.004
   0.63018044  0.63018044  0.00000000       0.004
   0.64927682  0.64927682  0.00000000       0.004
   0.66837320  0.66837320  0.00000000       0.004
   0.68746957  0.68746957  0.00000000       0.004
   0.70656595  0.70656595  0.00000000       0.004
   0.72566233  0.72566233  0.00000000       0.004
   0.74475870  0.74475870  0.00000000       0.004
   0.74475870  0.74475870  0.00000000       0.004
   0.72566233  0.75112416 -0.00000000       0.004
   0.70656595  0.75748962 -0.00000000       0.004
   0.68746957  0.76385508  0.00000000       0.004
   0.66837320  0.77022054  0.00000000       0.004
   0.64927682  0.77658600  0.00000000       0.004
   0.63018044  0.78295146  0.00000000       0.004
   0.61108406  0.78931692  0.00000000       0.004
   0.59198769  0.79568238  0.00000000       0.004
   0.57289131  0.80204784  0.00000000       0.004
   0.55379493  0.80841329  0.00000000       0.004
   0.53469856  0.81477875 -0.00000000       0.004
   0.51560218  0.82114421 -0.00000000       0.004
   0.49650580  0.82750967  0.00000000       0.004
   0.47740943  0.83387513 -0.00000000       0.004
   0.45831305  0.84024059 -0.00000000       0.004
   0.43921667  0.84660605 -0.00000000       0.004
   0.42012029  0.85297151  0.00000000       0.004
   0.40102392  0.85933697  0.00000000       0.004
   0.38192754  0.86570243 -0.00000000       0.004
   0.36283116  0.87206788 -0.00000000       0.004
   0.34373479  0.87843334 -0.00000000       0.004
   0.32463841  0.88479880 -0.00000000       0.004
   0.30554203  0.89116426  0.00000000       0.004
   0.28644566  0.89752972  0.00000000       0.004
   0.26734928  0.90389518 -0.00000000       0.004
   0.24825290  0.91026064 -0.00000000       0.004
   0.22915652  0.91662610  0.00000000       0.004
   0.21006015  0.92299156  0.00000000       0.004
   0.19096377  0.92935702  0.00000000       0.004
   0.17186739  0.93572247 -0.00000000       0.004
   0.15277102  0.94208793 -0.00000000       0.004
   0.13367464  0.94845339 -0.00000000       0.004
   0.11457826  0.95481885  0.00000000       0.004
   0.09548189  0.96118431  0.00000000       0.004
   0.07638551  0.96754977 -0.00000000       0.004
   0.05728913  0.97391523 -0.00000000       0.004
   0.03819275  0.98028069  0.00000000       0.004
   0.01909638  0.98664615  0.00000000       0.004
   0.00000000  0.99301161  0.00000000       0.004

 k-points in reciprocal lattice and weights: K-Path for Si band structure (Setyawan-C
   0.00000000  0.00000000  0.00000000       0.004
   0.01282051  0.00000000  0.01282051       0.004
   0.02564103  0.00000000  0.02564103       0.004
   0.03846154  0.00000000  0.03846154       0.004
   0.05128205  0.00000000  0.05128205       0.004
   0.06410256  0.00000000  0.06410256       0.004
   0.07692308  0.00000000  0.07692308       0.004
   0.08974359  0.00000000  0.08974359       0.004
   0.10256410  0.00000000  0.10256410       0.004
   0.11538462  0.00000000  0.11538462       0.004
   0.12820513  0.00000000  0.12820513       0.004
   0.14102564  0.00000000  0.14102564       0.004
   0.15384615  0.00000000  0.15384615       0.004
   0.16666667  0.00000000  0.16666667       0.004
   0.17948718  0.00000000  0.17948718       0.004
   0.19230769  0.00000000  0.19230769       0.004
   0.20512821  0.00000000  0.20512821       0.004
   0.21794872  0.00000000  0.21794872       0.004
   0.23076923  0.00000000  0.23076923       0.004
   0.24358974  0.00000000  0.24358974       0.004
   0.25641026  0.00000000  0.25641026       0.004
   0.26923077  0.00000000  0.26923077       0.004
   0.28205128  0.00000000  0.28205128       0.004
   0.29487179  0.00000000  0.29487179       0.004
   0.30769231  0.00000000  0.30769231       0.004
   0.32051282  0.00000000  0.32051282       0.004
   0.33333333  0.00000000  0.33333333       0.004
   0.34615385  0.00000000  0.34615385       0.004
   0.35897436  0.00000000  0.35897436       0.004
   0.37179487  0.00000000  0.37179487       0.004
   0.38461538  0.00000000  0.38461538       0.004
   0.39743590  0.00000000  0.39743590       0.004
   0.41025641  0.00000000  0.41025641       0.004
   0.42307692  0.00000000  0.42307692       0.004
   0.43589744  0.00000000  0.43589744       0.004
   0.44871795  0.00000000  0.44871795       0.004
   0.46153846  0.00000000  0.46153846       0.004
   0.47435897  0.00000000  0.47435897       0.004
   0.48717949  0.00000000  0.48717949       0.004
   0.50000000  0.00000000  0.50000000       0.004
   0.50000000  0.00000000  0.50000000       0.004
   0.50000000  0.00641026  0.50641026       0.004
   0.50000000  0.01282051  0.51282051       0.004
   0.50000000  0.01923077  0.51923077       0.004
   0.50000000  0.02564103  0.52564103       0.004
   0.50000000  0.03205128  0.53205128       0.004
   0.50000000  0.03846154  0.53846154       0.004
   0.50000000  0.04487179  0.54487179       0.004
   0.50000000  0.05128205  0.55128205       0.004
   0.50000000  0.05769231  0.55769231       0.004
   0.50000000  0.06410256  0.56410256       0.004
   0.50000000  0.07051282  0.57051282       0.004
   0.50000000  0.07692308  0.57692308       0.004
   0.50000000  0.08333333  0.58333333       0.004
   0.50000000  0.08974359  0.58974359       0.004
   0.50000000  0.09615385  0.59615385       0.004
   0.50000000  0.10256410  0.60256410       0.004
   0.50000000  0.10897436  0.60897436       0.004
   0.50000000  0.11538462  0.61538462       0.004
   0.50000000  0.12179487  0.62179487       0.004
   0.50000000  0.12820513  0.62820513       0.004
   0.50000000  0.13461538  0.63461538       0.004
   0.50000000  0.14102564  0.64102564       0.004
   0.50000000  0.14743590  0.64743590       0.004
   0.50000000  0.15384615  0.65384615       0.004
   0.50000000  0.16025641  0.66025641       0.004
   0.50000000  0.16666667  0.66666667       0.004
   0.50000000  0.17307692  0.67307692       0.004
   0.50000000  0.17948718  0.67948718       0.004
   0.50000000  0.18589744  0.68589744       0.004
   0.50000000  0.19230769  0.69230769       0.004
   0.50000000  0.19871795  0.69871795       0.004
   0.50000000  0.20512821  0.70512821       0.004
   0.50000000  0.21153846  0.71153846       0.004
   0.50000000  0.21794872  0.71794872       0.004
   0.50000000  0.22435897  0.72435897       0.004
   0.50000000  0.23076923  0.73076923       0.004
   0.50000000  0.23717949  0.73717949       0.004
   0.50000000  0.24358974  0.74358974       0.004
   0.50000000  0.25000000  0.75000000       0.004
   0.50000000  0.25000000  0.75000000       0.004
   0.50000000  0.25641026  0.74358974       0.004
   0.50000000  0.26282051  0.73717949       0.004
   0.50000000  0.26923077  0.73076923       0.004
   0.50000000  0.27564103  0.72435897       0.004
   0.50000000  0.28205128  0.71794872       0.004
   0.50000000  0.28846154  0.71153846       0.004
   0.50000000  0.29487179  0.70512821       0.004
   0.50000000  0.30128205  0.69871795       0.004
   0.50000000  0.30769231  0.69230769       0.004
   0.50000000  0.31410256  0.68589744       0.004
   0.50000000  0.32051282  0.67948718       0.004
   0.50000000  0.32692308  0.67307692       0.004
   0.50000000  0.33333333  0.66666667       0.004
   0.50000000  0.33974359  0.66025641       0.004
   0.50000000  0.34615385  0.65384615       0.004
   0.50000000  0.35256410  0.64743590       0.004
   0.50000000  0.35897436  0.64102564       0.004
   0.50000000  0.36538462  0.63461538       0.004
   0.50000000  0.37179487  0.62820513       0.004
   0.50000000  0.37820513  0.62179487       0.004
   0.50000000  0.38461538  0.61538462       0.004
   0.50000000  0.39102564  0.60897436       0.004
   0.50000000  0.39743590  0.60256410       0.004
   0.50000000  0.40384615  0.59615385       0.004
   0.50000000  0.41025641  0.58974359       0.004
   0.50000000  0.41666667  0.58333333       0.004
   0.50000000  0.42307692  0.57692308       0.004
   0.50000000  0.42948718  0.57051282       0.004
   0.50000000  0.43589744  0.56410256       0.004
   0.50000000  0.44230769  0.55769231       0.004
   0.50000000  0.44871795  0.55128205       0.004
   0.50000000  0.45512821  0.54487179       0.004
   0.50000000  0.46153846  0.53846154       0.004
   0.50000000  0.46794872  0.53205128       0.004
   0.50000000  0.47435897  0.52564103       0.004
   0.50000000  0.48076923  0.51923077       0.004
   0.50000000  0.48717949  0.51282051       0.004
   0.50000000  0.49358974  0.50641026       0.004
   0.50000000  0.50000000  0.50000000       0.004
   0.50000000  0.50000000  0.50000000       0.004
   0.48717949  0.48717949  0.48717949       0.004
   0.47435897  0.47435897  0.47435897       0.004
   0.46153846  0.46153846  0.46153846       0.004
   0.44871795  0.44871795  0.44871795       0.004
   0.43589744  0.43589744  0.43589744       0.004
   0.42307692  0.42307692  0.42307692       0.004
   0.41025641  0.41025641  0.41025641       0.004
   0.39743590  0.39743590  0.39743590       0.004
   0.38461538  0.38461538  0.38461538       0.004
   0.37179487  0.37179487  0.37179487       0.004
   0.35897436  0.35897436  0.35897436       0.004
   0.34615385  0.34615385  0.34615385       0.004
   0.33333333  0.33333333  0.33333333       0.004
   0.32051282  0.32051282  0.32051282       0.004
   0.30769231  0.30769231  0.30769231       0.004
   0.29487179  0.29487179  0.29487179       0.004
   0.28205128  0.28205128  0.28205128       0.004
   0.26923077  0.26923077  0.26923077       0.004
   0.25641026  0.25641026  0.25641026       0.004
   0.24358974  0.24358974  0.24358974       0.004
   0.23076923  0.23076923  0.23076923       0.004
   0.21794872  0.21794872  0.21794872       0.004
   0.20512821  0.20512821  0.20512821       0.004
   0.19230769  0.19230769  0.19230769       0.004
   0.17948718  0.17948718  0.17948718       0.004
   0.16666667  0.16666667  0.16666667       0.004
   0.15384615  0.15384615  0.15384615       0.004
   0.14102564  0.14102564  0.14102564       0.004
   0.12820513  0.12820513  0.12820513       0.004
   0.11538462  0.11538462  0.11538462       0.004
   0.10256410  0.10256410  0.10256410       0.004
   0.08974359  0.08974359  0.08974359       0.004
   0.07692308  0.07692308  0.07692308       0.004
   0.06410256  0.06410256  0.06410256       0.004
   0.05128205  0.05128205  0.05128205       0.004
   0.03846154  0.03846154  0.03846154       0.004
   0.02564103  0.02564103  0.02564103       0.004
   0.01282051  0.01282051  0.01282051       0.004
   0.00000000  0.00000000  0.00000000       0.004
   0.00000000  0.00000000  0.00000000       0.004
   0.00961538  0.00961538  0.01923077       0.004
   0.01923077  0.01923077  0.03846154       0.004
   0.02884615  0.02884615  0.05769231       0.004
   0.03846154  0.03846154  0.07692308       0.004
   0.04807692  0.04807692  0.09615385       0.004
   0.05769231  0.05769231  0.11538462       0.004
   0.06730769  0.06730769  0.13461538       0.004
   0.07692308  0.07692308  0.15384615       0.004
   0.08653846  0.08653846  0.17307692       0.004
   0.09615385  0.09615385  0.19230769       0.004
   0.10576923  0.10576923  0.21153846       0.004
   0.11538462  0.11538462  0.23076923       0.004
   0.12500000  0.12500000  0.25000000       0.004
   0.13461538  0.13461538  0.26923077       0.004
   0.14423077  0.14423077  0.28846154       0.004
   0.15384615  0.15384615  0.30769231       0.004
   0.16346154  0.16346154  0.32692308       0.004
   0.17307692  0.17307692  0.34615385       0.004
   0.18269231  0.18269231  0.36538462       0.004
   0.19230769  0.19230769  0.38461538       0.004
   0.20192308  0.20192308  0.40384615       0.004
   0.21153846  0.21153846  0.42307692       0.004
   0.22115385  0.22115385  0.44230769       0.004
   0.23076923  0.23076923  0.46153846       0.004
   0.24038462  0.24038462  0.48076923       0.004
   0.25000000  0.25000000  0.50000000       0.004
   0.25961538  0.25961538  0.51923077       0.004
   0.26923077  0.26923077  0.53846154       0.004
   0.27884615  0.27884615  0.55769231       0.004
   0.28846154  0.28846154  0.57692308       0.004
   0.29807692  0.29807692  0.59615385       0.004
   0.30769231  0.30769231  0.61538462       0.004
   0.31730769  0.31730769  0.63461538       0.004
   0.32692308  0.32692308  0.65384615       0.004
   0.33653846  0.33653846  0.67307692       0.004
   0.34615385  0.34615385  0.69230769       0.004
   0.35576923  0.35576923  0.71153846       0.004
   0.36538462  0.36538462  0.73076923       0.004
   0.37500000  0.37500000  0.75000000       0.004
   0.37500000  0.37500000  0.75000000       0.004
   0.37820513  0.36538462  0.74358974       0.004
   0.38141026  0.35576923  0.73717949       0.004
   0.38461538  0.34615385  0.73076923       0.004
   0.38782051  0.33653846  0.72435897       0.004
   0.39102564  0.32692308  0.71794872       0.004
   0.39423077  0.31730769  0.71153846       0.004
   0.39743590  0.30769231  0.70512821       0.004
   0.40064103  0.29807692  0.69871795       0.004
   0.40384615  0.28846154  0.69230769       0.004
   0.40705128  0.27884615  0.68589744       0.004
   0.41025641  0.26923077  0.67948718       0.004
   0.41346154  0.25961538  0.67307692       0.004
   0.41666667  0.25000000  0.66666667       0.004
   0.41987179  0.24038462  0.66025641       0.004
   0.42307692  0.23076923  0.65384615       0.004
   0.42628205  0.22115385  0.64743590       0.004
   0.42948718  0.21153846  0.64102564       0.004
   0.43269231  0.20192308  0.63461538       0.004
   0.43589744  0.19230769  0.62820513       0.004
   0.43910256  0.18269231  0.62179487       0.004
   0.44230769  0.17307692  0.61538462       0.004
   0.44551282  0.16346154  0.60897436       0.004
   0.44871795  0.15384615  0.60256410       0.004
   0.45192308  0.14423077  0.59615385       0.004
   0.45512821  0.13461538  0.58974359       0.004
   0.45833333  0.12500000  0.58333333       0.004
   0.46153846  0.11538462  0.57692308       0.004
   0.46474359  0.10576923  0.57051282       0.004
   0.46794872  0.09615385  0.56410256       0.004
   0.47115385  0.08653846  0.55769231       0.004
   0.47435897  0.07692308  0.55128205       0.004
   0.47756410  0.06730769  0.54487179       0.004
   0.48076923  0.05769231  0.53846154       0.004
   0.48397436  0.04807692  0.53205128       0.004
   0.48717949  0.03846154  0.52564103       0.004
   0.49038462  0.02884615  0.51923077       0.004
   0.49358974  0.01923077  0.51282051       0.004
   0.49679487  0.00961538  0.50641026       0.004
   0.50000000  0.00000000  0.50000000       0.004

 position of ions in fractional coordinates (direct lattice) 
   0.00000000  0.00000000  0.00000000
   0.25000000  0.25000000  0.25000000

 position of ions in cartesian coordinates  (Angst):
   0.00000000  0.00000000  0.00000000
   1.36730527  1.36730527  1.36730527



--------------------------------------------------------------------------------------------------------


 k-point  1 :   0.0000 0.0000 0.0000  plane waves:     725
 k-point  2 :   0.0128 0.0000 0.0128  plane waves:     725
 k-point  3 :   0.0256 0.0000 0.0256  plane waves:     729
 k-point  4 :   0.0385 0.0000 0.0385  plane waves:     733
 k-point  5 :   0.0513 0.0000 0.0513  plane waves:     733
 k-point  6 :   0.0641 0.0000 0.0641  plane waves:     733
 k-point  7 :   0.0769 0.0000 0.0769  plane waves:     733
 k-point  8 :   0.0897 0.0000 0.0897  plane waves:     733
 k-point  9 :   0.1026 0.0000 0.1026  plane waves:     737
 k-point 10 :   0.1154 0.0000 0.1154  plane waves:     737
 k-point 11 :   0.1282 0.0000 0.1282  plane waves:     745
 k-point 12 :   0.1410 0.0000 0.1410  plane waves:     745
 k-point 13 :   0.1538 0.0000 0.1538  plane waves:     745
 k-point 14 :   0.1667 0.0000 0.1667  plane waves:     737
 k-point 15 :   0.1795 0.0000 0.1795  plane waves:     745
 k-point 16 :   0.1923 0.0000 0.1923  plane waves:     745
 k-point 17 :   0.2051 0.0000 0.2051  plane waves:     745
 k-point 18 :   0.2179 0.0000 0.2179  plane waves:     733
 k-point 19 :   0.2308 0.0000 0.2308  plane waves:     729
 k-point 20 :   0.2436 0.0000 0.2436  plane waves:     729
 k-point 21 :   0.2564 0.0000 0.2564  plane waves:     729
 k-point 22 :   0.2692 0.0000 0.2692  plane waves:     729
 k-point 23 :   0.2821 0.0000 0.2821  plane waves:     729
 k-point 24 :   0.2949 0.0000 0.2949  plane waves:     729
 k-point 25 :   0.3077 0.0000 0.3077  plane waves:     733
 k-point 26 :   0.3205 0.0000 0.3205  plane waves:     733
 k-point 27 :   0.3333 0.0000 0.3333  plane waves:     749
 k-point 28 :   0.3462 0.0000 0.3462  plane waves:     745
 k-point 29 :   0.3590 0.0000 0.3590  plane waves:     745
 k-point 30 :   0.3718 0.0000 0.3718  plane waves:     745
 k-point 31 :   0.3846 0.0000 0.3846  plane waves:     749
 k-point 32 :   0.3974 0.0000 0.3974  plane waves:     749
 k-point 33 :   0.4103 0.0000 0.4103  plane waves:     749
 k-point 34 :   0.4231 0.0000 0.4231  plane waves:     745
 k-point 35 :   0.4359 0.0000 0.4359  plane waves:     745
 k-point 36 :   0.4487 0.0000 0.4487  plane waves:     741
 k-point 37 :   0.4615 0.0000 0.4615  plane waves:     740
 k-point 38 :   0.4744 0.0000 0.4744  plane waves:     740
 k-point 39 :   0.4872 0.0000 0.4872  plane waves:     740
 k-point 40 :   0.5000 0.0000 0.5000  plane waves:     740
 k-point 41 :   0.5000 0.0000 0.5000  plane waves:     740
 k-point 42 :   0.5000 0.0064 0.5064  plane waves:     740
 k-point 43 :   0.5000 0.0128 0.5128  plane waves:     740
 k-point 44 :   0.5000 0.0192 0.5192  plane waves:     740
 k-point 45 :   0.5000 0.0256 0.5256  plane waves:     740
 k-point 46 :   0.5000 0.0321 0.5321  plane waves:     740
 k-point 47 :   0.5000 0.0385 0.5385  plane waves:     740
 k-point 48 :   0.5000 0.0449 0.5449  plane waves:     740
 k-point 49 :   0.5000 0.0513 0.5513  plane waves:     744
 k-point 50 :   0.5000 0.0577 0.5577  plane waves:     740
 k-point 51 :   0.5000 0.0641 0.5641  plane waves:     744
 k-point 52 :   0.5000 0.0705 0.5705  plane waves:     746
 k-point 53 :   0.5000 0.0769 0.5769  plane waves:     742
 k-point 54 :   0.5000 0.0833 0.5833  plane waves:     738
 k-point 55 :   0.5000 0.0897 0.5897  plane waves:     738
 k-point 56 :   0.5000 0.0962 0.5962  plane waves:     746
 k-point 57 :   0.5000 0.1026 0.6026  plane waves:     746
 k-point 58 :   0.5000 0.1090 0.6090  plane waves:     742
 k-point 59 :   0.5000 0.1154 0.6154  plane waves:     742
 k-point 60 :   0.5000 0.1218 0.6218  plane waves:     742
 k-point 61 :   0.5000 0.1282 0.6282  plane waves:     742
 k-point 62 :   0.5000 0.1346 0.6346  plane waves:     742
 k-point 63 :   0.5000 0.1410 0.6410  plane waves:     742
 k-point 64 :   0.5000 0.1474 0.6474  plane waves:     742
 k-point 65 :   0.5000 0.1538 0.6538  plane waves:     738
 k-point 66 :   0.5000 0.1603 0.6603  plane waves:     738
 k-point 67 :   0.5000 0.1667 0.6667  plane waves:     738
 k-point 68 :   0.5000 0.1731 0.6731  plane waves:     738
 k-point 69 :   0.5000 0.1795 0.6795  plane waves:     738
 k-point 70 :   0.5000 0.1859 0.6859  plane waves:     742
 k-point 71 :   0.5000 0.1923 0.6923  plane waves:     742
 k-point 72 :   0.5000 0.1987 0.6987  plane waves:     736
 k-point 73 :   0.5000 0.2051 0.7051  plane waves:     734
 k-point 74 :   0.5000 0.2115 0.7115  plane waves:     734
 k-point 75 :   0.5000 0.2179 0.7179  plane waves:     734
 k-point 76 :   0.5000 0.2244 0.7244  plane waves:     738
 k-point 77 :   0.5000 0.2308 0.7308  plane waves:     738
 k-point 78 :   0.5000 0.2372 0.7372  plane waves:     740
 k-point 79 :   0.5000 0.2436 0.7436  plane waves:     744
 k-point 80 :   0.5000 0.2500 0.7500  plane waves:     744
 k-point 81 :   0.5000 0.2500 0.7500  plane waves:     744
 k-point 82 :   0.5000 0.2564 0.7436  plane waves:     744
 k-point 83 :   0.5000 0.2628 0.7372  plane waves:     738
 k-point 84 :   0.5000 0.2692 0.7308  plane waves:     734
 k-point 85 :   0.5000 0.2756 0.7244  plane waves:     734
 k-point 86 :   0.5000 0.2821 0.7179  plane waves:     734
 k-point 87 :   0.5000 0.2885 0.7115  plane waves:     734
 k-point 88 :   0.5000 0.2949 0.7051  plane waves:     736
 k-point 89 :   0.5000 0.3013 0.6987  plane waves:     738
 k-point 90 :   0.5000 0.3077 0.6923  plane waves:     736
 k-point 91 :   0.5000 0.3141 0.6859  plane waves:     736
 k-point 92 :   0.5000 0.3205 0.6795  plane waves:     736
 k-point 93 :   0.5000 0.3269 0.6731  plane waves:     736
 k-point 94 :   0.5000 0.3333 0.6667  plane waves:     734
 k-point 95 :   0.5000 0.3397 0.6603  plane waves:     736
 k-point 96 :   0.5000 0.3462 0.6538  plane waves:     734
 k-point 97 :   0.5000 0.3526 0.6474  plane waves:     734
 k-point 98 :   0.5000 0.3590 0.6410  plane waves:     740
 k-point 99 :   0.5000 0.3654 0.6346  plane waves:     742
 k-point ** :   0.5000 0.3718 0.6282  plane waves:     740
 k-point ** :   0.5000 0.3782 0.6218  plane waves:     740
 k-point ** :   0.5000 0.3846 0.6154  plane waves:     746
 k-point ** :   0.5000 0.3910 0.6090  plane waves:     742
 k-point ** :   0.5000 0.3974 0.6026  plane waves:     742
 k-point ** :   0.5000 0.4038 0.5962  plane waves:     744
 k-point ** :   0.5000 0.4103 0.5897  plane waves:     746
 k-point ** :   0.5000 0.4167 0.5833  plane waves:     748
 k-point ** :   0.5000 0.4231 0.5769  plane waves:     742
 k-point ** :   0.5000 0.4295 0.5705  plane waves:     742
 k-point ** :   0.5000 0.4359 0.5641  plane waves:     742
 k-point ** :   0.5000 0.4423 0.5577  plane waves:     744
 k-point ** :   0.5000 0.4487 0.5513  plane waves:     744
 k-point ** :   0.5000 0.4551 0.5449  plane waves:     744
 k-point ** :   0.5000 0.4615 0.5385  plane waves:     744
 k-point ** :   0.5000 0.4679 0.5321  plane waves:     750
 k-point ** :   0.5000 0.4744 0.5256  plane waves:     746
 k-point ** :   0.5000 0.4808 0.5192  plane waves:     750
 k-point ** :   0.5000 0.4872 0.5128  plane waves:     754
 k-point ** :   0.5000 0.4936 0.5064  plane waves:     754
 k-point ** :   0.5000 0.5000 0.5000  plane waves:     754
 k-point ** :   0.5000 0.5000 0.5000  plane waves:     754
 k-point ** :   0.4872 0.4872 0.4872  plane waves:     754
 k-point ** :   0.4744 0.4744 0.4744  plane waves:     754
 k-point ** :   0.4615 0.4615 0.4615  plane waves:     748
 k-point ** :   0.4487 0.4487 0.4487  plane waves:     751
 k-point ** :   0.4359 0.4359 0.4359  plane waves:     757
 k-point ** :   0.4231 0.4231 0.4231  plane waves:     757
 k-point ** :   0.4103 0.4103 0.4103  plane waves:     751
 k-point ** :   0.3974 0.3974 0.3974  plane waves:     754
 k-point ** :   0.3846 0.3846 0.3846  plane waves:     751
 k-point ** :   0.3718 0.3718 0.3718  plane waves:     751
 k-point ** :   0.3590 0.3590 0.3590  plane waves:     751
 k-point ** :   0.3462 0.3462 0.3462  plane waves:     751
 k-point ** :   0.3333 0.3333 0.3333  plane waves:     751
 k-point ** :   0.3205 0.3205 0.3205  plane waves:     751
 k-point ** :   0.3077 0.3077 0.3077  plane waves:     751
 k-point ** :   0.2949 0.2949 0.2949  plane waves:     757
 k-point ** :   0.2821 0.2821 0.2821  plane waves:     757
 k-point ** :   0.2692 0.2692 0.2692  plane waves:     754
 k-point ** :   0.2564 0.2564 0.2564  plane waves:     751
 k-point ** :   0.2436 0.2436 0.2436  plane waves:     751
 k-point ** :   0.2308 0.2308 0.2308  plane waves:     751
 k-point ** :   0.2179 0.2179 0.2179  plane waves:     745
 k-point ** :   0.2051 0.2051 0.2051  plane waves:     745
 k-point ** :   0.1923 0.1923 0.1923  plane waves:     739
 k-point ** :   0.1795 0.1795 0.1795  plane waves:     739
 k-point ** :   0.1667 0.1667 0.1667  plane waves:     748
 k-point ** :   0.1538 0.1538 0.1538  plane waves:     739
 k-point ** :   0.1410 0.1410 0.1410  plane waves:     740
 k-point ** :   0.1282 0.1282 0.1282  plane waves:     740
 k-point ** :   0.1154 0.1154 0.1154  plane waves:     737
 k-point ** :   0.1026 0.1026 0.1026  plane waves:     737
 k-point ** :   0.0897 0.0897 0.0897  plane waves:     737
 k-point ** :   0.0769 0.0769 0.0769  plane waves:     737
 k-point ** :   0.0641 0.0641 0.0641  plane waves:     737
 k-point ** :   0.0513 0.0513 0.0513  plane waves:     731
 k-point ** :   0.0385 0.0385 0.0385  plane waves:     731
 k-point ** :   0.0256 0.0256 0.0256  plane waves:     731
 k-point ** :   0.0128 0.0128 0.0128  plane waves:     725
 k-point ** :   0.0000 0.0000 0.0000  plane waves:     725
 k-point ** :   0.0000 0.0000 0.0000  plane waves:     725
 k-point ** :   0.0096 0.0096 0.0192  plane waves:     727
 k-point ** :   0.0192 0.0192 0.0385  plane waves:     731
 k-point ** :   0.0288 0.0288 0.0577  plane waves:     737
 k-point ** :   0.0385 0.0385 0.0769  plane waves:     737
 k-point ** :   0.0481 0.0481 0.0962  plane waves:     737
 k-point ** :   0.0577 0.0577 0.1154  plane waves:     737
 k-point ** :   0.0673 0.0673 0.1346  plane waves:     737
 k-point ** :   0.0769 0.0769 0.1538  plane waves:     739
 k-point ** :   0.0865 0.0865 0.1731  plane waves:     739
 k-point ** :   0.0962 0.0962 0.1923  plane waves:     747
 k-point ** :   0.1058 0.1058 0.2115  plane waves:     747
 k-point ** :   0.1154 0.1154 0.2308  plane waves:     753
 k-point ** :   0.1250 0.1250 0.2500  plane waves:     753
 k-point ** :   0.1346 0.1346 0.2692  plane waves:     753
 k-point ** :   0.1442 0.1442 0.2885  plane waves:     749
 k-point ** :   0.1538 0.1538 0.3077  plane waves:     748
 k-point ** :   0.1635 0.1635 0.3269  plane waves:     748
 k-point ** :   0.1731 0.1731 0.3462  plane waves:     748
 k-point ** :   0.1827 0.1827 0.3654  plane waves:     738
 k-point ** :   0.1923 0.1923 0.3846  plane waves:     738
 k-point ** :   0.2019 0.2019 0.4038  plane waves:     742
 k-point ** :   0.2115 0.2115 0.4231  plane waves:     742
 k-point ** :   0.2212 0.2212 0.4423  plane waves:     746
 k-point ** :   0.2308 0.2308 0.4615  plane waves:     746
 k-point ** :   0.2404 0.2404 0.4808  plane waves:     746
 k-point ** :   0.2500 0.2500 0.5000  plane waves:     754
 k-point ** :   0.2596 0.2596 0.5192  plane waves:     750
 k-point ** :   0.2692 0.2692 0.5385  plane waves:     750
 k-point ** :   0.2788 0.2788 0.5577  plane waves:     744
 k-point ** :   0.2885 0.2885 0.5769  plane waves:     736
 k-point ** :   0.2981 0.2981 0.5962  plane waves:     732
 k-point ** :   0.3077 0.3077 0.6154  plane waves:     736
 k-point ** :   0.3173 0.3173 0.6346  plane waves:     736
 k-point ** :   0.3269 0.3269 0.6538  plane waves:     736
 k-point ** :   0.3365 0.3365 0.6731  plane waves:     734
 k-point ** :   0.3462 0.3462 0.6923  plane waves:     734
 k-point ** :   0.3558 0.3558 0.7115  plane waves:     734
 k-point ** :   0.3654 0.3654 0.7308  plane waves:     738
 k-point ** :   0.3750 0.3750 0.7500  plane waves:     740
 k-point ** :   0.3750 0.3750 0.7500  plane waves:     740
 k-point ** :   0.3782 0.3654 0.7436  plane waves:     740
 k-point ** :   0.3814 0.3558 0.7372  plane waves:     734
 k-point ** :   0.3846 0.3462 0.7308  plane waves:     732
 k-point ** :   0.3878 0.3365 0.7244  plane waves:     734
 k-point ** :   0.3910 0.3269 0.7179  plane waves:     734
 k-point ** :   0.3942 0.3173 0.7115  plane waves:     736
 k-point ** :   0.3974 0.3077 0.7051  plane waves:     736
 k-point ** :   0.4006 0.2981 0.6987  plane waves:     736
 k-point ** :   0.4038 0.2885 0.6923  plane waves:     735
 k-point ** :   0.4071 0.2788 0.6859  plane waves:     735
 k-point ** :   0.4103 0.2692 0.6795  plane waves:     735
 k-point ** :   0.4135 0.2596 0.6731  plane waves:     735
 k-point ** :   0.4167 0.2500 0.6667  plane waves:     734
 k-point ** :   0.4199 0.2404 0.6603  plane waves:     738
 k-point ** :   0.4231 0.2308 0.6538  plane waves:     740
 k-point ** :   0.4263 0.2212 0.6474  plane waves:     741
 k-point ** :   0.4295 0.2115 0.6410  plane waves:     741
 k-point ** :   0.4327 0.2019 0.6346  plane waves:     741
 k-point ** :   0.4359 0.1923 0.6282  plane waves:     741
 k-point ** :   0.4391 0.1827 0.6218  plane waves:     741
 k-point ** :   0.4423 0.1731 0.6154  plane waves:     742
 k-point ** :   0.4455 0.1635 0.6090  plane waves:     739
 k-point ** :   0.4487 0.1538 0.6026  plane waves:     741
 k-point ** :   0.4519 0.1442 0.5962  plane waves:     741
 k-point ** :   0.4551 0.1346 0.5897  plane waves:     743
 k-point ** :   0.4583 0.1250 0.5833  plane waves:     742
 k-point ** :   0.4615 0.1154 0.5769  plane waves:     742
 k-point ** :   0.4647 0.1058 0.5705  plane waves:     742
 k-point ** :   0.4679 0.0962 0.5641  plane waves:     740
 k-point ** :   0.4712 0.0865 0.5577  plane waves:     744
 k-point ** :   0.4744 0.0769 0.5513  plane waves:     744
 k-point ** :   0.4776 0.0673 0.5449  plane waves:     744
 k-point ** :   0.4808 0.0577 0.5385  plane waves:     744
 k-point ** :   0.4840 0.0481 0.5321  plane waves:     744
 k-point ** :   0.4872 0.0385 0.5256  plane waves:     740
 k-point ** :   0.4904 0.0288 0.5192  plane waves:     740
 k-point ** :   0.4936 0.0192 0.5128  plane waves:     740
 k-point ** :   0.4968 0.0096 0.5064  plane waves:     740
 k-point ** :   0.5000 0.0000 0.5000  plane waves:     740

 maximum and minimum number of plane-waves per node :       757      725

 maximum number of plane-waves:       757
 maximum index in each direction: 
   IXMAX=    6   IYMAX=    6   IZMAX=    6
   IXMIN=   -6   IYMIN=   -6   IZMIN=   -7


 serial   3D FFT for wavefunctions
 parallel 3D FFT for charge:
    minimum data exchange during FFTs selected (reduces bandwidth)


 total amount of memory used by VASP MPI-rank0    71893. kBytes
=======================================================================

   base      :      30000. kBytes
   nonl-proj :      11667. kBytes
   fftplans  :      13127. kBytes
   grid      :       5205. kBytes
   one-center:          6. kBytes
   wavefun   :      11888. kBytes

     INWAV:  cpu time    0.0000: real time    0.0000
 initial charge density was supplied:
 number of electron       8.0000000 magnetization 
 keeping initial charge density in first step


--------------------------------------------------------------------------------------------------------


 Maximum index for augmentation-charges        69761 (set IRDMAX)


--------------------------------------------------------------------------------------------------------


 First call to EWALD:  gamma=   0.514
 Maximum number of real-space cells 3x 3x 3
 Maximum number of reciprocal cells 3x 3x 3

    FEWALD:  cpu time    0.0007: real time    0.0007


--------------------------------------- Iteration      1(   1)  ---------------------------------------


    POTLOK:  cpu time    0.0489: real time    0.0494
    SETDIJ:  cpu time    0.0508: real time    0.0509
     EDDAV:  cpu time    3.0103: real time    3.0137
       DOS:  cpu time    0.0022: real time    0.0022
    --------------------------------------------
      LOOP:  cpu time    3.1121: real time    3.1162

 eigenvalue-minimisations  :  3840
 total energy-change (2. order) : 0.5816863E+01  (-0.2813782E+03)
 number of electron       8.0000000 magnetization 
 augmentation part        8.0000000 magnetization 

 Free energy of the ion-electron system (eV)
  ---------------------------------------------------
  alpha Z        PSCENC =         3.29228976
  Ewald energy   TEWEN  =      -226.92444198
  -Hartree energ DENC   =       -15.17277769
  -exchange      EXHF   =         0.00000000
  -V(xc)+E(xc)   XCENC  =       -18.06036271
  PAW double counting   =       827.72450972     -792.74337885
  entropy T*S    EENTRO =        -0.00098639
  eigenvalues    EBANDS =        21.57051873
  atomic energy  EATOM  =       206.13149246
  Solvation  Ediel_sol  =         0.00000000
  ---------------------------------------------------
  free energy    TOTEN  =         5.81686306 eV

  energy without entropy =        5.81784945  energy(sigma->0) =        5.81735626


--------------------------------------------------------------------------------------------------------




--------------------------------------- Iteration      1(   2)  ---------------------------------------


     EDDAV:  cpu time    4.1653: real time    4.1633
       DOS:  cpu time    0.0012: real time    0.0012
    --------------------------------------------
      LOOP:  cpu time    4.1665: real time    4.1645

 eigenvalue-minimisations  :  5872
 total energy-change (2. order) :-0.1499355E+02  (-0.1439892E+02)
 number of electron       8.0000000 magnetization 
 augmentation part        8.0000000 magnetization 

 Free energy of the ion-electron system (eV)
  ---------------------------------------------------
  alpha Z        PSCENC =         3.29228976
  Ewald energy   TEWEN  =      -226.92444198
  -Hartree energ DENC   =       -15.17277769
  -exchange      EXHF   =         0.00000000
  -V(xc)+E(xc)   XCENC  =       -18.06036271
  PAW double counting   =       827.72450972     -792.74337885
  entropy T*S    EENTRO =        -0.00000021
  eigenvalues    EBANDS =         6.57598108
  atomic energy  EATOM  =       206.13149246
  Solvation  Ediel_sol  =         0.00000000
  ---------------------------------------------------
  free energy    TOTEN  =        -9.17668841 eV

  energy without entropy =       -9.17668820  energy(sigma->0) =       -9.17668831


--------------------------------------------------------------------------------------------------------




--------------------------------------- Iteration      1(   3)  ---------------------------------------


     EDDAV:  cpu time    4.0305: real time    4.0239
       DOS:  cpu time    0.0010: real time    0.0011
    --------------------------------------------
      LOOP:  cpu time    4.0315: real time    4.0251

 eigenvalue-minimisations  :  5032
 total energy-change (2. order) :-0.2225408E+00  (-0.2225406E+00)
 number of electron       8.0000000 magnetization 
 augmentation part        8.0000000 magnetization 

 Free energy of the ion-electron system (eV)
  ---------------------------------------------------
  alpha Z        PSCENC =         3.29228976
  Ewald energy   TEWEN  =      -226.92444198
  -Hartree energ DENC   =       -15.17277769
  -exchange      EXHF   =         0.00000000
  -V(xc)+E(xc)   XCENC  =       -18.06036271
  PAW double counting   =       827.72450972     -792.74337885
  entropy T*S    EENTRO =        -0.00000000
  eigenvalues    EBANDS =         6.35344002
  atomic energy  EATOM  =       206.13149246
  Solvation  Ediel_sol  =         0.00000000
  ---------------------------------------------------
  free energy    TOTEN  =        -9.39922926 eV

  energy without entropy =       -9.39922926  energy(sigma->0) =       -9.39922926


--------------------------------------------------------------------------------------------------------




--------------------------------------- Iteration      1(   4)  ---------------------------------------


     EDDAV:  cpu time    5.0526: real time    5.0409
       DOS:  cpu time    0.0010: real time    0.0010
    --------------------------------------------
      LOOP:  cpu time    5.0536: real time    5.0419

 eigenvalue-minimisations  :  6448
 total energy-change (2. order) :-0.9330837E-03  (-0.9330836E-03)
 number of electron       8.0000000 magnetization 
 augmentation part        8.0000000 magnetization 

 Free energy of the ion-electron system (eV)
  ---------------------------------------------------
  alpha Z        PSCENC =         3.29228976
  Ewald energy   TEWEN  =      -226.92444198
  -Hartree energ DENC   =       -15.17277769
  -exchange      EXHF   =         0.00000000
  -V(xc)+E(xc)   XCENC  =       -18.06036271
  PAW double counting   =       827.72450972     -792.74337885
  entropy T*S    EENTRO =        -0.00000000
  eigenvalues    EBANDS =         6.35250694
  atomic energy  EATOM  =       206.13149246
  Solvation  Ediel_sol  =         0.00000000
  ---------------------------------------------------
  free energy    TOTEN  =        -9.40016234 eV

  energy without entropy =       -9.40016234  energy(sigma->0) =       -9.40016234


--------------------------------------------------------------------------------------------------------




--------------------------------------- Iteration      1(   5)  ---------------------------------------


     EDDAV:  cpu time    3.8943: real time    3.8857
       DOS:  cpu time    0.0007: real time    0.0010
    --------------------------------------------
      LOOP:  cpu time    3.8950: real time    3.8867

 eigenvalue-minimisations  :  4976
 total energy-change (2. order) :-0.1932820E-05  (-0.1932984E-05)
 number of electron       8.0000000 magnetization 
 augmentation part        8.0000000 magnetization 

 Free energy of the ion-electron system (eV)
  ---------------------------------------------------
  alpha Z        PSCENC =         3.29228976
  Ewald energy   TEWEN  =      -226.92444198
  -Hartree energ DENC   =       -15.17277769
  -exchange      EXHF   =         0.00000000
  -V(xc)+E(xc)   XCENC  =       -18.06036271
  PAW double counting   =       827.72450972     -792.74337885
  entropy T*S    EENTRO =        -0.00000000
  eigenvalues    EBANDS =         6.35250501
  atomic energy  EATOM  =       206.13149246
  Solvation  Ediel_sol  =         0.00000000
  ---------------------------------------------------
  free energy    TOTEN  =        -9.40016428 eV

  energy without entropy =       -9.40016428  energy(sigma->0) =       -9.40016428


--------------------------------------------------------------------------------------------------------




--------------------------------------- Iteration      1(   6)  ---------------------------------------


     EDDAV:  cpu time    5.1719: real time    5.1628
       DOS:  cpu time    0.0010: real time    0.0011
    --------------------------------------------
      LOOP:  cpu time    5.1729: real time    5.1638

 eigenvalue-minimisations  :  6256
 total energy-change (2. order) :-0.2473882E-07  (-0.2473874E-07)
 number of electron       8.0000000 magnetization 
 augmentation part        8.0000000 magnetization 

 Free energy of the ion-electron system (eV)
  ---------------------------------------------------
  alpha Z        PSCENC =         3.29228976
  Ewald energy   TEWEN  =      -226.92444198
  -Hartree energ DENC   =       -15.17277769
  -exchange      EXHF   =         0.00000000
  -V(xc)+E(xc)   XCENC  =       -18.06036271
  PAW double counting   =       827.72450972     -792.74337885
  entropy T*S    EENTRO =        -0.00000000
  eigenvalues    EBANDS =         6.35250498
  atomic energy  EATOM  =       206.13149246
  Solvation  Ediel_sol  =         0.00000000
  ---------------------------------------------------
  free energy    TOTEN  =        -9.40016430 eV

  energy without entropy =       -9.40016430  energy(sigma->0) =       -9.40016430


--------------------------------------------------------------------------------------------------------




 average (electrostatic) potential at core
  the test charge radii are     0.9892
  (the norm of the test charge is              1.0000)
       1 -83.4854       2 -83.4854



 E-fermi :   5.8760     XC(G=0):  -9.3264     alpha+bet :-11.7285


 k-point     1 :       0.0000    0.0000    0.0000
  band No.  band energies     occupation 
      1      -6.1998      2.00000
      2       5.6131      2.00000
      3       5.6131      2.00000
      4       5.6131      2.00000
      5       8.1703      0.00000
      6       8.1703      0.00000
      7       8.1703      0.00000
      8       8.7437      0.00000

 k-point     2 :       0.0128    0.0000    0.0128
  band No.  band energies     occupation 
      1      -6.1969      2.00000
      2       5.5924      2.00000
      3       5.6009      2.00000
      4       5.6009      2.00000
      5       8.1632      0.00000
      6       8.1860      0.00000
      7       8.1860      0.00000
      8       8.7640      0.00000

 k-point     3 :       0.0256    0.0000    0.0256
  band No.  band energies     occupation 
      1      -6.1885      2.00000
      2       5.5320      2.00000
      3       5.5653      2.00000
      4       5.5653      2.00000
      5       8.1423      0.00000
      6       8.2320      0.00000
      7       8.2320      0.00000
      8       8.8231      0.00000

 k-point     4 :       0.0385    0.0000    0.0385
  band No.  band energies     occupation 
      1      -6.1744      2.00000
      2       5.4362      2.00000
      3       5.5086      2.00000
      4       5.5086      2.00000
      5       8.1081      0.00000
      6       8.3061      0.00000
      7       8.3061      0.00000
      8       8.9160      0.00000

 k-point     5 :       0.0513    0.0000    0.0513
  band No.  band energies     occupation 
      1      -6.1546      2.00000
      2       5.3106      2.00000
      3       5.4344      2.00000
      4       5.4344      2.00000
      5       8.0617      0.00000
      6       8.4047      0.00000
      7       8.4047      0.00000
      8       9.0360      0.00000

 k-point     6 :       0.0641    0.0000    0.0641
  band No.  band energies     occupation 
      1      -6.1292      2.00000
      2       5.1613      2.00000
      3       5.3461      2.00000
      4       5.3461      2.00000
      5       8.0044      0.00000
      6       8.5241      0.00000
      7       8.5241      0.00000
      8       9.1754      0.00000

 k-point     7 :       0.0769    0.0000    0.0769
  band No.  band energies     occupation 
      1      -6.0981      2.00000
      2       4.9933      2.00000
      3       5.2473      2.00000
      4       5.2473      2.00000
      5       7.9377      0.00000
      6       8.6611      0.00000
      7       8.6611      0.00000
      8       9.3263      0.00000

 k-point     8 :       0.0897    0.0000    0.0897
  band No.  band energies     occupation 
      1      -6.0614      2.00000
      2       4.8110      2.00000
      3       5.1408      2.00000
      4       5.1408      2.00000
      5       7.8631      0.00000
      6       8.8125      0.00000
      7       8.8125      0.00000
      8       9.4801      0.00000

 k-point     9 :       0.1026    0.0000    0.1026
  band No.  band energies     occupation 
      1      -6.0192      2.00000
      2       4.6178      2.00000
      3       5.0292      2.00000
      4       5.0292      2.00000
      5       7.7821      0.00000
      6       8.9759      0.00000
      7       8.9759      0.00000
      8       9.6271      0.00000

 k-point    10 :       0.1154    0.0000    0.1154
  band No.  band energies     occupation 
      1      -5.9713      2.00000
      2       4.4162      2.00000
      3       4.9142      2.00000
      4       4.9142      2.00000
      5       7.6961      0.00000
      6       9.1493      0.00000
      7       9.1493      0.00000
      8       9.7555      0.00000

 k-point    11 :       0.1282    0.0000    0.1282
  band No.  band energies     occupation 
      1      -5.9179      2.00000
      2       4.2081      2.00000
      3       4.7976      2.00000
      4       4.7976      2.00000
      5       7.6066      0.00000
      6       9.3310      0.00000
      7       9.3310      0.00000
      8       9.8509      0.00000

 k-point    12 :       0.1410    0.0000    0.1410
  band No.  band energies     occupation 
      1      -5.8589      2.00000
      2       3.9952      2.00000
      3       4.6805      2.00000
      4       4.6805      2.00000
      5       7.5147      0.00000
      6       9.5198      0.00000
      7       9.5198      0.00000
      8       9.8989      0.00000

 k-point    13 :       0.1538    0.0000    0.1538
  band No.  band energies     occupation 
      1      -5.7944      2.00000
      2       3.7784      2.00000
      3       4.5639      2.00000
      4       4.5639      2.00000
      5       7.4216      0.00000
      6       9.7146      0.00000
      7       9.7146      0.00000
      8       9.8894      0.00000

 k-point    14 :       0.1667    0.0000    0.1667
  band No.  band energies     occupation 
      1      -5.7244      2.00000
      2       3.5587      2.00000
      3       4.4487      2.00000
      4       4.4487      2.00000
      5       7.3283      0.00000
      6       9.8234      0.00000
      7       9.9146      0.00000
      8       9.9146      0.00000

 k-point    15 :       0.1795    0.0000    0.1795
  band No.  band energies     occupation 
      1      -5.6489      2.00000
      2       3.3368      2.00000
      3       4.3353      2.00000
      4       4.3353      2.00000
      5       7.2354      0.00000
      6       9.7107      0.00000
      7      10.1190      0.00000
      8      10.1190      0.00000

 k-point    16 :       0.1923    0.0000    0.1923
  band No.  band energies     occupation 
      1      -5.5680      2.00000
      2       3.1131      2.00000
      3       4.2244      2.00000
      4       4.2244      2.00000
      5       7.1440      0.00000
      6       9.5648      0.00000
      7      10.3273      0.00000
      8      10.3273      0.00000

 k-point    17 :       0.2051    0.0000    0.2051
  band No.  band energies     occupation 
      1      -5.4817      2.00000
      2       2.8881      2.00000
      3       4.1163      2.00000
      4       4.1163      2.00000
      5       7.0546      0.00000
      6       9.3975      0.00000
      7      10.5391      0.00000
      8      10.5391      0.00000

 k-point    18 :       0.2179    0.0000    0.2179
  band No.  band energies     occupation 
      1      -5.3900      2.00000
      2       2.6621      2.00000
      3       4.0115      2.00000
      4       4.0115      2.00000
      5       6.9679      0.00000
      6       9.2178      0.00000
      7      10.7542      0.00000
      8      10.7542      0.00000

 k-point    19 :       0.2308    0.0000    0.2308
  band No.  band energies     occupation 
      1      -5.2930      2.00000
      2       2.4354      2.00000
      3       3.9101      2.00000
      4       3.9101      2.00000
      5       6.8842      0.00000
      6       9.0318      0.00000
      7      10.9718      0.00000
      8      10.9718      0.00000

 k-point    20 :       0.2436    0.0000    0.2436
  band No.  band energies     occupation 
      1      -5.1906      2.00000
      2       2.2083      2.00000
      3       3.8124      2.00000
      4       3.8124      2.00000
      5       6.8041      0.00000
      6       8.8437      0.00000
      7      11.1918      0.00000
      8      11.1918      0.00000

 k-point    21 :       0.2564    0.0000    0.2564
  band No.  band energies     occupation 
      1      -5.0830      2.00000
      2       1.9810      2.00000
      3       3.7186      2.00000
      4       3.7186      2.00000
      5       6.7280      0.00000
      6       8.6566      0.00000
      7      11.4141      0.00000
      8      11.4142      0.00000

 k-point    22 :       0.2692    0.0000    0.2692
  band No.  band energies     occupation 
      1      -4.9703      2.00000
      2       1.7536      2.00000
      3       3.6290      2.00000
      4       3.6290      2.00000
      5       6.6563      0.00000
      6       8.4724      0.00000
      7      11.6384      0.00000
      8      11.6384      0.00000

 k-point    23 :       0.2821    0.0000    0.2821
  band No.  band energies     occupation 
      1      -4.8524      2.00000
      2       1.5264      2.00000
      3       3.5436      2.00000
      4       3.5436      2.00000
      5       6.5892      0.00000
      6       8.2927      0.00000
      7      11.8646      0.00000
      8      11.8646      0.00000

 k-point    24 :       0.2949    0.0000    0.2949
  band No.  band energies     occupation 
      1      -4.7294      2.00000
      2       1.2996      2.00000
      3       3.4626      2.00000
      4       3.4626      2.00000
      5       6.5270      0.00000
      6       8.1186      0.00000
      7      12.0925      0.00000
      8      12.0927      0.00000

 k-point    25 :       0.3077    0.0000    0.3077
  band No.  band energies     occupation 
      1      -4.6013      2.00000
      2       1.0733      2.00000
      3       3.3860      2.00000
      4       3.3860      2.00000
      5       6.4700      0.00000
      6       7.9507      0.00000
      7      12.3220      0.00000
      8      12.3220      0.00000

 k-point    26 :       0.3205    0.0000    0.3205
  band No.  band energies     occupation 
      1      -4.4683      2.00000
      2       0.8477      2.00000
      3       3.3141      2.00000
      4       3.3141      2.00000
      5       6.4185      0.00000
      6       7.7897      0.00000
      7      12.5531      0.00000
      8      12.5531      0.00000

 k-point    27 :       0.3333    0.0000    0.3333
  band No.  band energies     occupation 
      1      -4.3304      2.00000
      2       0.6231      2.00000
      3       3.2468      2.00000
      4       3.2468      2.00000
      5       6.3724      0.00000
      6       7.6357      0.00000
      7      12.7855      0.00000
      8      12.7855      0.00000

 k-point    28 :       0.3462    0.0000    0.3462
  band No.  band energies     occupation 
      1      -4.1877      2.00000
      2       0.3995      2.00000
      3       3.1842      2.00000
      4       3.1842      2.00000
      5       6.3323      0.00000
      6       7.4898      0.00000
      7      13.0194      0.00000
      8      13.0194      0.00000

 k-point    29 :       0.3590    0.0000    0.3590
  band No.  band energies     occupation 
      1      -4.0402      2.00000
      2       0.1771      2.00000
      3       3.1264      2.00000
      4       3.1264      2.00000
      5       6.2983      0.00000
      6       7.3517      0.00000
      7      13.2545      0.00000
      8      13.2546      0.00000

 k-point    30 :       0.3718    0.0000    0.3718
  band No.  band energies     occupation 
      1      -3.8881      2.00000
      2      -0.0437      2.00000
      3       3.0736      2.00000
      4       3.0736      2.00000
      5       6.2705      0.00000
      6       7.2215      0.00000
      7      13.4907      0.00000
      8      13.4907      0.00000

 k-point    31 :       0.3846    0.0000    0.3846
  band No.  band energies     occupation 
      1      -3.7314      2.00000
      2      -0.2630      2.00000
      3       3.0256      2.00000
      4       3.0256      2.00000
      5       6.2491      0.00000
      6       7.0994      0.00000
      7      13.7277      0.00000
      8      13.7277      0.00000

 k-point    32 :       0.3974    0.0000    0.3974
  band No.  band energies     occupation 
      1      -3.5702      2.00000
      2      -0.4804      2.00000
      3       2.9825      2.00000
      4       2.9825      2.00000
      5       6.2342      0.00000
      6       6.9855      0.00000
      7      13.9653      0.00000
      8      13.9654      0.00000

 k-point    33 :       0.4103    0.0000    0.4103
  band No.  band energies     occupation 
      1      -3.4046      2.00000
      2      -0.6958      2.00000
      3       2.9445      2.00000
      4       2.9445      2.00000
      5       6.2259      0.00000
      6       6.8798      0.00000
      7      14.2031      0.00000
      8      14.2031      0.00000

 k-point    34 :       0.4231    0.0000    0.4231
  band No.  band energies     occupation 
      1      -3.2347      2.00000
      2      -0.9090      2.00000
      3       2.9114      2.00000
      4       2.9114      2.00000
      5       6.2244      0.00000
      6       6.7823      0.00000
      7      14.4401      0.00000
      8      14.4402      0.00000

 k-point    35 :       0.4359    0.0000    0.4359
  band No.  band energies     occupation 
      1      -3.0607      2.00000
      2      -1.1199      2.00000
      3       2.8834      2.00000
      4       2.8834      2.00000
      5       6.2299      0.00000
      6       6.6929      0.00000
      7      14.6752      0.00000
      8      14.6752      0.00000

 k-point    36 :       0.4487    0.0000    0.4487
  band No.  band energies     occupation 
      1      -2.8826      2.00000
      2      -1.3281      2.00000
      3       2.8605      2.00000
      4       2.8605      2.00000
      5       6.2425      0.00000
      6       6.6116      0.00000
      7      14.9060      0.00000
      8      14.9060      0.00000

 k-point    37 :       0.4615    0.0000    0.4615
  band No.  band energies     occupation 
      1      -2.7006      2.00000
      2      -1.5337      2.00000
      3       2.8426      2.00000
      4       2.8426      2.00000
      5       6.2622      0.00000
      6       6.5384      0.00000
      7      15.1273      0.00000
      8      15.1273      0.00000

 k-point    38 :       0.4744    0.0000    0.4744
  band No.  band energies     occupation 
      1      -2.5148      2.00000
      2      -1.7363      2.00000
      3       2.8299      2.00000
      4       2.8299      2.00000
      5       6.2893      0.00000
      6       6.4730      0.00000
      7      15.3283      0.00000
      8      15.3284      0.00000

 k-point    39 :       0.4872    0.0000    0.4872
  band No.  band energies     occupation 
      1      -2.3253      2.00000
      2      -1.9359      2.00000
      3       2.8222      2.00000
      4       2.8222      2.00000
      5       6.3238      0.00000
      6       6.4156      0.00000
      7      15.4845      0.00000
      8      15.4850      0.00000

 k-point    40 :       0.5000    0.0000    0.5000
  band No.  band energies     occupation 
      1      -2.1323      2.00000
      2      -2.1323      2.00000
      3       2.8196      2.00000
      4       2.8196      2.00000
      5       6.3659      0.00000
      6       6.3659      0.00000
      7      15.5479      0.00000
      8      15.5486      0.00000

 k-point    41 :       0.5000    0.0000    0.5000
  band No.  band energies     occupation 
      1      -2.1323      2.00000
      2      -2.1323      2.00000
      3       2.8196      2.00000
      4       2.8196      2.00000
      5       6.3659      0.00000
      6       6.3659      0.00000
      7      15.5478      0.00000
      8      15.5493      0.00000

 k-point    42 :       0.5000    0.0064    0.5064
  band No.  band energies     occupation 
      1      -2.1321      2.00000
      2      -2.1321      2.00000
      3       2.8175      2.00000
      4       2.8175      2.00000
      5       6.3698      0.00000
      6       6.3698      0.00000
      7      15.5419      0.00000
      8      15.5420      0.00000

 k-point    43 :       0.5000    0.0128    0.5128
  band No.  band energies     occupation 
      1      -2.1314      2.00000
      2      -2.1314      2.00000
      3       2.8112      2.00000
      4       2.8112      2.00000
      5       6.3815      0.00000
      6       6.3815      0.00000
      7      15.5233      0.00000
      8      15.5286      0.00000

 k-point    44 :       0.5000    0.0192    0.5192
  band No.  band energies     occupation 
      1      -2.1303      2.00000
      2      -2.1303      2.00000
      3       2.8007      2.00000
      4       2.8007      2.00000
      5       6.4010      0.00000
      6       6.4010      0.00000
      7      15.4912      0.00000
      8      15.4915      0.00000

 k-point    45 :       0.5000    0.0256    0.5256
  band No.  band energies     occupation 
      1      -2.1287      2.00000
      2      -2.1287      2.00000
      3       2.7863      2.00000
      4       2.7863      2.00000
      5       6.4279      0.00000
      6       6.4279      0.00000
      7      15.4444      0.00000
      8      15.4454      0.00000

 k-point    46 :       0.5000    0.0321    0.5321
  band No.  band energies     occupation 
      1      -2.1267      2.00000
      2      -2.1267      2.00000
      3       2.7681      2.00000
      4       2.7681      2.00000
      5       6.4623      0.00000
      6       6.4623      0.00000
      7      15.3817      0.00000
      8      15.3843      0.00000

 k-point    47 :       0.5000    0.0385    0.5385
  band No.  band energies     occupation 
      1      -2.1242      2.00000
      2      -2.1242      2.00000
      3       2.7464      2.00000
      4       2.7464      2.00000
      5       6.5037      0.00000
      6       6.5037      0.00000
      7      15.3030      0.00000
      8      15.3032      0.00000

 k-point    48 :       0.5000    0.0449    0.5449
  band No.  band energies     occupation 
      1      -2.1213      2.00000
      2      -2.1213      2.00000
      3       2.7216      2.00000
      4       2.7216      2.00000
      5       6.5519      0.00000
      6       6.5519      0.00000
      7      15.2080      0.00000
      8      15.2081      0.00000

 k-point    49 :       0.5000    0.0513    0.5513
  band No.  band energies     occupation 
      1      -2.1180      2.00000
      2      -2.1180      2.00000
      3       2.6939      2.00000
      4       2.6939      2.00000
      5       6.6065      0.00000
      6       6.6065      0.00000
      7      15.0988      0.00000
      8      15.0989      0.00000

 k-point    50 :       0.5000    0.0577    0.5577
  band No.  band energies     occupation 
      1      -2.1144      2.00000
      2      -2.1144      2.00000
      3       2.6636      2.00000
      4       2.6636      2.00000
      5       6.6675      0.00000
      6       6.6675      0.00000
      7      14.9773      0.00000
      8      14.9773      0.00000

 k-point    51 :       0.5000    0.0641    0.5641
  band No.  band energies     occupation 
      1      -2.1104      2.00000
      2      -2.1104      2.00000
      3       2.6312      2.00000
      4       2.6312      2.00000
      5       6.7341      0.00000
      6       6.7341      0.00000
      7      14.8455      0.00000
      8      14.8455      0.00000

 k-point    52 :       0.5000    0.0705    0.5705
  band No.  band energies     occupation 
      1      -2.1060      2.00000
      2      -2.1060      2.00000
      3       2.5970      2.00000
      4       2.5970      2.00000
      5       6.8062      0.00000
      6       6.8062      0.00000
      7      14.7055      0.00000
      8      14.7057      0.00000

 k-point    53 :       0.5000    0.0769    0.5769
  band No.  band energies     occupation 
      1      -2.1013      2.00000
      2      -2.1013      2.00000
      3       2.5612      2.00000
      4       2.5612      2.00000
      5       6.8837      0.00000
      6       6.8837      0.00000
      7      14.5593      0.00000
      8      14.5594      0.00000

 k-point    54 :       0.5000    0.0833    0.5833
  band No.  band energies     occupation 
      1      -2.0963      2.00000
      2      -2.0963      2.00000
      3       2.5242      2.00000
      4       2.5242      2.00000
      5       6.9659      0.00000
      6       6.9659      0.00000
      7      14.4082      0.00000
      8      14.4082      0.00000

 k-point    55 :       0.5000    0.0897    0.5897
  band No.  band energies     occupation 
      1      -2.0910      2.00000
      2      -2.0910      2.00000
      3       2.4864      2.00000
      4       2.4864      2.00000
      5       7.0527      0.00000
      6       7.0527      0.00000
      7      14.2532      0.00000
      8      14.2532      0.00000

 k-point    56 :       0.5000    0.0962    0.5962
  band No.  band energies     occupation 
      1      -2.0855      2.00000
      2      -2.0855      2.00000
      3       2.4480      2.00000
      4       2.4480      2.00000
      5       7.1437      0.00000
      6       7.1437      0.00000
      7      14.0952      0.00000
      8      14.0952      0.00000

 k-point    57 :       0.5000    0.1026    0.6026
  band No.  band energies     occupation 
      1      -2.0798      2.00000
      2      -2.0798      2.00000
      3       2.4093      2.00000
      4       2.4093      2.00000
      5       7.2388      0.00000
      6       7.2388      0.00000
      7      13.9351      0.00000
      8      13.9351      0.00000

 k-point    58 :       0.5000    0.1090    0.6090
  band No.  band energies     occupation 
      1      -2.0739      2.00000
      2      -2.0739      2.00000
      3       2.3705      2.00000
      4       2.3705      2.00000
      5       7.3377      0.00000
      6       7.3377      0.00000
      7      13.7735      0.00000
      8      13.7735      0.00000

 k-point    59 :       0.5000    0.1154    0.6154
  band No.  band energies     occupation 
      1      -2.0679      2.00000
      2      -2.0679      2.00000
      3       2.3319      2.00000
      4       2.3319      2.00000
      5       7.4402      0.00000
      6       7.4402      0.00000
      7      13.6106      0.00000
      8      13.6107      0.00000

 k-point    60 :       0.5000    0.1218    0.6218
  band No.  band energies     occupation 
      1      -2.0617      2.00000
      2      -2.0617      2.00000
      3       2.2937      2.00000
      4       2.2937      2.00000
      5       7.5460      0.00000
      6       7.5460      0.00000
      7      13.4470      0.00000
      8      13.4471      0.00000

 k-point    61 :       0.5000    0.1282    0.6282
  band No.  band energies     occupation 
      1      -2.0555      2.00000
      2      -2.0555      2.00000
      3       2.2562      2.00000
      4       2.2562      2.00000
      5       7.6550      0.00000
      6       7.6550      0.00000
      7      13.2830      0.00000
      8      13.2830      0.00000

 k-point    62 :       0.5000    0.1346    0.6346
  band No.  band energies     occupation 
      1      -2.0493      2.00000
      2      -2.0493      2.00000
      3       2.2195      2.00000
      4       2.2195      2.00000
      5       7.7669      0.00000
      6       7.7669      0.00000
      7      13.1187      0.00000
      8      13.1187      0.00000

 k-point    63 :       0.5000    0.1410    0.6410
  band No.  band energies     occupation 
      1      -2.0431      2.00000
      2      -2.0431      2.00000
      3       2.1838      2.00000
      4       2.1838      2.00000
      5       7.8817      0.00000
      6       7.8817      0.00000
      7      12.9544      0.00000
      8      12.9544      0.00000

 k-point    64 :       0.5000    0.1474    0.6474
  band No.  band energies     occupation 
      1      -2.0369      2.00000
      2      -2.0369      2.00000
      3       2.1493      2.00000
      4       2.1493      2.00000
      5       7.9991      0.00000
      6       7.9991      0.00000
      7      12.7903      0.00000
      8      12.7903      0.00000

 k-point    65 :       0.5000    0.1538    0.6538
  band No.  band energies     occupation 
      1      -2.0309      2.00000
      2      -2.0309      2.00000
      3       2.1161      2.00000
      4       2.1161      2.00000
      5       8.1189      0.00000
      6       8.1189      0.00000
      7      12.6266      0.00000
      8      12.6266      0.00000

 k-point    66 :       0.5000    0.1603    0.6603
  band No.  band energies     occupation 
      1      -2.0250      2.00000
      2      -2.0250      2.00000
      3       2.0844      2.00000
      4       2.0844      2.00000
      5       8.2411      0.00000
      6       8.2411      0.00000
      7      12.4635      0.00000
      8      12.4635      0.00000

 k-point    67 :       0.5000    0.1667    0.6667
  band No.  band energies     occupation 
      1      -2.0192      2.00000
      2      -2.0192      2.00000
      3       2.0543      2.00000
      4       2.0543      2.00000
      5       8.3654      0.00000
      6       8.3654      0.00000
      7      12.3011      0.00000
      8      12.3011      0.00000

 k-point    68 :       0.5000    0.1731    0.6731
  band No.  band energies     occupation 
      1      -2.0137      2.00000
      2      -2.0137      2.00000
      3       2.0259      2.00000
      4       2.0259      2.00000
      5       8.4917      0.00000
      6       8.4917      0.00000
      7      12.1395      0.00000
      8      12.1395      0.00000

 k-point    69 :       0.5000    0.1795    0.6795
  band No.  band energies     occupation 
      1      -2.0085      2.00000
      2      -2.0085      2.00000
      3       1.9994      2.00000
      4       1.9994      2.00000
      5       8.6198      0.00000
      6       8.6198      0.00000
      7      11.9790      0.00000
      8      11.9790      0.00000

 k-point    70 :       0.5000    0.1859    0.6859
  band No.  band energies     occupation 
      1      -2.0035      2.00000
      2      -2.0035      2.00000
      3       1.9748      2.00000
      4       1.9748      2.00000
      5       8.7495      0.00000
      6       8.7495      0.00000
      7      11.8196      0.00000
      8      11.8196      0.00000

 k-point    71 :       0.5000    0.1923    0.6923
  band No.  band energies     occupation 
      1      -1.9989      2.00000
      2      -1.9989      2.00000
      3       1.9523      2.00000
      4       1.9523      2.00000
      5       8.8806      0.00000
      6       8.8806      0.00000
      7      11.6619      0.00000
      8      11.6619      0.00000

 k-point    72 :       0.5000    0.1987    0.6987
  band No.  band energies     occupation 
      1      -1.9947      2.00000
      2      -1.9947      2.00000
      3       1.9319      2.00000
      4       1.9319      2.00000
      5       9.0128      0.00000
      6       9.0128      0.00000
      7      11.5059      0.00000
      8      11.5059      0.00000

 k-point    73 :       0.5000    0.2051    0.7051
  band No.  band energies     occupation 
      1      -1.9909      2.00000
      2      -1.9909      2.00000
      3       1.9138      2.00000
      4       1.9138      2.00000
      5       9.1455      0.00000
      6       9.1455      0.00000
      7      11.3522      0.00000
      8      11.3522      0.00000

 k-point    74 :       0.5000    0.2115    0.7115
  band No.  band energies     occupation 
      1      -1.9875      2.00000
      2      -1.9875      2.00000
      3       1.8979      2.00000
      4       1.8979      2.00000
      5       9.2781      0.00000
      6       9.2781      0.00000
      7      11.2013      0.00000
      8      11.2013      0.00000

 k-point    75 :       0.5000    0.2179    0.7179
  band No.  band energies     occupation 
      1      -1.9846      2.00000
      2      -1.9846      2.00000
      3       1.8844      2.00000
      4       1.8844      2.00000
      5       9.4097      0.00000
      6       9.4097      0.00000
      7      11.0543      0.00000
      8      11.0543      0.00000

 k-point    76 :       0.5000    0.2244    0.7244
  band No.  band energies     occupation 
      1      -1.9822      2.00000
      2      -1.9822      2.00000
      3       1.8732      2.00000
      4       1.8732      2.00000
      5       9.5384      0.00000
      6       9.5384      0.00000
      7      10.9130      0.00000
      8      10.9130      0.00000

 k-point    77 :       0.5000    0.2308    0.7308
  band No.  band energies     occupation 
      1      -1.9803      2.00000
      2      -1.9803      2.00000
      3       1.8645      2.00000
      4       1.8645      2.00000
      5       9.6608      0.00000
      6       9.6608      0.00000
      7      10.7808      0.00000
      8      10.7808      0.00000

 k-point    78 :       0.5000    0.2372    0.7372
  band No.  band energies     occupation 
      1      -1.9790      2.00000
      2      -1.9790      2.00000
      3       1.8582      2.00000
      4       1.8582      2.00000
      5       9.7701      0.00000
      6       9.7701      0.00000
      7      10.6645      0.00000
      8      10.6645      0.00000

 k-point    79 :       0.5000    0.2436    0.7436
  band No.  band energies     occupation 
      1      -1.9781      2.00000
      2      -1.9781      2.00000
      3       1.8545      2.00000
      4       1.8545      2.00000
      5       9.8522      0.00000
      6       9.8522      0.00000
      7      10.5781      0.00000
      8      10.5781      0.00000

 k-point    80 :       0.5000    0.2500    0.7500
  band No.  band energies     occupation 
      1      -1.9779      2.00000
      2      -1.9779      2.00000
      3       1.8532      2.00000
      4       1.8532      2.00000
      5       9.8843      0.00000
      6       9.8843      0.00000
      7      10.5446      0.00000
      8      10.5446      0.00000

 k-point    81 :       0.5000    0.2500    0.7500
  band No.  band energies     occupation 
      1      -1.9779      2.00000
      2      -1.9779      2.00000
      3       1.8532      2.00000
      4       1.8532      2.00000
      5       9.8843      0.00000
      6       9.8843      0.00000
      7      10.5446      0.00000
      8      10.5446      0.00000

 k-point    82 :       0.5000    0.2564    0.7436
  band No.  band energies     occupation 
      1      -2.0603      2.00000
      2      -1.8962      2.00000
      3       1.7945      2.00000
      4       1.9169      2.00000
      5       9.8158      0.00000
      6       9.9337      0.00000
      7      10.4901      0.00000
      8      10.6241      0.00000

 k-point    83 :       0.5000    0.2628    0.7372
  band No.  band energies     occupation 
      1      -2.1430      2.00000
      2      -1.8156      2.00000
      3       1.7413      2.00000
      4       1.9851      2.00000
      5       9.7386      0.00000
      6       9.9496      0.00000
      7      10.4749      0.00000
      8      10.7182      0.00000

 k-point    84 :       0.5000    0.2692    0.7308
  band No.  band energies     occupation 
      1      -2.2257      2.00000
      2      -1.7368      2.00000
      3       1.6942      2.00000
      4       2.0573      2.00000
      5       9.6582      0.00000
      6       9.9254      0.00000
      7      10.5057      0.00000
      8      10.8214      0.00000

 k-point    85 :       0.5000    0.2756    0.7244
  band No.  band energies     occupation 
      1      -2.3081      2.00000
      2      -1.6602      2.00000
      3       1.6537      2.00000
      4       2.1331      2.00000
      5       9.5775      0.00000
      6       9.8705      0.00000
      7      10.5728      0.00000
      8      10.9306      0.00000

 k-point    86 :       0.5000    0.2821    0.7179
  band No.  band energies     occupation 
      1      -2.3897      2.00000
      2      -1.5864      2.00000
      3       1.6206      2.00000
      4       2.2121      2.00000
      5       9.4982      0.00000
      6       9.7984      0.00000
      7      10.6628      0.00000
      8      11.0445      0.00000

 k-point    87 :       0.5000    0.2885    0.7115
  band No.  band energies     occupation 
      1      -2.4705      2.00000
      2      -1.5160      2.00000
      3       1.5954      2.00000
      4       2.2940      2.00000
      5       9.4212      0.00000
      6       9.7180      0.00000
      7      10.7668      0.00000
      8      11.1620      0.00000

 k-point    88 :       0.5000    0.2949    0.7051
  band No.  band energies     occupation 
      1      -2.5501      2.00000
      2      -1.4497      2.00000
      3       1.5788      2.00000
      4       2.3783      2.00000
      5       9.3469      0.00000
      6       9.6339      0.00000
      7      10.8800      0.00000
      8      11.2826      0.00000

 k-point    89 :       0.5000    0.3013    0.6987
  band No.  band energies     occupation 
      1      -2.6284      2.00000
      2      -1.3880      2.00000
      3       1.5715      2.00000
      4       2.4647      2.00000
      5       9.2760      0.00000
      6       9.5485      0.00000
      7      11.0001      0.00000
      8      11.4059      0.00000

 k-point    90 :       0.5000    0.3077    0.6923
  band No.  band energies     occupation 
      1      -2.7053      2.00000
      2      -1.3316      2.00000
      3       1.5740      2.00000
      4       2.5529      2.00000
      5       9.2087      0.00000
      6       9.4630      0.00000
      7      11.1257      0.00000
      8      11.5315      0.00000

 k-point    91 :       0.5000    0.3141    0.6859
  band No.  band energies     occupation 
      1      -2.7804      2.00000
      2      -1.2809      2.00000
      3       1.5867      2.00000
      4       2.6426      2.00000
      5       9.1452      0.00000
      6       9.3783      0.00000
      7      11.2560      0.00000
      8      11.6592      0.00000

 k-point    92 :       0.5000    0.3205    0.6795
  band No.  band energies     occupation 
      1      -2.8538      2.00000
      2      -1.2362      2.00000
      3       1.6102      2.00000
      4       2.7334      2.00000
      5       9.0856      0.00000
      6       9.2946      0.00000
      7      11.3905      0.00000
      8      11.7887      0.00000

 k-point    93 :       0.5000    0.3269    0.6731
  band No.  band energies     occupation 
      1      -2.9253      2.00000
      2      -1.1979      2.00000
      3       1.6445      2.00000
      4       2.8249      2.00000
      5       9.0302      0.00000
      6       9.2123      0.00000
      7      11.5288      0.00000
      8      11.9199      0.00000

 k-point    94 :       0.5000    0.3333    0.6667
  band No.  band energies     occupation 
      1      -2.9948      2.00000
      2      -1.1659      2.00000
      3       1.6898      2.00000
      4       2.9170      2.00000
      5       8.9792      0.00000
      6       9.1314      0.00000
      7      11.6707      0.00000
      8      12.0525      0.00000

 k-point    95 :       0.5000    0.3397    0.6603
  band No.  band energies     occupation 
      1      -3.0622      2.00000
      2      -1.1401      2.00000
      3       1.7458      2.00000
      4       3.0091      2.00000
      5       8.9326      0.00000
      6       9.0519      0.00000
      7      11.8158      0.00000
      8      12.1859      0.00000

 k-point    96 :       0.5000    0.3462    0.6538
  band No.  band energies     occupation 
      1      -3.1274      2.00000
      2      -1.1204      2.00000
      3       1.8122      2.00000
      4       3.1011      2.00000
      5       8.8906      0.00000
      6       8.9739      0.00000
      7      11.9635      0.00000
      8      12.3204      0.00000

 k-point    97 :       0.5000    0.3526    0.6474
  band No.  band energies     occupation 
      1      -3.1904      2.00000
      2      -1.1062      2.00000
      3       1.8888      2.00000
      4       3.1925      2.00000
      5       8.8533      0.00000
      6       8.8973      0.00000
      7      12.1085      0.00000
      8      12.3294      0.00000

 k-point    98 :       0.5000    0.3590    0.6410
  band No.  band energies     occupation 
      1      -3.2510      2.00000
      2      -1.0972      2.00000
      3       1.9747      2.00000
      4       3.2830      2.00000
      5       8.8205      0.00000
      6       8.8218      0.00000
      7      12.0574      0.00000
      8      12.2874      0.00000

 k-point    99 :       0.5000    0.3654    0.6346
  band No.  band energies     occupation 
      1      -3.3093      2.00000
      2      -1.0927      2.00000
      3       2.0695      2.00000
      4       3.3723      2.00000
      5       8.7474      0.00000
      6       8.7928      0.00000
      7      11.8187      0.00000
      8      12.4382      0.00000

 k-point   100 :       0.5000    0.3718    0.6282
  band No.  band energies     occupation 
      1      -3.3651      2.00000
      2      -1.0922      2.00000
      3       2.1723      2.00000
      4       3.4600      2.00000
      5       8.6737      0.00000
      6       8.7701      0.00000
      7      11.5789      0.00000
      8      12.5988      0.00000

 k-point   101 :       0.5000    0.3782    0.6218
  band No.  band energies     occupation 
      1      -3.4184      2.00000
      2      -1.0950      2.00000
      3       2.2825      2.00000
      4       3.5457      2.00000
      5       8.6005      0.00000
      6       8.7522      0.00000
      7      11.3431      0.00000
      8      12.7637      0.00000

 k-point   102 :       0.5000    0.3846    0.6154
  band No.  band energies     occupation 
      1      -3.4692      2.00000
      2      -1.1007      2.00000
      3       2.3993      2.00000
      4       3.6291      2.00000
      5       8.5273      0.00000
      6       8.7393      0.00000
      7      11.1126      0.00000
      8      12.9328      0.00000

 k-point   103 :       0.5000    0.3910    0.6090
  band No.  band energies     occupation 
      1      -3.5175      2.00000
      2      -1.1085      2.00000
      3       2.5220      2.00000
      4       3.7099      2.00000
      5       8.4537      0.00000
      6       8.7313      0.00000
      7      10.8887      0.00000
      8      13.1010      0.00000

 k-point   104 :       0.5000    0.3974    0.6026
  band No.  band energies     occupation 
      1      -3.5631      2.00000
      2      -1.1181      2.00000
      3       2.6497      2.00000
      4       3.7876      2.00000
      5       8.3791      0.00000
      6       8.7281      0.00000
      7      10.6721      0.00000
      8      13.2809      0.00000

 k-point   105 :       0.5000    0.4038    0.5962
  band No.  band energies     occupation 
      1      -3.6061      2.00000
      2      -1.1289      2.00000
      3       2.7818      2.00000
      4       3.8621      2.00000
      5       8.3028      0.00000
      6       8.7296      0.00000
      7      10.4640      0.00000
      8      13.4486      0.00000

 k-point   106 :       0.5000    0.4103    0.5897
  band No.  band energies     occupation 
      1      -3.6464      2.00000
      2      -1.1406      2.00000
      3       2.9175      2.00000
      4       3.9329      2.00000
      5       8.2241      0.00000
      6       8.7354      0.00000
      7      10.2657      0.00000
      8      13.5397      0.00000

 k-point   107 :       0.5000    0.4167    0.5833
  band No.  band energies     occupation 
      1      -3.6841      2.00000
      2      -1.1528      2.00000
      3       3.0560      2.00000
      4       3.9998      2.00000
      5       8.1421      0.00000
      6       8.7454      0.00000
      7      10.0787      0.00000
      8      13.6076      0.00000

 k-point   108 :       0.5000    0.4231    0.5769
  band No.  band energies     occupation 
      1      -3.7191      2.00000
      2      -1.1652      2.00000
      3       3.1963      2.00000
      4       4.0625      2.00000
      5       8.0562      0.00000
      6       8.7592      0.00000
      7       9.9041      0.00000
      8      13.6591      0.00000

 k-point   109 :       0.5000    0.4295    0.5705
  band No.  band energies     occupation 
      1      -3.7513      2.00000
      2      -1.1774      2.00000
      3       3.3376      2.00000
      4       4.1208      2.00000
      5       7.9657      0.00000
      6       8.7761      0.00000
      7       9.7434      0.00000
      8      13.6753      0.00000

 k-point   110 :       0.5000    0.4359    0.5641
  band No.  band energies     occupation 
      1      -3.7808      2.00000
      2      -1.1893      2.00000
      3       3.4788      2.00000
      4       4.1746      2.00000
      5       7.8704      0.00000
      6       8.7958      0.00000
      7       9.5977      0.00000
      8      13.6737      0.00000

 k-point   111 :       0.5000    0.4423    0.5577
  band No.  band energies     occupation 
      1      -3.8075      2.00000
      2      -1.2006      2.00000
      3       3.6186      2.00000
      4       4.2235      2.00000
      5       7.7707      0.00000
      6       8.8174      0.00000
      7       9.4677      0.00000
      8      13.6508      0.00000

 k-point   112 :       0.5000    0.4487    0.5513
  band No.  band energies     occupation 
      1      -3.8314      2.00000
      2      -1.2111      2.00000
      3       3.7554      2.00000
      4       4.2676      2.00000
      5       7.6674      0.00000
      6       8.8402      0.00000
      7       9.3540      0.00000
      8      13.6120      0.00000

 k-point   113 :       0.5000    0.4551    0.5449
  band No.  band energies     occupation 
      1      -3.8526      2.00000
      2      -1.2207      2.00000
      3       3.8874      2.00000
      4       4.3066      2.00000
      5       7.5625      0.00000
      6       8.8633      0.00000
      7       9.2564      0.00000
      8      13.5632      0.00000

 k-point   114 :       0.5000    0.4615    0.5385
  band No.  band energies     occupation 
      1      -3.8709      2.00000
      2      -1.2293      2.00000
      3       4.0124      2.00000
      4       4.3405      2.00000
      5       7.4585      0.00000
      6       8.8860      0.00000
      7       9.1745      0.00000
      8      13.5104      0.00000

 k-point   115 :       0.5000    0.4679    0.5321
  band No.  band energies     occupation 
      1      -3.8865      2.00000
      2      -1.2367      2.00000
      3       4.1276      2.00000
      4       4.3693      2.00000
      5       7.3590      0.00000
      6       8.9071      0.00000
      7       9.1073      0.00000
      8      13.4582      0.00000

 k-point   116 :       0.5000    0.4744    0.5256
  band No.  band energies     occupation 
      1      -3.8992      2.00000
      2      -1.2429      2.00000
      3       4.2298      2.00000
      4       4.3929      2.00000
      5       7.2681      0.00000
      6       8.9260      0.00000
      7       9.0540      0.00000
      8      13.4107      0.00000

 k-point   117 :       0.5000    0.4808    0.5192
  band No.  band energies     occupation 
      1      -3.9091      2.00000
      2      -1.2478      2.00000
      3       4.3154      2.00000
      4       4.4112      2.00000
      5       7.1902      0.00000
      6       8.9416      0.00000
      7       9.0137      0.00000
      8      13.3709      0.00000

 k-point   118 :       0.5000    0.4872    0.5128
  band No.  band energies     occupation 
      1      -3.9162      2.00000
      2      -1.2514      2.00000
      3       4.3803      2.00000
      4       4.4243      2.00000
      5       7.1302      0.00000
      6       8.9534      0.00000
      7       8.9854      0.00000
      8      13.3409      0.00000

 k-point   119 :       0.5000    0.4936    0.5064
  band No.  band energies     occupation 
      1      -3.9204      2.00000
      2      -1.2535      2.00000
      3       4.4209      2.00000
      4       4.4322      2.00000
      5       7.0922      0.00000
      6       8.9607      0.00000
      7       8.9687      0.00000
      8      13.3223      0.00000

 k-point   120 :       0.5000    0.5000    0.5000
  band No.  band energies     occupation 
      1      -3.9218      2.00000
      2      -1.2542      2.00000
      3       4.4348      2.00000
      4       4.4348      2.00000
      5       7.0792      0.00000
      6       8.9632      0.00000
      7       8.9632      0.00000
      8      13.3160      0.00000

 k-point   121 :       0.5000    0.5000    0.5000
  band No.  band energies     occupation 
      1      -3.9218      2.00000
      2      -1.2542      2.00000
      3       4.4348      2.00000
      4       4.4348      2.00000
      5       7.0792      0.00000
      6       8.9632      0.00000
      7       8.9632      0.00000
      8      13.3160      0.00000

 k-point   122 :       0.4872    0.4872    0.4872
  band No.  band energies     occupation 
      1      -3.9309      2.00000
      2      -1.2411      2.00000
      3       4.4360      2.00000
      4       4.4360      2.00000
      5       7.0805      0.00000
      6       8.9645      0.00000
      7       8.9645      0.00000
      8      13.3180      0.00000

 k-point   123 :       0.4744    0.4744    0.4744
  band No.  band energies     occupation 
      1      -3.9577      2.00000
      2      -1.2023      2.00000
      3       4.4395      2.00000
      4       4.4395      2.00000
      5       7.0846      0.00000
      6       8.9684      0.00000
      7       8.9684      0.00000
      8      13.3239      0.00000

 k-point   124 :       0.4615    0.4615    0.4615
  band No.  band energies     occupation 
      1      -4.0007      2.00000
      2      -1.1394      2.00000
      3       4.4453      2.00000
      4       4.4453      2.00000
      5       7.0915      0.00000
      6       8.9748      0.00000
      7       8.9748      0.00000
      8      13.3337      0.00000

 k-point   125 :       0.4487    0.4487    0.4487
  band No.  band energies     occupation 
      1      -4.0576      2.00000
      2      -1.0545      2.00000
      3       4.4535      2.00000
      4       4.4535      2.00000
      5       7.1009      0.00000
      6       8.9835      0.00000
      7       8.9835      0.00000
      8      13.3469      0.00000

 k-point   126 :       0.4359    0.4359    0.4359
  band No.  band energies     occupation 
      1      -4.1261      2.00000
      2      -0.9500      2.00000
      3       4.4640      2.00000
      4       4.4640      2.00000
      5       7.1132      0.00000
      6       8.9944      0.00000
      7       8.9944      0.00000
      8      13.3633      0.00000

 k-point   127 :       0.4231    0.4231    0.4231
  band No.  band energies     occupation 
      1      -4.2036      2.00000
      2      -0.8286      2.00000
      3       4.4768      2.00000
      4       4.4768      2.00000
      5       7.1280      0.00000
      6       9.0073      0.00000
      7       9.0073      0.00000
      8      13.3821      0.00000

 k-point   128 :       0.4103    0.4103    0.4103
  band No.  band energies     occupation 
      1      -4.2881      2.00000
      2      -0.6923      2.00000
      3       4.4920      2.00000
      4       4.4920      2.00000
      5       7.1456      0.00000
      6       9.0219      0.00000
      7       9.0219      0.00000
      8      13.4024      0.00000

 k-point   129 :       0.3974    0.3974    0.3974
  band No.  band energies     occupation 
      1      -4.3774      2.00000
      2      -0.5433      2.00000
      3       4.5094      2.00000
      4       4.5094      2.00000
      5       7.1658      0.00000
      6       9.0376      0.00000
      7       9.0376      0.00000
      8      13.4227      0.00000

 k-point   130 :       0.3846    0.3846    0.3846
  band No.  band energies     occupation 
      1      -4.4700      2.00000
      2      -0.3831      2.00000
      3       4.5292      2.00000
      4       4.5292      2.00000
      5       7.1886      0.00000
      6       9.0543      0.00000
      7       9.0543      0.00000
      8      13.4410      0.00000

 k-point   131 :       0.3718    0.3718    0.3718
  band No.  band energies     occupation 
      1      -4.5646      2.00000
      2      -0.2132      2.00000
      3       4.5512      2.00000
      4       4.5512      2.00000
      5       7.2139      0.00000
      6       9.0712      0.00000
      7       9.0712      0.00000
      8      13.4537      0.00000

 k-point   132 :       0.3590    0.3590    0.3590
  band No.  band energies     occupation 
      1      -4.6601      2.00000
      2      -0.0347      2.00000
      3       4.5755      2.00000
      4       4.5755      2.00000
      5       7.2419      0.00000
      6       9.0877      0.00000
      7       9.0877      0.00000
      8      13.4571      0.00000

 k-point   133 :       0.3462    0.3462    0.3462
  band No.  band energies     occupation 
      1      -4.7555      2.00000
      2       0.1514      2.00000
      3       4.6020      2.00000
      4       4.6020      2.00000
      5       7.2723      0.00000
      6       9.1033      0.00000
      7       9.1033      0.00000
      8      13.4398      0.00000

 k-point   134 :       0.3333    0.3333    0.3333
  band No.  band energies     occupation 
      1      -4.8501      2.00000
      2       0.3444      2.00000
      3       4.6308      2.00000
      4       4.6308      2.00000
      5       7.3051      0.00000
      6       9.1171      0.00000
      7       9.1171      0.00000
      8      13.4097      0.00000

 k-point   135 :       0.3205    0.3205    0.3205
  band No.  band energies     occupation 
      1      -4.9434      2.00000
      2       0.5436      2.00000
      3       4.6617      2.00000
      4       4.6617      2.00000
      5       7.3403      0.00000
      6       9.1283      0.00000
      7       9.1283      0.00000
      8      13.3175      0.00000

 k-point   136 :       0.3077    0.3077    0.3077
  band No.  band energies     occupation 
      1      -5.0349      2.00000
      2       0.7484      2.00000
      3       4.6947      2.00000
      4       4.6947      2.00000
      5       7.3778      0.00000
      6       9.1360      0.00000
      7       9.1360      0.00000
      8      13.2132      0.00000

 k-point   137 :       0.2949    0.2949    0.2949
  band No.  band energies     occupation 
      1      -5.1242      2.00000
      2       0.9583      2.00000
      3       4.7299      2.00000
      4       4.7299      2.00000
      5       7.4175      0.00000
      6       9.1393      0.00000
      7       9.1393      0.00000
      8      13.0599      0.00000

 k-point   138 :       0.2821    0.2821    0.2821
  band No.  band energies     occupation 
      1      -5.2109      2.00000
      2       1.1729      2.00000
      3       4.7670      2.00000
      4       4.7670      2.00000
      5       7.4593      0.00000
      6       9.1373      0.00000
      7       9.1373      0.00000
      8      12.8771      0.00000

 k-point   139 :       0.2692    0.2692    0.2692
  band No.  band energies     occupation 
      1      -5.2949      2.00000
      2       1.3918      2.00000
      3       4.8061      2.00000
      4       4.8061      2.00000
      5       7.5030      0.00000
      6       9.1290      0.00000
      7       9.1290      0.00000
      8      12.6763      0.00000

 k-point   140 :       0.2564    0.2564    0.2564
  band No.  band energies     occupation 
      1      -5.3758      2.00000
      2       1.6146      2.00000
      3       4.8471      2.00000
      4       4.8471      2.00000
      5       7.5485      0.00000
      6       9.1139      0.00000
      7       9.1139      0.00000
      8      12.4692      0.00000

 k-point   141 :       0.2436    0.2436    0.2436
  band No.  band energies     occupation 
      1      -5.4536      2.00000
      2       1.8409      2.00000
      3       4.8897      2.00000
      4       4.8897      2.00000
      5       7.5957      0.00000
      6       9.0913      0.00000
      7       9.0913      0.00000
      8      12.2539      0.00000

 k-point   142 :       0.2308    0.2308    0.2308
  band No.  band energies     occupation 
      1      -5.5279      2.00000
      2       2.0703      2.00000
      3       4.9340      2.00000
      4       4.9340      2.00000
      5       7.6443      0.00000
      6       9.0611      0.00000
      7       9.0611      0.00000
      8      12.0332      0.00000

 k-point   143 :       0.2179    0.2179    0.2179
  band No.  band energies     occupation 
      1      -5.5988      2.00000
      2       2.3025      2.00000
      3       4.9796      2.00000
      4       4.9796      2.00000
      5       7.6940      0.00000
      6       9.0232      0.00000
      7       9.0232      0.00000
      8      11.8085      0.00000

 k-point   144 :       0.2051    0.2051    0.2051
  band No.  band energies     occupation 
      1      -5.6660      2.00000
      2       2.5371      2.00000
      3       5.0266      2.00000
      4       5.0266      2.00000
      5       7.7446      0.00000
      6       8.9779      0.00000
      7       8.9779      0.00000
      8      11.5810      0.00000

 k-point   145 :       0.1923    0.1923    0.1923
  band No.  band energies     occupation 
      1      -5.7296      2.00000
      2       2.7735      2.00000
      3       5.0745      2.00000
      4       5.0745      2.00000
      5       7.7958      0.00000
      6       8.9260      0.00000
      7       8.9260      0.00000
      8      11.3515      0.00000

 k-point   146 :       0.1795    0.1795    0.1795
  band No.  band energies     occupation 
      1      -5.7893      2.00000
      2       3.0114      2.00000
      3       5.1233      2.00000
      4       5.1233      2.00000
      5       7.8472      0.00000
      6       8.8682      0.00000
      7       8.8682      0.00000
      8      11.1207      0.00000

 k-point   147 :       0.1667    0.1667    0.1667
  band No.  band energies     occupation 
      1      -5.8452      2.00000
      2       3.2501      2.00000
      3       5.1724      2.00000
      4       5.1724      2.00000
      5       7.8983      0.00000
      6       8.8056      0.00000
      7       8.8056      0.00000
      8      10.8893      0.00000

 k-point   148 :       0.1538    0.1538    0.1538
  band No.  band energies     occupation 
      1      -5.8972      2.00000
      2       3.4890      2.00000
      3       5.2217      2.00000
      4       5.2217      2.00000
      5       7.9487      0.00000
      6       8.7396      0.00000
      7       8.7396      0.00000
      8      10.6581      0.00000

 k-point   149 :       0.1410    0.1410    0.1410
  band No.  band energies     occupation 
      1      -5.9451      2.00000
      2       3.7272      2.00000
      3       5.2707      2.00000
      4       5.2707      2.00000
      5       7.9977      0.00000
      6       8.6716      0.00000
      7       8.6716      0.00000
      8      10.4279      0.00000

 k-point   150 :       0.1282    0.1282    0.1282
  band No.  band energies     occupation 
      1      -5.9890      2.00000
      2       3.9636      2.00000
      3       5.3189      2.00000
      4       5.3189      2.00000
      5       8.0445      0.00000
      6       8.6028      0.00000
      7       8.6028      0.00000
      8      10.2000      0.00000

 k-point   151 :       0.1154    0.1154    0.1154
  band No.  band energies     occupation 
      1      -6.0289      2.00000
      2       4.1972      2.00000
      3       5.3657      2.00000
      4       5.3657      2.00000
      5       8.0883      0.00000
      6       8.5347      0.00000
      7       8.5347      0.00000
      8       9.9758      0.00000

 k-point   152 :       0.1026    0.1026    0.1026
  band No.  band energies     occupation 
      1      -6.0646      2.00000
      2       4.4260      2.00000
      3       5.4106      2.00000
      4       5.4106      2.00000
      5       8.1281      0.00000
      6       8.4688      0.00000
      7       8.4688      0.00000
      8       9.7574      0.00000

 k-point   153 :       0.0897    0.0897    0.0897
  band No.  band energies     occupation 
      1      -6.0962      2.00000
      2       4.6479      2.00000
      3       5.4529      2.00000
      4       5.4529      2.00000
      5       8.1625      0.00000
      6       8.4063      0.00000
      7       8.4063      0.00000
      8       9.5476      0.00000

 k-point   154 :       0.0769    0.0769    0.0769
  band No.  band energies     occupation 
      1      -6.1236      2.00000
      2       4.8600      2.00000
      3       5.4918      2.00000
      4       5.4918      2.00000
      5       8.1898      0.00000
      6       8.3488      0.00000
      7       8.3488      0.00000
      8       9.3503      0.00000

 k-point   155 :       0.0641    0.0641    0.0641
  band No.  band energies     occupation 
      1      -6.1469      2.00000
      2       5.0584      2.00000
      3       5.5266      2.00000
      4       5.5266      2.00000
      5       8.2079      0.00000
      6       8.2973      0.00000
      7       8.2973      0.00000
      8       9.1709      0.00000

 k-point   156 :       0.0513    0.0513    0.0513
  band No.  band energies     occupation 
      1      -6.1659      2.00000
      2       5.2377      2.00000
      3       5.5565      2.00000
      4       5.5565      2.00000
      5       8.2147      0.00000
      6       8.2533      0.00000
      7       8.2533      0.00000
      8       9.0163      0.00000

 k-point   157 :       0.0385    0.0385    0.0385
  band No.  band energies     occupation 
      1      -6.1807      2.00000
      2       5.3911      2.00000
      3       5.5807      2.00000
      4       5.5807      2.00000
      5       8.2091      0.00000
      6       8.2178      0.00000
      7       8.2178      0.00000
      8       8.8936      0.00000

 k-point   158 :       0.0256    0.0256    0.0256
  band No.  band energies     occupation 
      1      -6.1913      2.00000
      2       5.5103      2.00000
      3       5.5985      2.00000
      4       5.5985      2.00000
      5       8.1916      0.00000
      6       8.1916      0.00000
      7       8.1938      0.00000
      8       8.8080      0.00000

 k-point   159 :       0.0128    0.0128    0.0128
  band No.  band energies     occupation 
      1      -6.1977      2.00000
      2       5.5867      2.00000
      3       5.6094      2.00000
      4       5.6094      2.00000
      5       8.1757      0.00000
      6       8.1757      0.00000
      7       8.1774      0.00000
      8       8.7592      0.00000

 k-point   160 :       0.0000    0.0000    0.0000
  band No.  band energies     occupation 
      1      -6.1998      2.00000
      2       5.6131      2.00000
      3       5.6131      2.00000
      4       5.6131      2.00000
      5       8.1703      0.00000
      6       8.1703      0.00000
      7       8.1703      0.00000
      8       8.7437      0.00000

 k-point   161 :       0.0000    0.0000    0.0000
  band No.  band energies     occupation 
      1      -6.1998      2.00000
      2       5.6131      2.00000
      3       5.6131      2.00000
      4       5.6131      2.00000
      5       8.1703      0.00000
      6       8.1703      0.00000
      7       8.1703      0.00000
      8       8.7437      0.00000

 k-point   162 :       0.0096    0.0096    0.0192
  band No.  band energies     occupation 
      1      -6.1966      2.00000
      2       5.5778      2.00000
      3       5.5993      2.00000
      4       5.6117      2.00000
      5       8.1736      0.00000
      6       8.1767      0.00000
      7       8.1872      0.00000
      8       8.7670      0.00000

 k-point   163 :       0.0192    0.0192    0.0385
  band No.  band energies     occupation 
      1      -6.1871      2.00000
      2       5.4772      2.00000
      3       5.5587      2.00000
      4       5.6074      2.00000
      5       8.1834      0.00000
      6       8.1957      0.00000
      7       8.2294      0.00000
      8       8.8398      0.00000

 k-point   164 :       0.0288    0.0288    0.0577
  band No.  band energies     occupation 
      1      -6.1712      2.00000
      2       5.3243      2.00000
      3       5.4928      2.00000
      4       5.6002      2.00000
      5       8.1998      0.00000
      6       8.2264      0.00000
      7       8.2795      0.00000
      8       8.9661      0.00000

 k-point   165 :       0.0385    0.0385    0.0769
  band No.  band energies     occupation 
      1      -6.1490      2.00000
      2       5.1336      2.00000
      3       5.4041      2.00000
      4       5.5900      2.00000
      5       8.2227      0.00000
      6       8.2674      0.00000
      7       8.3253      0.00000
      8       9.1423      0.00000

 k-point   166 :       0.0481    0.0481    0.0962
  band No.  band energies     occupation 
      1      -6.1204      2.00000
      2       4.9173      2.00000
      3       5.2954      2.00000
      4       5.5765      2.00000
      5       8.2521      0.00000
      6       8.3175      0.00000
      7       8.3643      0.00000
      8       9.3571      0.00000

 k-point   167 :       0.0577    0.0577    0.1154
  band No.  band energies     occupation 
      1      -6.0856      2.00000
      2       4.6843      2.00000
      3       5.1697      2.00000
      4       5.5596      2.00000
      5       8.2881      0.00000
      6       8.3754      0.00000
      7       8.3982      0.00000
      8       9.5972      0.00000

 k-point   168 :       0.0673    0.0673    0.1346
  band No.  band energies     occupation 
      1      -6.0445      2.00000
      2       4.4410      2.00000
      3       5.0299      2.00000
      4       5.5390      2.00000
      5       8.3307      0.00000
      6       8.4291      0.00000
      7       8.4401      0.00000
      8       9.8502      0.00000

 k-point   169 :       0.0769    0.0769    0.1538
  band No.  band energies     occupation 
      1      -5.9972      2.00000
      2       4.1918      2.00000
      3       4.8786      2.00000
      4       5.5144      2.00000
      5       8.3797      0.00000
      6       8.4584      0.00000
      7       8.5109      0.00000
      8      10.1053      0.00000

 k-point   170 :       0.0865    0.0865    0.1731
  band No.  band energies     occupation 
      1      -5.9437      2.00000
      2       3.9398      2.00000
      3       4.7182      2.00000
      4       5.4856      2.00000
      5       8.4353      0.00000
      6       8.4865      0.00000
      7       8.5872      0.00000
      8      10.3517      0.00000

 k-point   171 :       0.0962    0.0962    0.1923
  band No.  band energies     occupation 
      1      -5.8841      2.00000
      2       3.6871      2.00000
      3       4.5509      2.00000
      4       5.4523      2.00000
      5       8.4974      0.00000
      6       8.5135      0.00000
      7       8.6688      0.00000
      8      10.5782      0.00000

 k-point   172 :       0.1058    0.1058    0.2115
  band No.  band energies     occupation 
      1      -5.8185      2.00000
      2       3.4353      2.00000
      3       4.3784      2.00000
      4       5.4143      2.00000
      5       8.5389      0.00000
      6       8.5660      0.00000
      7       8.7555      0.00000
      8      10.7739      0.00000

 k-point   173 :       0.1154    0.1154    0.2308
  band No.  band energies     occupation 
      1      -5.7469      2.00000
      2       3.1855      2.00000
      3       4.2025      2.00000
      4       5.3713      2.00000
      5       8.5618      0.00000
      6       8.6411      0.00000
      7       8.8473      0.00000
      8      10.9297      0.00000

 k-point   174 :       0.1250    0.1250    0.2500
  band No.  band energies     occupation 
      1      -5.6694      2.00000
      2       2.9387      2.00000
      3       4.0245      2.00000
      4       5.3233      2.00000
      5       8.5813      0.00000
      6       8.7226      0.00000
      7       8.9441      0.00000
      8      11.0424      0.00000

 k-point   175 :       0.1346    0.1346    0.2692
  band No.  band energies     occupation 
      1      -5.5861      2.00000
      2       2.6954      2.00000
      3       3.8457      2.00000
      4       5.2701      2.00000
      5       8.5959      0.00000
      6       8.8106      0.00000
      7       9.0461      0.00000
      8      11.1154      0.00000

 k-point   176 :       0.1442    0.1442    0.2885
  band No.  band energies     occupation 
      1      -5.4971      2.00000
      2       2.4563      2.00000
      3       3.6672      2.00000
      4       5.2118      2.00000
      5       8.6043      0.00000
      6       8.9051      0.00000
      7       9.1533      0.00000
      8      11.1575      0.00000

 k-point   177 :       0.1538    0.1538    0.3077
  band No.  band energies     occupation 
      1      -5.4025      2.00000
      2       2.2216      2.00000
      3       3.4898      2.00000
      4       5.1485      2.00000
      5       8.6050      0.00000
      6       9.0060      0.00000
      7       9.2659      0.00000
      8      11.1798      0.00000

 k-point   178 :       0.1635    0.1635    0.3269
  band No.  band energies     occupation 
      1      -5.3026      2.00000
      2       1.9918      2.00000
      3       3.3146      2.00000
      4       5.0803      2.00000
      5       8.5965      0.00000
      6       9.1132      0.00000
      7       9.3839      0.00000
      8      11.1921      0.00000

 k-point   179 :       0.1731    0.1731    0.3462
  band No.  band energies     occupation 
      1      -5.1974      2.00000
      2       1.7671      2.00000
      3       3.1422      2.00000
      4       5.0074      2.00000
      5       8.5775      0.00000
      6       9.2269      0.00000
      7       9.5073      0.00000
      8      11.2027      0.00000

 k-point   180 :       0.1827    0.1827    0.3654
  band No.  band energies     occupation 
      1      -5.0871      2.00000
      2       1.5477      2.00000
      3       2.9734      2.00000
      4       4.9304      2.00000
      5       8.5474      0.00000
      6       9.3470      0.00000
      7       9.6364      0.00000
      8      11.2180      0.00000

 k-point   181 :       0.1923    0.1923    0.3846
  band No.  band energies     occupation 
      1      -4.9720      2.00000
      2       1.3338      2.00000
      3       2.8088      2.00000
      4       4.8494      2.00000
      5       8.5056      0.00000
      6       9.4733      0.00000
      7       9.7710      0.00000
      8      11.2420      0.00000

 k-point   182 :       0.2019    0.2019    0.4038
  band No.  band energies     occupation 
      1      -4.8523      2.00000
      2       1.1256      2.00000
      3       2.6491      2.00000
      4       4.7651      2.00000
      5       8.4523      0.00000
      6       9.6060      0.00000
      7       9.9112      0.00000
      8      11.2776      0.00000

 k-point   183 :       0.2115    0.2115    0.4231
  band No.  band energies     occupation 
      1      -4.7282      2.00000
      2       0.9233      2.00000
      3       2.4949      2.00000
      4       4.6779      2.00000
      5       8.3884      0.00000
      6       9.7449      0.00000
      7      10.0572      0.00000
      8      11.3264      0.00000

 k-point   184 :       0.2212    0.2212    0.4423
  band No.  band energies     occupation 
      1      -4.6002      2.00000
      2       0.7268      2.00000
      3       2.3468      2.00000
      4       4.5883      2.00000
      5       8.3149      0.00000
      6       9.8900      0.00000
      7      10.2088      0.00000
      8      11.3886      0.00000

 k-point   185 :       0.2308    0.2308    0.4615
  band No.  band energies     occupation 
      1      -4.4686      2.00000
      2       0.5365      2.00000
      3       2.2054      2.00000
      4       4.4970      2.00000
      5       8.2333      0.00000
      6      10.0412      0.00000
      7      10.3659      0.00000
      8      11.4644      0.00000

 k-point   186 :       0.2404    0.2404    0.4808
  band No.  band energies     occupation 
      1      -4.3337      2.00000
      2       0.3522      2.00000
      3       2.0713      2.00000
      4       4.4044      2.00000
      5       8.1449      0.00000
      6      10.1986      0.00000
      7      10.5286      0.00000
      8      11.5540      0.00000

 k-point   187 :       0.2500    0.2500    0.5000
  band No.  band energies     occupation 
      1      -4.1962      2.00000
      2       0.1742      2.00000
      3       1.9451      2.00000
      4       4.3111      2.00000
      5       8.0514      0.00000
      6      10.3620      0.00000
      7      10.6966      0.00000
      8      11.6540      0.00000

 k-point   188 :       0.2596    0.2596    0.5192
  band No.  band energies     occupation 
      1      -4.0566      2.00000
      2       0.0024      2.00000
      3       1.8276      2.00000
      4       4.2177      2.00000
      5       7.9541      0.00000
      6      10.5315      0.00000
      7      10.8696      0.00000
      8      11.7658      0.00000

 k-point   189 :       0.2692    0.2692    0.5385
  band No.  band energies     occupation 
      1      -3.9155      2.00000
      2      -0.1630      2.00000
      3       1.7194      2.00000
      4       4.1246      2.00000
      5       7.8545      0.00000
      6      10.7069      0.00000
      7      11.0469      0.00000
      8      11.8883      0.00000

 k-point   190 :       0.2788    0.2788    0.5577
  band No.  band energies     occupation 
      1      -3.7737      2.00000
      2      -0.3219      2.00000
      3       1.6214      2.00000
      4       4.0323      2.00000
      5       7.7537      0.00000
      6      10.8882      0.00000
      7      11.2277      0.00000
      8      12.0198      0.00000

 k-point   191 :       0.2885    0.2885    0.5769
  band No.  band energies     occupation 
      1      -3.6321      2.00000
      2      -0.4745      2.00000
      3       1.5345      2.00000
      4       3.9413      2.00000
      5       7.6526      0.00000
      6      11.0753      0.00000
      7      11.4091      0.00000
      8      12.1602      0.00000

 k-point   192 :       0.2981    0.2981    0.5962
  band No.  band energies     occupation 
      1      -3.4916      2.00000
      2      -0.6205      2.00000
      3       1.4595      2.00000
      4       3.8519      2.00000
      5       7.5523      0.00000
      6      11.2680      0.00000
      7      11.5854      0.00000
      8      12.3086      0.00000

 k-point   193 :       0.3077    0.3077    0.6154
  band No.  band energies     occupation 
      1      -3.3532      2.00000
      2      -0.7600      2.00000
      3       1.3975      2.00000
      4       3.7647      2.00000
      5       7.4535      0.00000
      6      11.4663      0.00000
      7      11.7368      0.00000
      8      12.4660      0.00000

 k-point   194 :       0.3173    0.3173    0.6346
  band No.  band energies     occupation 
      1      -3.2182      2.00000
      2      -0.8929      2.00000
      3       1.3496      2.00000
      4       3.6798      2.00000
      5       7.3568      0.00000
      6      11.6699      0.00000
      7      11.7892      0.00000
      8      12.5187      0.00000

 k-point   195 :       0.3269    0.3269    0.6538
  band No.  band energies     occupation 
      1      -3.0878      2.00000
      2      -1.0192      2.00000
      3       1.3169      2.00000
      4       3.5978      2.00000
      5       7.2628      0.00000
      6      11.6080      0.00000
      7      11.8787      0.00000
      8      12.4965      0.00000

 k-point   196 :       0.3365    0.3365    0.6731
  band No.  band energies     occupation 
      1      -2.9633      2.00000
      2      -1.1388      2.00000
      3       1.3004      2.00000
      4       3.5187      2.00000
      5       7.1719      0.00000
      6      11.2709      0.00000
      7      12.0927      0.00000
      8      12.6410      0.00000

 k-point   197 :       0.3462    0.3462    0.6923
  band No.  band energies     occupation 
      1      -2.8459      2.00000
      2      -1.2517      2.00000
      3       1.3012      2.00000
      4       3.4430      2.00000
      5       7.0847      0.00000
      6      10.8907      0.00000
      7      12.3114      0.00000
      8      12.8407      0.00000

 k-point   198 :       0.3558    0.3558    0.7115
  band No.  band energies     occupation 
      1      -2.7368      2.00000
      2      -1.3579      2.00000
      3       1.3201      2.00000
      4       3.3708      2.00000
      5       7.0015      0.00000
      6      10.5007      0.00000
      7      12.5348      0.00000
      8      13.0581      0.00000

 k-point   199 :       0.3654    0.3654    0.7308
  band No.  band energies     occupation 
      1      -2.6370      2.00000
      2      -1.4574      2.00000
      3       1.3576      2.00000
      4       3.3024      2.00000
      5       6.9227      0.00000
      6      10.1110      0.00000
      7      12.7623      0.00000
      8      13.2907      0.00000

 k-point   200 :       0.3750    0.3750    0.7500
  band No.  band energies     occupation 
      1      -2.5472      2.00000
      2      -1.5501      2.00000
      3       1.4140      2.00000
      4       3.2380      2.00000
      5       6.8483      0.00000
      6       9.7258      0.00000
      7      12.9939      0.00000
      8      13.5299      0.00000

 k-point   201 :       0.3750    0.3750    0.7500
  band No.  band energies     occupation 
      1      -2.5472      2.00000
      2      -1.5501      2.00000
      3       1.4140      2.00000
      4       3.2380      2.00000
      5       6.8483      0.00000
      6       9.7258      0.00000
      7      12.9938      0.00000
      8      13.5299      0.00000

 k-point   202 :       0.3782    0.3654    0.7436
  band No.  band energies     occupation 
      1      -2.5745      2.00000
      2      -1.5206      2.00000
      3       1.3943      2.00000
      4       3.2497      2.00000
      5       6.8866      0.00000
      6       9.8545      0.00000
      7      12.8720      0.00000
      8      13.5055      0.00000

 k-point   203 :       0.3814    0.3558    0.7372
  band No.  band energies     occupation 
      1      -2.5999      2.00000
      2      -1.4916      2.00000
      3       1.3791      2.00000
      4       3.2436      2.00000
      5       6.9530      0.00000
      6       9.9857      0.00000
      7      12.6892      0.00000
      8      13.3246      0.00000

 k-point   204 :       0.3846    0.3462    0.7308
  band No.  band energies     occupation 
      1      -2.6235      2.00000
      2      -1.4632      2.00000
      3       1.3684      2.00000
      4       3.2212      2.00000
      5       7.0458      0.00000
      6      10.1189      0.00000
      7      12.4802      0.00000
      8      13.0641      0.00000

 k-point   205 :       0.3878    0.3365    0.7244
  band No.  band energies     occupation 
      1      -2.6452      2.00000
      2      -1.4356      2.00000
      3       1.3621      2.00000
      4       3.1847      2.00000
      5       7.1631      0.00000
      6      10.2531      0.00000
      7      12.2621      0.00000
      8      12.8064      0.00000

 k-point   206 :       0.3910    0.3269    0.7179
  band No.  band energies     occupation 
      1      -2.6651      2.00000
      2      -1.4088      2.00000
      3       1.3604      2.00000
      4       3.1365      2.00000
      5       7.3025      0.00000
      6      10.3868      0.00000
      7      12.0428      0.00000
      8      12.5476      0.00000

 k-point   207 :       0.3942    0.3173    0.7115
  band No.  band energies     occupation 
      1      -2.6831      2.00000
      2      -1.3830      2.00000
      3       1.3631      2.00000
      4       3.0792      2.00000
      5       7.4613      0.00000
      6      10.5167      0.00000
      7      11.8282      0.00000
      8      12.2894      0.00000

 k-point   208 :       0.3974    0.3077    0.7051
  band No.  band energies     occupation 
      1      -2.6992      2.00000
      2      -1.3585      2.00000
      3       1.3703      2.00000
      4       3.0153      2.00000
      5       7.6372      0.00000
      6      10.6352      0.00000
      7      11.6275      0.00000
      8      12.0327      0.00000

 k-point   209 :       0.4006    0.2981    0.6987
  band No.  band energies     occupation 
      1      -2.7134      2.00000
      2      -1.3354      2.00000
      3       1.3819      2.00000
      4       2.9472      2.00000
      5       7.8279      0.00000
      6      10.7227      0.00000
      7      11.4613      0.00000
      8      11.7782      0.00000

 k-point   210 :       0.4038    0.2885    0.6923
  band No.  band energies     occupation 
      1      -2.7257      2.00000
      2      -1.3140      2.00000
      3       1.3978      2.00000
      4       2.8768      2.00000
      5       8.0314      0.00000
      6      10.7343      0.00000
      7      11.3747      0.00000
      8      11.5266      0.00000

 k-point   211 :       0.4071    0.2788    0.6859
  band No.  band energies     occupation 
      1      -2.7360      2.00000
      2      -1.2947      2.00000
      3       1.4180      2.00000
      4       2.8062      2.00000
      5       8.2457      0.00000
      6      10.6376      0.00000
      7      11.2783      0.00000
      8      11.4008      0.00000

 k-point   212 :       0.4103    0.2692    0.6795
  band No.  band energies     occupation 
      1      -2.7444      2.00000
      2      -1.2778      2.00000
      3       1.4424      2.00000
      4       2.7368      2.00000
      5       8.4691      0.00000
      6      10.4701      0.00000
      7      11.0340      0.00000
      8      11.5024      0.00000

 k-point   213 :       0.4135    0.2596    0.6731
  band No.  band energies     occupation 
      1      -2.7508      2.00000
      2      -1.2636      2.00000
      3       1.4709      2.00000
      4       2.6701      2.00000
      5       8.6994      0.00000
      6      10.2734      0.00000
      7      10.7950      0.00000
      8      11.6380      0.00000

 k-point   214 :       0.4167    0.2500    0.6667
  band No.  band energies     occupation 
      1      -2.7552      2.00000
      2      -1.2524      2.00000
      3       1.5035      2.00000
      4       2.6072      2.00000
      5       8.9338      0.00000
      6      10.0658      0.00000
      7      10.5632      0.00000
      8      11.7896      0.00000

 k-point   215 :       0.4199    0.2404    0.6603
  band No.  band energies     occupation 
      1      -2.7576      2.00000
      2      -1.2447      2.00000
      3       1.5401      2.00000
      4       2.5493      2.00000
      5       9.1668      0.00000
      6       9.8541      0.00000
      7      10.3436      0.00000
      8      11.9502      0.00000

 k-point   216 :       0.4231    0.2308    0.6538
  band No.  band energies     occupation 
      1      -2.7579      2.00000
      2      -1.2407      2.00000
      3       1.5804      2.00000
      4       2.4972      2.00000
      5       9.3816      0.00000
      6       9.6419      0.00000
      7      10.1524      0.00000
      8      12.1169      0.00000

 k-point   217 :       0.4263    0.2212    0.6474
  band No.  band energies     occupation 
      1      -2.7561      2.00000
      2      -1.2407      2.00000
      3       1.6244      2.00000
      4       2.4515      2.00000
      5       9.4306      0.00000
      6       9.5139      0.00000
      7      10.0535      0.00000
      8      12.2881      0.00000

 k-point   218 :       0.4295    0.2115    0.6410
  band No.  band energies     occupation 
      1      -2.7523      2.00000
      2      -1.2450      2.00000
      3       1.6720      2.00000
      4       2.4130      2.00000
      5       9.2215      0.00000
      6       9.4583      0.00000
      7      10.1520      0.00000
      8      12.4627      0.00000

 k-point   219 :       0.4327    0.2019    0.6346
  band No.  band energies     occupation 
      1      -2.7463      2.00000
      2      -1.2537      2.00000
      3       1.7229      2.00000
      4       2.3820      2.00000
      5       9.0151      0.00000
      6       9.2911      0.00000
      7      10.3713      0.00000
      8      12.6403      0.00000

 k-point   220 :       0.4359    0.1923    0.6282
  band No.  band energies     occupation 
      1      -2.7381      2.00000
      2      -1.2670      2.00000
      3       1.7769      2.00000
      4       2.3588      2.00000
      5       8.8120      0.00000
      6       9.0954      0.00000
      7      10.6278      0.00000
      8      12.8204      0.00000

 k-point   221 :       0.4391    0.1827    0.6218
  band No.  band energies     occupation 
      1      -2.7279      2.00000
      2      -1.2849      2.00000
      3       1.8339      2.00000
      4       2.3435      2.00000
      5       8.6128      0.00000
      6       8.8937      0.00000
      7      10.8994      0.00000
      8      13.0023      0.00000

 k-point   222 :       0.4423    0.1731    0.6154
  band No.  band energies     occupation 
      1      -2.7154      2.00000
      2      -1.3073      2.00000
      3       1.8935      2.00000
      4       2.3362      2.00000
      5       8.4179      0.00000
      6       8.6922      0.00000
      7      11.1791      0.00000
      8      13.1857      0.00000

 k-point   223 :       0.4455    0.1635    0.6090
  band No.  band energies     occupation 
      1      -2.7008      2.00000
      2      -1.3341      2.00000
      3       1.9555      2.00000
      4       2.3365      2.00000
      5       8.2277      0.00000
      6       8.4935      0.00000
      7      11.4645      0.00000
      8      13.3701      0.00000

 k-point   224 :       0.4487    0.1538    0.6026
  band No.  band energies     occupation 
      1      -2.6840      2.00000
      2      -1.3651      2.00000
      3       2.0196      2.00000
      4       2.3443      2.00000
      5       8.0426      0.00000
      6       8.2990      0.00000
      7      11.7540      0.00000
      8      13.5550      0.00000

 k-point   225 :       0.4519    0.1442    0.5962
  band No.  band energies     occupation 
      1      -2.6650      2.00000
      2      -1.3999      2.00000
      3       2.0853      2.00000
      4       2.3591      2.00000
      5       7.8633      0.00000
      6       8.1095      0.00000
      7      12.0468      0.00000
      8      13.7397      0.00000

 k-point   226 :       0.4551    0.1346    0.5897
  band No.  band energies     occupation 
      1      -2.6438      2.00000
      2      -1.4383      2.00000
      3       2.1523      2.00000
      4       2.3804      2.00000
      5       7.6901      0.00000
      6       7.9257      0.00000
      7      12.3421      0.00000
      8      13.9235      0.00000

 k-point   227 :       0.4583    0.1250    0.5833
  band No.  band energies     occupation 
      1      -2.6204      2.00000
      2      -1.4798      2.00000
      3       2.2201      2.00000
      4       2.4074      2.00000
      5       7.5238      0.00000
      6       7.7481      0.00000
      7      12.6391      0.00000
      8      14.1054      0.00000

 k-point   228 :       0.4615    0.1154    0.5769
  band No.  band energies     occupation 
      1      -2.5948      2.00000
      2      -1.5240      2.00000
      3       2.2881      2.00000
      4       2.4393      2.00000
      5       7.3648      0.00000
      6       7.5775      0.00000
      7      12.9371      0.00000
      8      14.2836      0.00000

 k-point   229 :       0.4647    0.1058    0.5705
  band No.  band energies     occupation 
      1      -2.5671      2.00000
      2      -1.5706      2.00000
      3       2.3556      2.00000
      4       2.4754      2.00000
      5       7.2140      0.00000
      6       7.4143      0.00000
      7      13.2353      0.00000
      8      14.4569      0.00000

 k-point   230 :       0.4679    0.0962    0.5641
  band No.  band energies     occupation 
      1      -2.5373      2.00000
      2      -1.6192      2.00000
      3       2.4220      2.00000
      4       2.5147      2.00000
      5       7.0722      0.00000
      6       7.2595      0.00000
      7      13.5324      0.00000
      8      14.6230      0.00000

 k-point   231 :       0.4712    0.0865    0.5577
  band No.  band energies     occupation 
      1      -2.5053      2.00000
      2      -1.6692      2.00000
      3       2.4865      2.00000
      4       2.5561      2.00000
      5       6.9401      0.00000
      6       7.1135      0.00000
      7      13.8271      0.00000
      8      14.7796      0.00000

 k-point   232 :       0.4744    0.0769    0.5513
  band No.  band energies     occupation 
      1      -2.4713      2.00000
      2      -1.7204      2.00000
      3       2.5481      2.00000
      4       2.5985      2.00000
      5       6.8188      0.00000
      6       6.9774      0.00000
      7      14.1172      0.00000
      8      14.9248      0.00000

 k-point   233 :       0.4776    0.0673    0.5449
  band No.  band energies     occupation 
      1      -2.4353      2.00000
      2      -1.7724      2.00000
      3       2.6058      2.00000
      4       2.6406      2.00000
      5       6.7094      0.00000
      6       6.8521      0.00000
      7      14.3999      0.00000
      8      15.0551      0.00000

 k-point   234 :       0.4808    0.0577    0.5385
  band No.  band energies     occupation 
      1      -2.3973      2.00000
      2      -1.8248      2.00000
      3       2.6587      2.00000
      4       2.6813      2.00000
      5       6.6129      0.00000
      6       6.7386      0.00000
      7      14.6711      0.00000
      8      15.1722      0.00000

 k-point   235 :       0.4840    0.0481    0.5321
  band No.  band energies     occupation 
      1      -2.3574      2.00000
      2      -1.8773      2.00000
      3       2.7056      2.00000
      4       2.7191      2.00000
      5       6.5306      0.00000
      6       6.6379      0.00000
      7      14.9233      0.00000
      8      15.2723      0.00000

 k-point   236 :       0.4872    0.0385    0.5256
  band No.  band energies     occupation 
      1      -2.3156      2.00000
      2      -1.9296      2.00000
      3       2.7456      2.00000
      4       2.7526      2.00000
      5       6.4636      0.00000
      6       6.5514      0.00000
      7      15.1475      0.00000
      8      15.3604      0.00000

 k-point   237 :       0.4904    0.0288    0.5192
  band No.  band energies     occupation 
      1      -2.2721      2.00000
      2      -1.9815      2.00000
      3       2.7776      2.00000
      4       2.7806      2.00000
      5       6.4128      0.00000
      6       6.4799      0.00000
      7      15.3296      0.00000
      8      15.4340      0.00000

 k-point   238 :       0.4936    0.0192    0.5128
  band No.  band energies     occupation 
      1      -2.2270      2.00000
      2      -2.0327      2.00000
      3       2.8009      2.00000
      4       2.8018      2.00000
      5       6.3792      0.00000
      6       6.4246      0.00000
      7      15.4580      0.00000
      8      15.4919      0.00000

 k-point   239 :       0.4968    0.0096    0.5064
  band No.  band energies     occupation 
      1      -2.1804      2.00000
      2      -2.0831      2.00000
      3       2.8150      2.00000
      4       2.8151      2.00000
      5       6.3635      0.00000
      6       6.3864      0.00000
      7      15.5285      0.00000
      8      15.5345      0.00000

 k-point   240 :       0.5000    0.0000    0.5000
  band No.  band energies     occupation 
      1      -2.1323      2.00000
      2      -2.1323      2.00000
      3       2.8196      2.00000
      4       2.8196      2.00000
      5       6.3659      0.00000
      6       6.3659      0.00000
      7      15.5482      0.00000
      8      15.5484      0.00000


--------------------------------------------------------------------------------------------------------


 soft charge-density along one line, spin component           1
         0         1         2         3         4         5         6         7         8         9
 total charge-density along one line

 pseudopotential strength for first ion, spin component:           1
 18.438  25.724  -0.000  -0.000  -0.000  -0.000  -0.000  -0.000
 25.724  35.894  -0.000  -0.000  -0.000  -0.000  -0.000  -0.000
 -0.000  -0.000   4.181  -0.000  -0.000   7.791  -0.000  -0.000
 -0.000  -0.000  -0.000   4.181  -0.000  -0.000   7.791  -0.000
 -0.000  -0.000  -0.000  -0.000   4.181  -0.000  -0.000   7.791
 -0.000  -0.000   7.791  -0.000  -0.000  14.528  -0.000  -0.000
 -0.000  -0.000  -0.000   7.791  -0.000  -0.000  14.528  -0.000
 -0.000  -0.000  -0.000  -0.000   7.791  -0.000  -0.000  14.528
 total augmentation occupancy for first ion, spin component:           1
  2.000   0.000   0.000   0.000   0.000   0.000   0.000   0.000
  0.000   0.000   0.000   0.000   0.000   0.000   0.000   0.000
  0.000   0.000   0.667   0.000   0.000   0.000   0.000   0.000
  0.000   0.000   0.000   0.667   0.000   0.000   0.000   0.000
  0.000   0.000   0.000   0.000   0.667   0.000   0.000   0.000
  0.000   0.000   0.000   0.000   0.000   0.000   0.000   0.000
  0.000   0.000   0.000   0.000   0.000   0.000   0.000   0.000
  0.000   0.000   0.000   0.000   0.000   0.000   0.000   0.000


------------------------ aborting loop because EDIFF is reached ----------------------------------------





 total charge     

# of ion       s       p       d       tot
------------------------------------------
    1        0.715   0.970   0.000   1.686
    2        0.715   0.970   0.000   1.686
--------------------------------------------------
tot          1.431   1.940   0.000   3.371

    CHARGE:  cpu time    0.2528: real time    0.2534
    FORLOC:  cpu time    0.0026: real time    0.0027
    FORNL :  cpu time    0.4108: real time    0.4153
    STRESS:  cpu time    1.6106: real time    1.6260
    FORCOR:  cpu time    0.0503: real time    0.0507
    FORHAR:  cpu time    0.0121: real time    0.0122
    OFIELD:  cpu time    0.0002: real time    0.0002

  FORCE on cell =-STRESS in cart. coord.  units (eV):
  Direction    XX          YY          ZZ          XY          YZ          ZX
  --------------------------------------------------------------------------------------
  Alpha Z     3.29229     3.29229     3.29229
  Ewald     -75.64151   -75.64151   -75.64151    -0.00000    -0.00000    -0.00000
  Hartree     5.38405     5.38405     5.38405     0.00000     0.00000     0.00000
  E(xc)     -25.26720   -25.26720   -25.26720     0.00000     0.00000     0.00000
  Local     -30.15893   -30.15893   -30.15893     0.00001     0.00001     0.00001
  n-local    78.80940    74.35291    76.87803    -1.78021    -0.68733    -0.89813
  augment   -11.31483   -11.31483   -11.31483    -0.00001    -0.00001    -0.00001
  Kinetic    58.17567    56.70091    60.03603    -1.71331    -1.09260    -1.21542
  Fock        0.00000     0.00000     0.00000     0.00000     0.00000     0.00000
  -------------------------------------------------------------------------------------
  Total       1.27819     1.27819     1.27819    -0.00000    -0.00000    -0.00000
  in kB      50.07134    50.07134    50.07134    -0.00000    -0.00000    -0.00000
  external pressure =       50.07 kB  Pullay stress =        0.00 kB


 VOLUME and BASIS-vectors are now :
 -----------------------------------------------------------------------------
  energy-cutoff  :      400.00
  volume of cell :       40.90
      direct lattice vectors                 reciprocal lattice vectors
     0.000000000  2.734610537  2.734610537    -0.182841393  0.182841393  0.182841393
     2.734610537 -0.000000000  2.734610537     0.182841393 -0.182841393  0.182841393
     2.734610537  2.734610537  0.000000000     0.182841393  0.182841393 -0.182841393

  length of vectors
     3.867323309  3.867323309  3.867323309     0.316690582  0.316690582  0.316690582


 FORCES acting on ions
    electron-ion (+dipol)            ewald-force                    non-local-force                 convergence-correction
 -----------------------------------------------------------------------------------------------
   0.501E-07 0.501E-07 0.509E-07   0.106E-13 0.570E-14 0.821E-14   0.902E-16 0.132E-15 0.146E-15   -.843E-09 -.843E-09 -.843E-09
   -.501E-07 -.501E-07 -.509E-07   -.107E-13 -.552E-14 -.778E-14   -.347E-16 -.763E-16 -.128E-15   0.843E-09 0.843E-09 0.843E-09
 -----------------------------------------------------------------------------------------------
   0.971E-13 0.341E-13 -.127E-13   -.730E-16 0.179E-15 0.425E-15   0.555E-16 0.555E-16 0.173E-16   -.277E-14 0.155E-14 -.194E-14


 POSITION                                       TOTAL-FORCE (eV/Angst)
 -----------------------------------------------------------------------------------
      0.00000      0.00000      0.00000        -0.000000     -0.000000      0.000000
      1.36731      1.36731      1.36731         0.000000      0.000000     -0.000000
 -----------------------------------------------------------------------------------
    total drift:                                0.000000      0.000000     -0.000000


--------------------------------------------------------------------------------------------------------



  FREE ENERGIE OF THE ION-ELECTRON SYSTEM (eV)
  ---------------------------------------------------
  free  energy   TOTEN  =        -9.40016430 eV

  energy  without entropy=       -9.40016430  energy(sigma->0) =       -9.40016430



--------------------------------------------------------------------------------------------------------


    POTLOK:  cpu time    0.1002: real time    0.1010


--------------------------------------------------------------------------------------------------------


     LOOP+:  cpu time   27.9284: real time   27.9176
    4ORBIT:  cpu time    0.0000: real time    0.0000



 total charge     

# of ion       s       p       d       tot
------------------------------------------
    1        0.715   0.970   0.000   1.686
    2        0.715   0.970   0.000   1.686
--------------------------------------------------
tot          1.431   1.940   0.000   3.371


 total amount of memory used by VASP MPI-rank0    71893. kBytes
=======================================================================

   base      :      30000. kBytes
   nonl-proj :      11667. kBytes
   fftplans  :      13127. kBytes
   grid      :       5205. kBytes
   one-center:          6. kBytes
   wavefun   :      11888. kBytes

  
  
 General timing and accounting informations for this job:
 ========================================================
  
                  Total CPU time used (sec):       29.211
                            User time (sec):       28.161
                          System time (sec):        1.050
                         Elapsed time (sec):       29.438
  
                   Maximum memory used (kb):      104324.
                   Average memory used (kb):           0.
  
                          Minor page faults:       139727
                          Major page faults:            8
                 Voluntary context switches:          470
