PROCAR lm decomposed
# of k-points:  240         # of bands:    8         # of ions:    2

 k-point     1 :    0.00000000 0.00000000 0.00000000     weight = 0.00416667

band     1 # energy   -6.19976478 # occ.  2.00000000

ion      s     py     pz     px    dxy    dyz    dz2    dxz  x2-y2    tot
    1  0.212  0.000  0.000  0.000  0.000  0.000  0.000  0.000  0.000  0.212
    2  0.212  0.000  0.000  0.000  0.000  0.000  0.000  0.000  0.000  0.212
tot    0.424  0.000  0.000  0.000  0.000  0.000  0.000  0.000  0.000  0.424

band     2 # energy    5.61310281 # occ.  2.00000000

ion      s     py     pz     px    dxy    dyz    dz2    dxz  x2-y2    tot
    1  0.000  0.071  0.071  0.071  0.000  0.000  0.000  0.000  0.000  0.214
    2  0.000  0.071  0.071  0.071  0.000  0.000  0.000  0.000  0.000  0.214
tot    0.000  0.143  0.142  0.143  0.000  0.000  0.000  0.000  0.000  0.428

band     3 # energy    5.61310294 # occ.  2.00000000

ion      s     py     pz     px    dxy    dyz    dz2    dxz  x2-y2    tot
    1  0.000  0.142  0.040  0.032  0.000  0.000  0.000  0.000  0.000  0.214
    2  0.000  0.142  0.040  0.032  0.000  0.000  0.000  0.000  0.000  0.214
tot    0.000  0.284  0.080  0.064  0.000  0.000  0.000  0.000  0.000  0.428

band     4 # energy    5.61310294 # occ.  2.00000000

ion      s     py     pz     px    dxy    dyz    dz2    dxz  x2-y2    tot
    1  0.000  0.001  0.103  0.111  0.000  0.000  0.000  0.000  0.000  0.214
    2  0.000  0.001  0.103  0.111  0.000  0.000  0.000  0.000  0.000  0.214
tot    0.000  0.001  0.205  0.221  0.000  0.000  0.000  0.000  0.000  0.428

band     5 # energy    8.17029107 # occ.  0.00000000

ion      s     py     pz     px    dxy    dyz    dz2    dxz  x2-y2    tot
    1  0.000  0.043  0.053  0.054  0.000  0.000  0.000  0.000  0.000  0.151
    2  0.000  0.043  0.053  0.054  0.000  0.000  0.000  0.000  0.000  0.151
tot    0.000  0.087  0.106  0.109  0.000  0.000  0.000  0.000  0.000  0.301

band     6 # energy    8.17029110 # occ.  0.00000000

ion      s     py     pz     px    dxy    dyz    dz2    dxz  x2-y2    tot
    1  0.000  0.030  0.038  0.083  0.000  0.000  0.000  0.000  0.000  0.151
    2  0.000  0.030  0.038  0.083  0.000  0.000  0.000  0.000  0.000  0.151
tot    0.000  0.059  0.076  0.166  0.000  0.000  0.000  0.000  0.000  0.301

band     7 # energy    8.17029111 # occ.  0.00000000

ion      s     py     pz     px    dxy    dyz    dz2    dxz  x2-y2    tot
    1  0.000  0.078  0.060  0.013  0.000  0.000  0.000  0.000  0.000  0.151
    2  0.000  0.078  0.060  0.013  0.000  0.000  0.000  0.000  0.000  0.151
tot    0.000  0.156  0.120  0.026  0.000  0.000  0.000  0.000  0.000  0.301

band     8 # energy    8.74366106 # occ.  0.00000000

ion      s     py     pz     px    dxy    dyz    dz2    dxz  x2-y2    tot
    1  0.359  0.000  0.000  0.000  0.000  0.000  0.000  0.000  0.000  0.359
    2  0.359  0.000  0.000  0.000  0.000  0.000  0.000  0.000  0.000  0.359
tot    0.717  0.000  0.000  0.000  0.000  0.000  0.000  0.000  0.000  0.717


 k-point     2 :    0.01282051 0.00000000 0.01282051     weight = 0.00416667

band     1 # energy   -6.19694612 # occ.  2.00000000

ion      s     py     pz     px    dxy    dyz    dz2    dxz  x2-y2    tot
    1  0.212  0.000  0.000  0.000  0.000  0.000  0.000  0.000  0.000  0.212
    2  0.212  0.000  0.000  0.000  0.000  0.000  0.000  0.000  0.000  0.212
tot    0.424  0.000  0.000  0.000  0.000  0.000  0.000  0.000  0.000  0.424

band     2 # energy    5.59241823 # occ.  2.00000000

ion      s     py     pz     px    dxy    dyz    dz2    dxz  x2-y2    tot
    1  0.003  0.212  0.000  0.000  0.000  0.000  0.000  0.000  0.000  0.215
    2  0.003  0.212  0.000  0.000  0.000  0.000  0.000  0.000  0.000  0.215
tot    0.005  0.424  0.000  0.000  0.000  0.000  0.000  0.000  0.000  0.429

band     3 # energy    5.60092560 # occ.  2.00000000

ion      s     py     pz     px    dxy    dyz    dz2    dxz  x2-y2    tot
    1  0.000  0.000  0.107  0.107  0.000  0.000  0.000  0.000  0.000  0.214
    2  0.000  0.000  0.107  0.107  0.000  0.000  0.000  0.000  0.000  0.214
tot    0.000  0.000  0.213  0.214  0.000  0.000  0.000  0.000  0.000  0.427

band     4 # energy    5.60092568 # occ.  2.00000000

ion      s     py     pz     px    dxy    dyz    dz2    dxz  x2-y2    tot
    1  0.000  0.000  0.107  0.107  0.000  0.000  0.000  0.000  0.000  0.214
    2  0.000  0.000  0.107  0.107  0.000  0.000  0.000  0.000  0.000  0.214
tot    0.000  0.000  0.214  0.213  0.000  0.000  0.000  0.000  0.000  0.427

band     5 # energy    8.16322967 # occ.  0.00000000

ion      s     py     pz     px    dxy    dyz    dz2    dxz  x2-y2    tot
    1  0.000  0.150  0.000  0.000  0.000  0.000  0.000  0.000  0.000  0.151
    2  0.000  0.150  0.000  0.000  0.000  0.000  0.000  0.000  0.000  0.151
tot    0.001  0.300  0.000  0.000  0.000  0.000  0.000  0.000  0.000  0.301

band     6 # energy    8.18595180 # occ.  0.00000000

ion      s     py     pz     px    dxy    dyz    dz2    dxz  x2-y2    tot
    1  0.000  0.000  0.073  0.078  0.000  0.000  0.000  0.000  0.000  0.151
    2  0.000  0.000  0.077  0.074  0.000  0.000  0.000  0.000  0.000  0.151
tot    0.000  0.000  0.149  0.153  0.000  0.000  0.000  0.000  0.000  0.302

band     7 # energy    8.18595182 # occ.  0.00000000

ion      s     py     pz     px    dxy    dyz    dz2    dxz  x2-y2    tot
    1  0.000  0.000  0.078  0.073  0.000  0.000  0.000  0.000  0.000  0.151
    2  0.000  0.000  0.074  0.077  0.000  0.000  0.000  0.000  0.000  0.151
tot    0.000  0.000  0.153  0.149  0.000  0.000  0.000  0.000  0.000  0.302

band     8 # energy    8.76396415 # occ.  0.00000000

ion      s     py     pz     px    dxy    dyz    dz2    dxz  x2-y2    tot
    1  0.356  0.002  0.000  0.000  0.000  0.000  0.000  0.000  0.000  0.358
    2  0.356  0.002  0.000  0.000  0.000  0.000  0.000  0.000  0.000  0.358
tot    0.712  0.004  0.000  0.000  0.000  0.000  0.000  0.000  0.000  0.716


 k-point     3 :    0.02564103 0.00000000 0.02564103     weight = 0.00416667

band     1 # energy   -6.18847602 # occ.  2.00000000

ion      s     py     pz     px    dxy    dyz    dz2    dxz  x2-y2    tot
    1  0.212  0.000  0.000  0.000  0.000  0.000  0.000  0.000  0.000  0.212
    2  0.212  0.000  0.000  0.000  0.000  0.000  0.000  0.000  0.000  0.212
tot    0.424  0.000  0.000  0.000  0.000  0.000  0.000  0.000  0.000  0.424

band     2 # energy    5.53199775 # occ.  2.00000000

ion      s     py     pz     px    dxy    dyz    dz2    dxz  x2-y2    tot
    1  0.010  0.207  0.000  0.000  0.000  0.000  0.000  0.000  0.000  0.217
    2  0.010  0.207  0.000  0.000  0.000  0.000  0.000  0.000  0.000  0.217
tot    0.020  0.414  0.000  0.000  0.000  0.000  0.000  0.000  0.000  0.434

band     3 # energy    5.56526917 # occ.  2.00000000

ion      s     py     pz     px    dxy    dyz    dz2    dxz  x2-y2    tot
    1  0.000  0.000  0.106  0.106  0.000  0.000  0.000  0.000  0.000  0.213
    2  0.000  0.000  0.106  0.106  0.000  0.000  0.000  0.000  0.000  0.213
tot    0.000  0.000  0.213  0.213  0.000  0.000  0.000  0.000  0.000  0.425

band     4 # energy    5.56526925 # occ.  2.00000000

ion      s     py     pz     px    dxy    dyz    dz2    dxz  x2-y2    tot
    1  0.000  0.000  0.106  0.106  0.000  0.000  0.000  0.000  0.000  0.213
    2  0.000  0.000  0.106  0.106  0.000  0.000  0.000  0.000  0.000  0.213
tot    0.000  0.000  0.213  0.213  0.000  0.000  0.000  0.000  0.000  0.425

band     5 # energy    8.14227769 # occ.  0.00000000

ion      s     py     pz     px    dxy    dyz    dz2    dxz  x2-y2    tot
    1  0.001  0.149  0.000  0.000  0.000  0.000  0.000  0.000  0.000  0.150
    2  0.001  0.149  0.000  0.000  0.000  0.000  0.000  0.000  0.000  0.150
tot    0.002  0.298  0.000  0.000  0.000  0.000  0.000  0.000  0.000  0.300

band     6 # energy    8.23202971 # occ.  0.00000000

ion      s     py     pz     px    dxy    dyz    dz2    dxz  x2-y2    tot
    1  0.000  0.000  0.077  0.075  0.000  0.000  0.000  0.000  0.000  0.152
    2  0.000  0.000  0.077  0.075  0.000  0.000  0.000  0.000  0.000  0.152
tot    0.000  0.000  0.153  0.151  0.000  0.000  0.000  0.000  0.000  0.304

band     7 # energy    8.23202974 # occ.  0.00000000

ion      s     py     pz     px    dxy    dyz    dz2    dxz  x2-y2    tot
    1  0.000  0.000  0.075  0.077  0.000  0.000  0.000  0.000  0.000  0.152
    2  0.000  0.000  0.075  0.077  0.000  0.000  0.000  0.000  0.000  0.152
tot    0.000  0.000  0.151  0.153  0.000  0.000  0.000  0.000  0.000  0.304

band     8 # energy    8.82305870 # occ.  0.00000000

ion      s     py     pz     px    dxy    dyz    dz2    dxz  x2-y2    tot
    1  0.348  0.008  0.000  0.000  0.000  0.000  0.000  0.000  0.000  0.356
    2  0.348  0.008  0.000  0.000  0.000  0.000  0.000  0.000  0.000  0.356
tot    0.696  0.015  0.000  0.000  0.000  0.000  0.000  0.000  0.000  0.711


 k-point     4 :    0.03846154 0.00000000 0.03846154     weight = 0.00416667

band     1 # energy   -6.17435221 # occ.  2.00000000

ion      s     py     pz     px    dxy    dyz    dz2    dxz  x2-y2    tot
    1  0.212  0.000  0.000  0.000  0.000  0.000  0.000  0.000  0.000  0.212
    2  0.212  0.000  0.000  0.000  0.000  0.000  0.000  0.000  0.000  0.212
tot    0.424  0.001  0.000  0.000  0.000  0.000  0.000  0.000  0.000  0.424

band     2 # energy    5.43616666 # occ.  2.00000000

ion      s     py     pz     px    dxy    dyz    dz2    dxz  x2-y2    tot
    1  0.021  0.199  0.000  0.000  0.000  0.000  0.000  0.000  0.000  0.220
    2  0.021  0.199  0.000  0.000  0.000  0.000  0.000  0.000  0.000  0.220
tot    0.042  0.399  0.000  0.000  0.000  0.000  0.000  0.000  0.000  0.441

band     3 # energy    5.50862112 # occ.  2.00000000

ion      s     py     pz     px    dxy    dyz    dz2    dxz  x2-y2    tot
    1  0.000  0.000  0.106  0.106  0.000  0.000  0.000  0.000  0.000  0.211
    2  0.000  0.000  0.106  0.106  0.000  0.000  0.000  0.000  0.000  0.211
tot    0.000  0.000  0.212  0.211  0.000  0.000  0.000  0.000  0.000  0.423

band     4 # energy    5.50862120 # occ.  2.00000000

ion      s     py     pz     px    dxy    dyz    dz2    dxz  x2-y2    tot
    1  0.000  0.000  0.106  0.106  0.000  0.000  0.000  0.000  0.000  0.211
    2  0.000  0.000  0.106  0.106  0.000  0.000  0.000  0.000  0.000  0.211
tot    0.000  0.000  0.211  0.212  0.000  0.000  0.000  0.000  0.000  0.423

band     5 # energy    8.10809516 # occ.  0.00000000

ion      s     py     pz     px    dxy    dyz    dz2    dxz  x2-y2    tot
    1  0.003  0.146  0.000  0.000  0.000  0.000  0.000  0.000  0.000  0.149
    2  0.003  0.146  0.000  0.000  0.000  0.000  0.000  0.000  0.000  0.149
tot    0.005  0.293  0.000  0.000  0.000  0.000  0.000  0.000  0.000  0.298

band     6 # energy    8.30606018 # occ.  0.00000000

ion      s     py     pz     px    dxy    dyz    dz2    dxz  x2-y2    tot
    1  0.000  0.000  0.076  0.078  0.000  0.000  0.000  0.000  0.000  0.153
    2  0.000  0.000  0.063  0.091  0.000  0.000  0.000  0.000  0.000  0.153
tot    0.000  0.000  0.138  0.168  0.000  0.000  0.000  0.000  0.000  0.307

band     7 # energy    8.30606021 # occ.  0.00000000

ion      s     py     pz     px    dxy    dyz    dz2    dxz  x2-y2    tot
    1  0.000  0.000  0.078  0.076  0.000  0.000  0.000  0.000  0.000  0.153
    2  0.000  0.000  0.091  0.063  0.000  0.000  0.000  0.000  0.000  0.153
tot    0.000  0.000  0.168  0.138  0.000  0.000  0.000  0.000  0.000  0.307

band     8 # energy    8.91602208 # occ.  0.00000000

ion      s     py     pz     px    dxy    dyz    dz2    dxz  x2-y2    tot
    1  0.337  0.016  0.000  0.000  0.000  0.000  0.000  0.000  0.000  0.353
    2  0.337  0.016  0.000  0.000  0.000  0.000  0.000  0.000  0.000  0.353
tot    0.674  0.031  0.000  0.000  0.000  0.000  0.000  0.000  0.000  0.705


 k-point     5 :    0.05128205 0.00000000 0.05128205     weight = 0.00416667

band     1 # energy   -6.15457561 # occ.  2.00000000

ion      s     py     pz     px    dxy    dyz    dz2    dxz  x2-y2    tot
    1  0.212  0.000  0.000  0.000  0.000  0.000  0.000  0.000  0.000  0.212
    2  0.212  0.000  0.000  0.000  0.000  0.000  0.000  0.000  0.000  0.212
tot    0.423  0.001  0.000  0.000  0.000  0.000  0.000  0.000  0.000  0.424

band     2 # energy    5.31064471 # occ.  2.00000000

ion      s     py     pz     px    dxy    dyz    dz2    dxz  x2-y2    tot
    1  0.034  0.191  0.000  0.000  0.000  0.000  0.000  0.000  0.000  0.224
    2  0.034  0.191  0.000  0.000  0.000  0.000  0.000  0.000  0.000  0.224
tot    0.068  0.381  0.000  0.000  0.000  0.000  0.000  0.000  0.000  0.449

band     3 # energy    5.43437976 # occ.  2.00000000

ion      s     py     pz     px    dxy    dyz    dz2    dxz  x2-y2    tot
    1  0.000  0.000  0.105  0.105  0.000  0.000  0.000  0.000  0.000  0.210
    2  0.000  0.000  0.105  0.105  0.000  0.000  0.000  0.000  0.000  0.210
tot    0.000  0.000  0.210  0.210  0.000  0.000  0.000  0.000  0.000  0.420

band     4 # energy    5.43437984 # occ.  2.00000000

ion      s     py     pz     px    dxy    dyz    dz2    dxz  x2-y2    tot
    1  0.000  0.000  0.105  0.105  0.000  0.000  0.000  0.000  0.000  0.210
    2  0.000  0.000  0.105  0.105  0.000  0.000  0.000  0.000  0.000  0.210
tot    0.000  0.000  0.210  0.210  0.000  0.000  0.000  0.000  0.000  0.420

band     5 # energy    8.06171799 # occ.  0.00000000

ion      s     py     pz     px    dxy    dyz    dz2    dxz  x2-y2    tot
    1  0.005  0.143  0.000  0.000  0.000  0.000  0.000  0.000  0.000  0.148
    2  0.005  0.143  0.000  0.000  0.000  0.000  0.000  0.000  0.000  0.148
tot    0.009  0.287  0.000  0.000  0.000  0.000  0.000  0.000  0.000  0.296

band     6 # energy    8.40465249 # occ.  0.00000000

ion      s     py     pz     px    dxy    dyz    dz2    dxz  x2-y2    tot
    1  0.000  0.000  0.093  0.062  0.000  0.000  0.000  0.000  0.000  0.155
    2  0.000  0.000  0.090  0.065  0.000  0.000  0.000  0.000  0.000  0.155
tot    0.000  0.000  0.183  0.127  0.000  0.000  0.000  0.000  0.000  0.310

band     7 # energy    8.40465252 # occ.  0.00000000

ion      s     py     pz     px    dxy    dyz    dz2    dxz  x2-y2    tot
    1  0.000  0.000  0.062  0.093  0.000  0.000  0.000  0.000  0.000  0.155
    2  0.000  0.000  0.065  0.090  0.000  0.000  0.000  0.000  0.000  0.155
tot    0.000  0.000  0.127  0.183  0.000  0.000  0.000  0.000  0.000  0.310

band     8 # energy    9.03602920 # occ.  0.00000000

ion      s     py     pz     px    dxy    dyz    dz2    dxz  x2-y2    tot
    1  0.323  0.026  0.000  0.000  0.000  0.000  0.000  0.000  0.000  0.349
    2  0.323  0.026  0.000  0.000  0.000  0.000  0.000  0.000  0.000  0.349
tot    0.647  0.051  0.000  0.000  0.000  0.000  0.000  0.000  0.000  0.698


 k-point     6 :    0.06410256 0.00000000 0.06410256     weight = 0.00416667

band     1 # energy   -6.12915733 # occ.  2.00000000

ion      s     py     pz     px    dxy    dyz    dz2    dxz  x2-y2    tot
    1  0.212  0.001  0.000  0.000  0.000  0.000  0.000  0.000  0.000  0.212
    2  0.212  0.001  0.000  0.000  0.000  0.000  0.000  0.000  0.000  0.212
tot    0.423  0.002  0.000  0.000  0.000  0.000  0.000  0.000  0.000  0.425

band     2 # energy    5.16128783 # occ.  2.00000000

ion      s     py     pz     px    dxy    dyz    dz2    dxz  x2-y2    tot
    1  0.047  0.181  0.000  0.000  0.000  0.000  0.000  0.000  0.000  0.228
    2  0.047  0.181  0.000  0.000  0.000  0.000  0.000  0.000  0.000  0.228
tot    0.094  0.363  0.000  0.000  0.000  0.000  0.000  0.000  0.000  0.457

band     3 # energy    5.34614078 # occ.  2.00000000

ion      s     py     pz     px    dxy    dyz    dz2    dxz  x2-y2    tot
    1  0.000  0.000  0.104  0.104  0.000  0.000  0.000  0.000  0.000  0.208
    2  0.000  0.000  0.104  0.104  0.000  0.000  0.000  0.000  0.000  0.208
tot    0.000  0.000  0.208  0.208  0.000  0.000  0.000  0.000  0.000  0.416

band     4 # energy    5.34614086 # occ.  2.00000000

ion      s     py     pz     px    dxy    dyz    dz2    dxz  x2-y2    tot
    1  0.000  0.000  0.104  0.104  0.000  0.000  0.000  0.000  0.000  0.208
    2  0.000  0.000  0.104  0.104  0.000  0.000  0.000  0.000  0.000  0.208
tot    0.000  0.000  0.208  0.208  0.000  0.000  0.000  0.000  0.000  0.416

band     5 # energy    8.00443924 # occ.  0.00000000

ion      s     py     pz     px    dxy    dyz    dz2    dxz  x2-y2    tot
    1  0.007  0.140  0.000  0.000  0.000  0.000  0.000  0.000  0.000  0.147
    2  0.007  0.140  0.000  0.000  0.000  0.000  0.000  0.000  0.000  0.147
tot    0.014  0.279  0.000  0.000  0.000  0.000  0.000  0.000  0.000  0.293

band     6 # energy    8.52414945 # occ.  0.00000000

ion      s     py     pz     px    dxy    dyz    dz2    dxz  x2-y2    tot
    1  0.000  0.000  0.075  0.082  0.000  0.000  0.000  0.000  0.000  0.156
    2  0.000  0.000  0.079  0.077  0.000  0.000  0.000  0.000  0.000  0.156
tot    0.000  0.000  0.154  0.159  0.000  0.000  0.000  0.000  0.000  0.313

band     7 # energy    8.52414948 # occ.  0.00000000

ion      s     py     pz     px    dxy    dyz    dz2    dxz  x2-y2    tot
    1  0.000  0.000  0.082  0.075  0.000  0.000  0.000  0.000  0.000  0.156
    2  0.000  0.000  0.077  0.079  0.000  0.000  0.000  0.000  0.000  0.156
tot    0.000  0.000  0.159  0.154  0.000  0.000  0.000  0.000  0.000  0.313

band     8 # energy    9.17544512 # occ.  0.00000000

ion      s     py     pz     px    dxy    dyz    dz2    dxz  x2-y2    tot
    1  0.309  0.036  0.000  0.000  0.000  0.000  0.000  0.000  0.000  0.345
    2  0.309  0.036  0.000  0.000  0.000  0.000  0.000  0.000  0.000  0.345
tot    0.618  0.072  0.000  0.000  0.000  0.000  0.000  0.000  0.000  0.689


 k-point     7 :    0.07692308 0.00000000 0.07692308     weight = 0.00416667

band     1 # energy   -6.09810714 # occ.  2.00000000

ion      s     py     pz     px    dxy    dyz    dz2    dxz  x2-y2    tot
    1  0.211  0.001  0.000  0.000  0.000  0.000  0.000  0.000  0.000  0.213
    2  0.211  0.001  0.000  0.000  0.000  0.000  0.000  0.000  0.000  0.213
tot    0.423  0.002  0.000  0.000  0.000  0.000  0.000  0.000  0.000  0.425

band     2 # energy    4.99332260 # occ.  2.00000000

ion      s     py     pz     px    dxy    dyz    dz2    dxz  x2-y2    tot
    1  0.060  0.172  0.000  0.000  0.000  0.000  0.000  0.000  0.000  0.232
    2  0.060  0.172  0.000  0.000  0.000  0.000  0.000  0.000  0.000  0.232
tot    0.120  0.345  0.000  0.000  0.000  0.000  0.000  0.000  0.000  0.464

band     3 # energy    5.24730919 # occ.  2.00000000

ion      s     py     pz     px    dxy    dyz    dz2    dxz  x2-y2    tot
    1  0.000  0.000  0.103  0.103  0.000  0.000  0.000  0.000  0.000  0.207
    2  0.000  0.000  0.103  0.103  0.000  0.000  0.000  0.000  0.000  0.207
tot    0.000  0.000  0.206  0.207  0.000  0.000  0.000  0.000  0.000  0.413

band     4 # energy    5.24730926 # occ.  2.00000000

ion      s     py     pz     px    dxy    dyz    dz2    dxz  x2-y2    tot
    1  0.000  0.000  0.103  0.103  0.000  0.000  0.000  0.000  0.000  0.207
    2  0.000  0.000  0.103  0.103  0.000  0.000  0.000  0.000  0.000  0.207
tot    0.000  0.000  0.207  0.206  0.000  0.000  0.000  0.000  0.000  0.413

band     5 # energy    7.93772293 # occ.  0.00000000

ion      s     py     pz     px    dxy    dyz    dz2    dxz  x2-y2    tot
    1  0.009  0.136  0.000  0.000  0.000  0.000  0.000  0.000  0.000  0.145
    2  0.009  0.136  0.000  0.000  0.000  0.000  0.000  0.000  0.000  0.145
tot    0.019  0.271  0.000  0.000  0.000  0.000  0.000  0.000  0.000  0.290

band     6 # energy    8.66110812 # occ.  0.00000000

ion      s     py     pz     px    dxy    dyz    dz2    dxz  x2-y2    tot
    1  0.000  0.000  0.060  0.098  0.000  0.000  0.000  0.000  0.000  0.158
    2  0.000  0.000  0.091  0.067  0.000  0.000  0.000  0.000  0.000  0.158
tot    0.000  0.000  0.151  0.165  0.000  0.000  0.000  0.000  0.000  0.316

band     7 # energy    8.66110816 # occ.  0.00000000

ion      s     py     pz     px    dxy    dyz    dz2    dxz  x2-y2    tot
    1  0.000  0.000  0.098  0.060  0.000  0.000  0.000  0.000  0.000  0.158
    2  0.000  0.000  0.067  0.091  0.000  0.000  0.000  0.000  0.000  0.158
tot    0.000  0.000  0.165  0.151  0.000  0.000  0.000  0.000  0.000  0.316

band     8 # energy    9.32629636 # occ.  0.00000000

ion      s     py     pz     px    dxy    dyz    dz2    dxz  x2-y2    tot
    1  0.294  0.046  0.000  0.000  0.000  0.000  0.000  0.000  0.000  0.340
    2  0.294  0.046  0.000  0.000  0.000  0.000  0.000  0.000  0.000  0.340
tot    0.588  0.093  0.000  0.000  0.000  0.000  0.000  0.000  0.000  0.680


 k-point     8 :    0.08974359 0.00000000 0.08974359     weight = 0.00416667

band     1 # energy   -6.06144155 # occ.  2.00000000

ion      s     py     pz     px    dxy    dyz    dz2    dxz  x2-y2    tot
    1  0.211  0.001  0.000  0.000  0.000  0.000  0.000  0.000  0.000  0.213
    2  0.211  0.001  0.000  0.000  0.000  0.000  0.000  0.000  0.000  0.213
tot    0.423  0.003  0.000  0.000  0.000  0.000  0.000  0.000  0.000  0.426

band     2 # energy    4.81103695 # occ.  2.00000000

ion      s     py     pz     px    dxy    dyz    dz2    dxz  x2-y2    tot
    1  0.072  0.164  0.000  0.000  0.000  0.000  0.000  0.000  0.000  0.236
    2  0.072  0.164  0.000  0.000  0.000  0.000  0.000  0.000  0.000  0.236
tot    0.144  0.328  0.000  0.000  0.000  0.000  0.000  0.000  0.000  0.471

band     3 # energy    5.14083474 # occ.  2.00000000

ion      s     py     pz     px    dxy    dyz    dz2    dxz  x2-y2    tot
    1  0.000  0.000  0.103  0.103  0.000  0.000  0.000  0.000  0.000  0.205
    2  0.000  0.000  0.103  0.103  0.000  0.000  0.000  0.000  0.000  0.205
tot    0.000  0.000  0.205  0.205  0.000  0.000  0.000  0.000  0.000  0.410

band     4 # energy    5.14083481 # occ.  2.00000000

ion      s     py     pz     px    dxy    dyz    dz2    dxz  x2-y2    tot
    1  0.000  0.000  0.103  0.103  0.000  0.000  0.000  0.000  0.000  0.205
    2  0.000  0.000  0.103  0.103  0.000  0.000  0.000  0.000  0.000  0.205
tot    0.000  0.000  0.205  0.205  0.000  0.000  0.000  0.000  0.000  0.410

band     5 # energy    7.86309923 # occ.  0.00000000

ion      s     py     pz     px    dxy    dyz    dz2    dxz  x2-y2    tot
    1  0.012  0.131  0.000  0.000  0.000  0.000  0.000  0.000  0.000  0.143
    2  0.012  0.131  0.000  0.000  0.000  0.000  0.000  0.000  0.000  0.143
tot    0.024  0.262  0.000  0.000  0.000  0.000  0.000  0.000  0.000  0.286

band     6 # energy    8.81253336 # occ.  0.00000000

ion      s     py     pz     px    dxy    dyz    dz2    dxz  x2-y2    tot
    1  0.000  0.000  0.069  0.090  0.000  0.000  0.000  0.000  0.000  0.160
    2  0.000  0.000  0.075  0.085  0.000  0.000  0.000  0.000  0.000  0.160
tot    0.000  0.000  0.144  0.175  0.000  0.000  0.000  0.000  0.000  0.319

band     7 # energy    8.81253347 # occ.  0.00000000

ion      s     py     pz     px    dxy    dyz    dz2    dxz  x2-y2    tot
    1  0.000  0.000  0.090  0.069  0.000  0.000  0.000  0.000  0.000  0.160
    2  0.000  0.000  0.085  0.075  0.000  0.000  0.000  0.000  0.000  0.160
tot    0.000  0.000  0.175  0.144  0.000  0.000  0.000  0.000  0.000  0.319

band     8 # energy    9.48008516 # occ.  0.00000000

ion      s     py     pz     px    dxy    dyz    dz2    dxz  x2-y2    tot
    1  0.278  0.056  0.000  0.000  0.000  0.000  0.000  0.000  0.000  0.334
    2  0.278  0.056  0.000  0.000  0.000  0.000  0.000  0.000  0.000  0.334
tot    0.556  0.113  0.000  0.000  0.000  0.000  0.000  0.000  0.000  0.669


 k-point     9 :    0.10256410 0.00000000 0.10256410     weight = 0.00416667

band     1 # energy   -6.01918511 # occ.  2.00000000

ion      s     py     pz     px    dxy    dyz    dz2    dxz  x2-y2    tot
    1  0.211  0.002  0.000  0.000  0.000  0.000  0.000  0.000  0.000  0.213
    2  0.211  0.002  0.000  0.000  0.000  0.000  0.000  0.000  0.000  0.213
tot    0.422  0.004  0.000  0.000  0.000  0.000  0.000  0.000  0.000  0.426

band     2 # energy    4.61779262 # occ.  2.00000000

ion      s     py     pz     px    dxy    dyz    dz2    dxz  x2-y2    tot
    1  0.083  0.156  0.000  0.000  0.000  0.000  0.000  0.000  0.000  0.239
    2  0.083  0.156  0.000  0.000  0.000  0.000  0.000  0.000  0.000  0.239
tot    0.166  0.312  0.000  0.000  0.000  0.000  0.000  0.000  0.000  0.478

band     3 # energy    5.02915092 # occ.  2.00000000

ion      s     py     pz     px    dxy    dyz    dz2    dxz  x2-y2    tot
    1  0.000  0.000  0.102  0.102  0.000  0.000  0.000  0.000  0.000  0.204
    2  0.000  0.000  0.102  0.102  0.000  0.000  0.000  0.000  0.000  0.204
tot    0.000  0.000  0.204  0.204  0.000  0.000  0.000  0.000  0.000  0.407

band     4 # energy    5.02915099 # occ.  2.00000000

ion      s     py     pz     px    dxy    dyz    dz2    dxz  x2-y2    tot
    1  0.000  0.000  0.102  0.102  0.000  0.000  0.000  0.000  0.000  0.204
    2  0.000  0.000  0.102  0.102  0.000  0.000  0.000  0.000  0.000  0.204
tot    0.000  0.000  0.204  0.204  0.000  0.000  0.000  0.000  0.000  0.407

band     5 # energy    7.78208306 # occ.  0.00000000

ion      s     py     pz     px    dxy    dyz    dz2    dxz  x2-y2    tot
    1  0.015  0.126  0.000  0.000  0.000  0.000  0.000  0.000  0.000  0.141
    2  0.015  0.126  0.000  0.000  0.000  0.000  0.000  0.000  0.000  0.141
tot    0.030  0.253  0.000  0.000  0.000  0.000  0.000  0.000  0.000  0.283

band     6 # energy    8.97593751 # occ.  0.00000000

ion      s     py     pz     px    dxy    dyz    dz2    dxz  x2-y2    tot
    1  0.000  0.000  0.076  0.085  0.000  0.000  0.000  0.000  0.000  0.161
    2  0.000  0.000  0.126  0.035  0.000  0.000  0.000  0.000  0.000  0.161
tot    0.000  0.000  0.201  0.120  0.000  0.000  0.000  0.000  0.000  0.322

band     7 # energy    8.97593760 # occ.  0.00000000

ion      s     py     pz     px    dxy    dyz    dz2    dxz  x2-y2    tot
    1  0.000  0.000  0.085  0.076  0.000  0.000  0.000  0.000  0.000  0.161
    2  0.000  0.000  0.035  0.126  0.000  0.000  0.000  0.000  0.000  0.161
tot    0.000  0.000  0.120  0.201  0.000  0.000  0.000  0.000  0.000  0.322

band     8 # energy    9.62707558 # occ.  0.00000000

ion      s     py     pz     px    dxy    dyz    dz2    dxz  x2-y2    tot
    1  0.261  0.066  0.000  0.000  0.000  0.000  0.000  0.000  0.000  0.326
    2  0.261  0.066  0.000  0.000  0.000  0.000  0.000  0.000  0.000  0.326
tot    0.522  0.131  0.000  0.000  0.000  0.000  0.000  0.000  0.000  0.653


 k-point    10 :    0.11538462 0.00000000 0.11538462     weight = 0.00416667

band     1 # energy   -5.97133548 # occ.  2.00000000

ion      s     py     pz     px    dxy    dyz    dz2    dxz  x2-y2    tot
    1  0.211  0.002  0.000  0.000  0.000  0.000  0.000  0.000  0.000  0.213
    2  0.211  0.002  0.000  0.000  0.000  0.000  0.000  0.000  0.000  0.213
tot    0.422  0.005  0.000  0.000  0.000  0.000  0.000  0.000  0.000  0.427

band     2 # energy    4.41618241 # occ.  2.00000000

ion      s     py     pz     px    dxy    dyz    dz2    dxz  x2-y2    tot
    1  0.093  0.148  0.000  0.000  0.000  0.000  0.000  0.000  0.000  0.242
    2  0.093  0.148  0.000  0.000  0.000  0.000  0.000  0.000  0.000  0.242
tot    0.186  0.297  0.000  0.000  0.000  0.000  0.000  0.000  0.000  0.483

band     3 # energy    4.91422093 # occ.  2.00000000

ion      s     py     pz     px    dxy    dyz    dz2    dxz  x2-y2    tot
    1  0.000  0.000  0.101  0.101  0.000  0.000  0.000  0.000  0.000  0.203
    2  0.000  0.000  0.101  0.101  0.000  0.000  0.000  0.000  0.000  0.203
tot    0.000  0.000  0.203  0.203  0.000  0.000  0.000  0.000  0.000  0.405

band     4 # energy    4.91422100 # occ.  2.00000000

ion      s     py     pz     px    dxy    dyz    dz2    dxz  x2-y2    tot
    1  0.000  0.000  0.101  0.101  0.000  0.000  0.000  0.000  0.000  0.203
    2  0.000  0.000  0.101  0.101  0.000  0.000  0.000  0.000  0.000  0.203
tot    0.000  0.000  0.203  0.203  0.000  0.000  0.000  0.000  0.000  0.405

band     5 # energy    7.69614564 # occ.  0.00000000

ion      s     py     pz     px    dxy    dyz    dz2    dxz  x2-y2    tot
    1  0.018  0.122  0.000  0.000  0.000  0.000  0.000  0.000  0.000  0.139
    2  0.018  0.122  0.000  0.000  0.000  0.000  0.000  0.000  0.000  0.139
tot    0.036  0.243  0.000  0.000  0.000  0.000  0.000  0.000  0.000  0.279

band     6 # energy    9.14930848 # occ.  0.00000000

ion      s     py     pz     px    dxy    dyz    dz2    dxz  x2-y2    tot
    1  0.000  0.000  0.135  0.027  0.000  0.000  0.000  0.000  0.000  0.162
    2  0.000  0.000  0.030  0.132  0.000  0.000  0.000  0.000  0.000  0.162
tot    0.000  0.000  0.165  0.159  0.000  0.000  0.000  0.000  0.000  0.324

band     7 # energy    9.14930857 # occ.  0.00000000

ion      s     py     pz     px    dxy    dyz    dz2    dxz  x2-y2    tot
    1  0.000  0.000  0.027  0.135  0.000  0.000  0.000  0.000  0.000  0.162
    2  0.000  0.000  0.132  0.030  0.000  0.000  0.000  0.000  0.000  0.162
tot    0.000  0.000  0.159  0.165  0.000  0.000  0.000  0.000  0.000  0.324

band     8 # energy    9.75545176 # occ.  0.00000000

ion      s     py     pz     px    dxy    dyz    dz2    dxz  x2-y2    tot
    1  0.241  0.073  0.000  0.000  0.000  0.000  0.000  0.000  0.000  0.314
    2  0.241  0.073  0.000  0.000  0.000  0.000  0.000  0.000  0.000  0.314
tot    0.482  0.146  0.000  0.000  0.000  0.000  0.000  0.000  0.000  0.628


 k-point    11 :    0.12820513 0.00000000 0.12820513     weight = 0.00416667

band     1 # energy   -5.91791459 # occ.  2.00000000

ion      s     py     pz     px    dxy    dyz    dz2    dxz  x2-y2    tot
    1  0.211  0.003  0.000  0.000  0.000  0.000  0.000  0.000  0.000  0.214
    2  0.211  0.003  0.000  0.000  0.000  0.000  0.000  0.000  0.000  0.214
tot    0.421  0.006  0.000  0.000  0.000  0.000  0.000  0.000  0.000  0.427

band     2 # energy    4.20814546 # occ.  2.00000000

ion      s     py     pz     px    dxy    dyz    dz2    dxz  x2-y2    tot
    1  0.102  0.142  0.000  0.000  0.000  0.000  0.000  0.000  0.000  0.244
    2  0.102  0.142  0.000  0.000  0.000  0.000  0.000  0.000  0.000  0.244
tot    0.205  0.283  0.000  0.000  0.000  0.000  0.000  0.000  0.000  0.488

band     3 # energy    4.79755062 # occ.  2.00000000

ion      s     py     pz     px    dxy    dyz    dz2    dxz  x2-y2    tot
    1  0.000  0.000  0.101  0.101  0.000  0.000  0.000  0.000  0.000  0.201
    2  0.000  0.000  0.101  0.101  0.000  0.000  0.000  0.000  0.000  0.201
tot    0.000  0.000  0.201  0.201  0.000  0.000  0.000  0.000  0.000  0.403

band     4 # energy    4.79755069 # occ.  2.00000000

ion      s     py     pz     px    dxy    dyz    dz2    dxz  x2-y2    tot
    1  0.000  0.000  0.101  0.101  0.000  0.000  0.000  0.000  0.000  0.201
    2  0.000  0.000  0.101  0.101  0.000  0.000  0.000  0.000  0.000  0.201
tot    0.000  0.000  0.201  0.201  0.000  0.000  0.000  0.000  0.000  0.403

band     5 # energy    7.60660510 # occ.  0.00000000

ion      s     py     pz     px    dxy    dyz    dz2    dxz  x2-y2    tot
    1  0.021  0.117  0.000  0.000  0.000  0.000  0.000  0.000  0.000  0.137
    2  0.021  0.117  0.000  0.000  0.000  0.000  0.000  0.000  0.000  0.137
tot    0.041  0.234  0.000  0.000  0.000  0.000  0.000  0.000  0.000  0.275

band     6 # energy    9.33099186 # occ.  0.00000000

ion      s     py     pz     px    dxy    dyz    dz2    dxz  x2-y2    tot
    1  0.000  0.000  0.023  0.140  0.000  0.000  0.000  0.000  0.000  0.163
    2  0.000  0.000  0.100  0.064  0.000  0.000  0.000  0.000  0.000  0.163
tot    0.000  0.000  0.122  0.204  0.000  0.000  0.000  0.000  0.000  0.326

band     7 # energy    9.33099197 # occ.  0.00000000

ion      s     py     pz     px    dxy    dyz    dz2    dxz  x2-y2    tot
    1  0.000  0.000  0.140  0.023  0.000  0.000  0.000  0.000  0.000  0.163
    2  0.000  0.000  0.064  0.100  0.000  0.000  0.000  0.000  0.000  0.163
tot    0.000  0.000  0.204  0.122  0.000  0.000  0.000  0.000  0.000  0.326

band     8 # energy    9.85094934 # occ.  0.00000000

ion      s     py     pz     px    dxy    dyz    dz2    dxz  x2-y2    tot
    1  0.216  0.078  0.000  0.000  0.000  0.000  0.000  0.000  0.000  0.294
    2  0.216  0.078  0.000  0.000  0.000  0.000  0.000  0.000  0.000  0.294
tot    0.433  0.156  0.000  0.000  0.000  0.000  0.000  0.000  0.000  0.589


 k-point    12 :    0.14102564 0.00000000 0.14102564     weight = 0.00416667

band     1 # energy   -5.85893940 # occ.  2.00000000

ion      s     py     pz     px    dxy    dyz    dz2    dxz  x2-y2    tot
    1  0.210  0.004  0.000  0.000  0.000  0.000  0.000  0.000  0.000  0.214
    2  0.210  0.004  0.000  0.000  0.000  0.000  0.000  0.000  0.000  0.214
tot    0.421  0.007  0.000  0.000  0.000  0.000  0.000  0.000  0.000  0.428

band     2 # energy    3.99519028 # occ.  2.00000000

ion      s     py     pz     px    dxy    dyz    dz2    dxz  x2-y2    tot
    1  0.111  0.135  0.000  0.000  0.000  0.000  0.000  0.000  0.000  0.246
    2  0.111  0.135  0.000  0.000  0.000  0.000  0.000  0.000  0.000  0.246
tot    0.221  0.271  0.000  0.000  0.000  0.000  0.000  0.000  0.000  0.492

band     3 # energy    4.68046807 # occ.  2.00000000

ion      s     py     pz     px    dxy    dyz    dz2    dxz  x2-y2    tot
    1  0.000  0.000  0.100  0.100  0.000  0.000  0.000  0.000  0.000  0.201
    2  0.000  0.000  0.100  0.100  0.000  0.000  0.000  0.000  0.000  0.201
tot    0.000  0.000  0.201  0.201  0.000  0.000  0.000  0.000  0.000  0.401

band     4 # energy    4.68046814 # occ.  2.00000000

ion      s     py     pz     px    dxy    dyz    dz2    dxz  x2-y2    tot
    1  0.000  0.000  0.100  0.100  0.000  0.000  0.000  0.000  0.000  0.201
    2  0.000  0.000  0.100  0.100  0.000  0.000  0.000  0.000  0.000  0.201
tot    0.000  0.000  0.201  0.201  0.000  0.000  0.000  0.000  0.000  0.401

band     5 # energy    7.51474105 # occ.  0.00000000

ion      s     py     pz     px    dxy    dyz    dz2    dxz  x2-y2    tot
    1  0.023  0.112  0.000  0.000  0.000  0.000  0.000  0.000  0.000  0.136
    2  0.023  0.112  0.000  0.000  0.000  0.000  0.000  0.000  0.000  0.136
tot    0.047  0.224  0.000  0.000  0.000  0.000  0.000  0.000  0.000  0.271

band     6 # energy    9.51976115 # occ.  0.00000000

ion      s     py     pz     px    dxy    dyz    dz2    dxz  x2-y2    tot
    1  0.000  0.000  0.157  0.007  0.000  0.000  0.000  0.000  0.000  0.164
    2  0.000  0.000  0.030  0.134  0.000  0.000  0.000  0.000  0.000  0.164
tot    0.000  0.000  0.186  0.141  0.000  0.000  0.000  0.000  0.000  0.328

band     7 # energy    9.51976173 # occ.  0.00000000

ion      s     py     pz     px    dxy    dyz    dz2    dxz  x2-y2    tot
    1  0.000  0.000  0.007  0.157  0.000  0.000  0.000  0.000  0.000  0.164
    2  0.000  0.000  0.134  0.030  0.000  0.000  0.000  0.000  0.000  0.164
tot    0.000  0.000  0.141  0.186  0.000  0.000  0.000  0.000  0.000  0.328

band     8 # energy    9.89889060 # occ.  0.00000000

ion      s     py     pz     px    dxy    dyz    dz2    dxz  x2-y2    tot
    1  0.188  0.079  0.000  0.000  0.000  0.000  0.000  0.000  0.000  0.267
    2  0.188  0.079  0.000  0.000  0.000  0.000  0.000  0.000  0.000  0.267
tot    0.375  0.158  0.000  0.000  0.000  0.000  0.000  0.000  0.000  0.534


 k-point    13 :    0.15384615 0.00000000 0.15384615     weight = 0.00416667

band     1 # energy   -5.79443470 # occ.  2.00000000

ion      s     py     pz     px    dxy    dyz    dz2    dxz  x2-y2    tot
    1  0.210  0.004  0.000  0.000  0.000  0.000  0.000  0.000  0.000  0.214
    2  0.210  0.004  0.000  0.000  0.000  0.000  0.000  0.000  0.000  0.214
tot    0.420  0.009  0.000  0.000  0.000  0.000  0.000  0.000  0.000  0.429

band     2 # energy    3.77842633 # occ.  2.00000000

ion      s     py     pz     px    dxy    dyz    dz2    dxz  x2-y2    tot
    1  0.118  0.130  0.000  0.000  0.000  0.000  0.000  0.000  0.000  0.248
    2  0.118  0.130  0.000  0.000  0.000  0.000  0.000  0.000  0.000  0.248
tot    0.236  0.259  0.000  0.000  0.000  0.000  0.000  0.000  0.000  0.496

band     3 # energy    4.56390552 # occ.  2.00000000

ion      s     py     pz     px    dxy    dyz    dz2    dxz  x2-y2    tot
    1  0.000  0.000  0.100  0.100  0.000  0.000  0.000  0.000  0.000  0.200
    2  0.000  0.000  0.100  0.100  0.000  0.000  0.000  0.000  0.000  0.200
tot    0.000  0.000  0.200  0.200  0.000  0.000  0.000  0.000  0.000  0.399

band     4 # energy    4.56390559 # occ.  2.00000000

ion      s     py     pz     px    dxy    dyz    dz2    dxz  x2-y2    tot
    1  0.000  0.000  0.100  0.100  0.000  0.000  0.000  0.000  0.000  0.200
    2  0.000  0.000  0.100  0.100  0.000  0.000  0.000  0.000  0.000  0.200
tot    0.000  0.000  0.200  0.200  0.000  0.000  0.000  0.000  0.000  0.399

band     5 # energy    7.42163593 # occ.  0.00000000

ion      s     py     pz     px    dxy    dyz    dz2    dxz  x2-y2    tot
    1  0.026  0.107  0.000  0.000  0.000  0.000  0.000  0.000  0.000  0.134
    2  0.026  0.107  0.000  0.000  0.000  0.000  0.000  0.000  0.000  0.134
tot    0.052  0.215  0.000  0.000  0.000  0.000  0.000  0.000  0.000  0.267

band     6 # energy    9.71460196 # occ.  0.00000000

ion      s     py     pz     px    dxy    dyz    dz2    dxz  x2-y2    tot
    1  0.000  0.000  0.090  0.074  0.000  0.000  0.000  0.000  0.000  0.165
    2  0.000  0.000  0.087  0.078  0.000  0.000  0.000  0.000  0.000  0.165
tot    0.000  0.000  0.177  0.152  0.000  0.000  0.000  0.000  0.000  0.329

band     7 # energy    9.71460202 # occ.  0.00000000

ion      s     py     pz     px    dxy    dyz    dz2    dxz  x2-y2    tot
    1  0.000  0.000  0.074  0.090  0.000  0.000  0.000  0.000  0.000  0.165
    2  0.000  0.000  0.078  0.087  0.000  0.000  0.000  0.000  0.000  0.165
tot    0.000  0.000  0.152  0.177  0.000  0.000  0.000  0.000  0.000  0.329

band     8 # energy    9.88942459 # occ.  0.00000000

ion      s     py     pz     px    dxy    dyz    dz2    dxz  x2-y2    tot
    1  0.157  0.076  0.000  0.000  0.000  0.000  0.000  0.000  0.000  0.233
    2  0.157  0.076  0.000  0.000  0.000  0.000  0.000  0.000  0.000  0.233
tot    0.313  0.153  0.000  0.000  0.000  0.000  0.000  0.000  0.000  0.466


 k-point    14 :    0.16666667 0.00000000 0.16666667     weight = 0.00416667

band     1 # energy   -5.72442277 # occ.  2.00000000

ion      s     py     pz     px    dxy    dyz    dz2    dxz  x2-y2    tot
    1  0.210  0.005  0.000  0.000  0.000  0.000  0.000  0.000  0.000  0.215
    2  0.210  0.005  0.000  0.000  0.000  0.000  0.000  0.000  0.000  0.215
tot    0.419  0.010  0.000  0.000  0.000  0.000  0.000  0.000  0.000  0.430

band     2 # energy    3.55873414 # occ.  2.00000000

ion      s     py     pz     px    dxy    dyz    dz2    dxz  x2-y2    tot
    1  0.125  0.124  0.000  0.000  0.000  0.000  0.000  0.000  0.000  0.249
    2  0.125  0.124  0.000  0.000  0.000  0.000  0.000  0.000  0.000  0.249
tot    0.250  0.249  0.000  0.000  0.000  0.000  0.000  0.000  0.000  0.499

band     3 # energy    4.44866690 # occ.  2.00000000

ion      s     py     pz     px    dxy    dyz    dz2    dxz  x2-y2    tot
    1  0.000  0.000  0.099  0.099  0.000  0.000  0.000  0.000  0.000  0.199
    2  0.000  0.000  0.099  0.099  0.000  0.000  0.000  0.000  0.000  0.199
tot    0.000  0.000  0.199  0.199  0.000  0.000  0.000  0.000  0.000  0.398

band     4 # energy    4.44866696 # occ.  2.00000000

ion      s     py     pz     px    dxy    dyz    dz2    dxz  x2-y2    tot
    1  0.000  0.000  0.099  0.099  0.000  0.000  0.000  0.000  0.000  0.199
    2  0.000  0.000  0.099  0.099  0.000  0.000  0.000  0.000  0.000  0.199
tot    0.000  0.000  0.199  0.199  0.000  0.000  0.000  0.000  0.000  0.398

band     5 # energy    7.32826460 # occ.  0.00000000

ion      s     py     pz     px    dxy    dyz    dz2    dxz  x2-y2    tot
    1  0.029  0.103  0.000  0.000  0.000  0.000  0.000  0.000  0.000  0.132
    2  0.029  0.103  0.000  0.000  0.000  0.000  0.000  0.000  0.000  0.132
tot    0.057  0.206  0.000  0.000  0.000  0.000  0.000  0.000  0.000  0.263

band     6 # energy    9.82344097 # occ.  0.00000000

ion      s     py     pz     px    dxy    dyz    dz2    dxz  x2-y2    tot
    1  0.128  0.071  0.000  0.000  0.000  0.000  0.000  0.000  0.000  0.198
    2  0.128  0.071  0.000  0.000  0.000  0.000  0.000  0.000  0.000  0.198
tot    0.255  0.141  0.000  0.000  0.000  0.000  0.000  0.000  0.000  0.397

band     7 # energy    9.91460996 # occ.  0.00000000

ion      s     py     pz     px    dxy    dyz    dz2    dxz  x2-y2    tot
    1  0.000  0.000  0.046  0.119  0.000  0.000  0.000  0.000  0.000  0.165
    2  0.000  0.000  0.102  0.063  0.000  0.000  0.000  0.000  0.000  0.165
tot    0.000  0.000  0.149  0.182  0.000  0.000  0.000  0.000  0.000  0.331

band     8 # energy    9.91461003 # occ.  0.00000000

ion      s     py     pz     px    dxy    dyz    dz2    dxz  x2-y2    tot
    1  0.000  0.000  0.119  0.046  0.000  0.000  0.000  0.000  0.000  0.165
    2  0.000  0.000  0.063  0.102  0.000  0.000  0.000  0.000  0.000  0.165
tot    0.000  0.000  0.182  0.149  0.000  0.000  0.000  0.000  0.000  0.331


 k-point    15 :    0.17948718 0.00000000 0.17948718     weight = 0.00416667

band     1 # energy   -5.64894908 # occ.  2.00000000

ion      s     py     pz     px    dxy    dyz    dz2    dxz  x2-y2    tot
    1  0.209  0.006  0.000  0.000  0.000  0.000  0.000  0.000  0.000  0.215
    2  0.209  0.006  0.000  0.000  0.000  0.000  0.000  0.000  0.000  0.215
tot    0.419  0.012  0.000  0.000  0.000  0.000  0.000  0.000  0.000  0.430

band     2 # energy    3.33677119 # occ.  2.00000000

ion      s     py     pz     px    dxy    dyz    dz2    dxz  x2-y2    tot
    1  0.131  0.119  0.000  0.000  0.000  0.000  0.000  0.000  0.000  0.251
    2  0.131  0.119  0.000  0.000  0.000  0.000  0.000  0.000  0.000  0.251
tot    0.262  0.239  0.000  0.000  0.000  0.000  0.000  0.000  0.000  0.501

band     3 # energy    4.33528354 # occ.  2.00000000

ion      s     py     pz     px    dxy    dyz    dz2    dxz  x2-y2    tot
    1  0.000  0.000  0.099  0.099  0.000  0.000  0.000  0.000  0.000  0.198
    2  0.000  0.000  0.099  0.099  0.000  0.000  0.000  0.000  0.000  0.198
tot    0.000  0.000  0.198  0.198  0.000  0.000  0.000  0.000  0.000  0.397

band     4 # energy    4.33528361 # occ.  2.00000000

ion      s     py     pz     px    dxy    dyz    dz2    dxz  x2-y2    tot
    1  0.000  0.000  0.099  0.099  0.000  0.000  0.000  0.000  0.000  0.198
    2  0.000  0.000  0.099  0.099  0.000  0.000  0.000  0.000  0.000  0.198
tot    0.000  0.000  0.198  0.198  0.000  0.000  0.000  0.000  0.000  0.397

band     5 # energy    7.23542384 # occ.  0.00000000

ion      s     py     pz     px    dxy    dyz    dz2    dxz  x2-y2    tot
    1  0.031  0.099  0.000  0.000  0.000  0.000  0.000  0.000  0.000  0.130
    2  0.031  0.099  0.000  0.000  0.000  0.000  0.000  0.000  0.000  0.130
tot    0.062  0.197  0.000  0.000  0.000  0.000  0.000  0.000  0.000  0.259

band     6 # energy    9.71074383 # occ.  0.00000000

ion      s     py     pz     px    dxy    dyz    dz2    dxz  x2-y2    tot
    1  0.104  0.064  0.000  0.000  0.000  0.000  0.000  0.000  0.000  0.168
    2  0.104  0.064  0.000  0.000  0.000  0.000  0.000  0.000  0.000  0.168
tot    0.208  0.128  0.000  0.000  0.000  0.000  0.000  0.000  0.000  0.336

band     7 # energy   10.11899789 # occ.  0.00000000

ion      s     py     pz     px    dxy    dyz    dz2    dxz  x2-y2    tot
    1  0.000  0.000  0.048  0.118  0.000  0.000  0.000  0.000  0.000  0.166
    2  0.000  0.000  0.116  0.050  0.000  0.000  0.000  0.000  0.000  0.166
tot    0.000  0.000  0.164  0.168  0.000  0.000  0.000  0.000  0.000  0.332

band     8 # energy   10.11899812 # occ.  0.00000000

ion      s     py     pz     px    dxy    dyz    dz2    dxz  x2-y2    tot
    1  0.000  0.000  0.118  0.048  0.000  0.000  0.000  0.000  0.000  0.166
    2  0.000  0.000  0.050  0.116  0.000  0.000  0.000  0.000  0.000  0.166
tot    0.000  0.000  0.168  0.164  0.000  0.000  0.000  0.000  0.000  0.332


 k-point    16 :    0.19230769 0.00000000 0.19230769     weight = 0.00416667

band     1 # energy   -5.56803794 # occ.  2.00000000

ion      s     py     pz     px    dxy    dyz    dz2    dxz  x2-y2    tot
    1  0.209  0.007  0.000  0.000  0.000  0.000  0.000  0.000  0.000  0.216
    2  0.209  0.007  0.000  0.000  0.000  0.000  0.000  0.000  0.000  0.216
tot    0.418  0.014  0.000  0.000  0.000  0.000  0.000  0.000  0.000  0.431

band     2 # energy    3.11307725 # occ.  2.00000000

ion      s     py     pz     px    dxy    dyz    dz2    dxz  x2-y2    tot
    1  0.137  0.115  0.000  0.000  0.000  0.000  0.000  0.000  0.000  0.252
    2  0.137  0.115  0.000  0.000  0.000  0.000  0.000  0.000  0.000  0.252
tot    0.274  0.230  0.000  0.000  0.000  0.000  0.000  0.000  0.000  0.503

band     3 # energy    4.22436638 # occ.  2.00000000

ion      s     py     pz     px    dxy    dyz    dz2    dxz  x2-y2    tot
    1  0.000  0.000  0.099  0.099  0.000  0.000  0.000  0.000  0.000  0.198
    2  0.000  0.000  0.099  0.099  0.000  0.000  0.000  0.000  0.000  0.198
tot    0.000  0.000  0.198  0.198  0.000  0.000  0.000  0.000  0.000  0.396

band     4 # energy    4.22436645 # occ.  2.00000000

ion      s     py     pz     px    dxy    dyz    dz2    dxz  x2-y2    tot
    1  0.000  0.000  0.099  0.099  0.000  0.000  0.000  0.000  0.000  0.198
    2  0.000  0.000  0.099  0.099  0.000  0.000  0.000  0.000  0.000  0.198
tot    0.000  0.000  0.198  0.198  0.000  0.000  0.000  0.000  0.000  0.396

band     5 # energy    7.14400439 # occ.  0.00000000

ion      s     py     pz     px    dxy    dyz    dz2    dxz  x2-y2    tot
    1  0.033  0.094  0.000  0.000  0.000  0.000  0.000  0.000  0.000  0.128
    2  0.033  0.094  0.000  0.000  0.000  0.000  0.000  0.000  0.000  0.128
tot    0.067  0.189  0.000  0.000  0.000  0.000  0.000  0.000  0.000  0.256

band     6 # energy    9.56481486 # occ.  0.00000000

ion      s     py     pz     px    dxy    dyz    dz2    dxz  x2-y2    tot
    1  0.086  0.058  0.000  0.000  0.000  0.000  0.000  0.000  0.000  0.144
    2  0.086  0.058  0.000  0.000  0.000  0.000  0.000  0.000  0.000  0.144
tot    0.173  0.116  0.000  0.000  0.000  0.000  0.000  0.000  0.000  0.289

band     7 # energy   10.32733633 # occ.  0.00000000

ion      s     py     pz     px    dxy    dyz    dz2    dxz  x2-y2    tot
    1  0.000  0.000  0.001  0.165  0.000  0.000  0.000  0.000  0.000  0.166
    2  0.000  0.000  0.164  0.002  0.000  0.000  0.000  0.000  0.000  0.166
tot    0.000  0.000  0.165  0.167  0.000  0.000  0.000  0.000  0.000  0.333

band     8 # energy   10.32734115 # occ.  0.00000000

ion      s     py     pz     px    dxy    dyz    dz2    dxz  x2-y2    tot
    1  0.000  0.000  0.165  0.001  0.000  0.000  0.000  0.000  0.000  0.166
    2  0.000  0.000  0.002  0.164  0.000  0.000  0.000  0.000  0.000  0.166
tot    0.000  0.000  0.167  0.165  0.000  0.000  0.000  0.000  0.000  0.332


 k-point    17 :    0.20512821 0.00000000 0.20512821     weight = 0.00416667

band     1 # energy   -5.48171388 # occ.  2.00000000

ion      s     py     pz     px    dxy    dyz    dz2    dxz  x2-y2    tot
    1  0.208  0.008  0.000  0.000  0.000  0.000  0.000  0.000  0.000  0.216
    2  0.208  0.008  0.000  0.000  0.000  0.000  0.000  0.000  0.000  0.216
tot    0.417  0.015  0.000  0.000  0.000  0.000  0.000  0.000  0.000  0.432

band     2 # energy    2.88806845 # occ.  2.00000000

ion      s     py     pz     px    dxy    dyz    dz2    dxz  x2-y2    tot
    1  0.142  0.110  0.000  0.000  0.000  0.000  0.000  0.000  0.000  0.252
    2  0.142  0.110  0.000  0.000  0.000  0.000  0.000  0.000  0.000  0.252
tot    0.284  0.221  0.000  0.000  0.000  0.000  0.000  0.000  0.000  0.505

band     3 # energy    4.11629978 # occ.  2.00000000

ion      s     py     pz     px    dxy    dyz    dz2    dxz  x2-y2    tot
    1  0.000  0.000  0.099  0.099  0.000  0.000  0.000  0.000  0.000  0.197
    2  0.000  0.000  0.099  0.099  0.000  0.000  0.000  0.000  0.000  0.197
tot    0.000  0.000  0.197  0.197  0.000  0.000  0.000  0.000  0.000  0.395

band     4 # energy    4.11629984 # occ.  2.00000000

ion      s     py     pz     px    dxy    dyz    dz2    dxz  x2-y2    tot
    1  0.000  0.000  0.099  0.099  0.000  0.000  0.000  0.000  0.000  0.197
    2  0.000  0.000  0.099  0.099  0.000  0.000  0.000  0.000  0.000  0.197
tot    0.000  0.000  0.197  0.197  0.000  0.000  0.000  0.000  0.000  0.395

band     5 # energy    7.05461072 # occ.  0.00000000

ion      s     py     pz     px    dxy    dyz    dz2    dxz  x2-y2    tot
    1  0.036  0.090  0.000  0.000  0.000  0.000  0.000  0.000  0.000  0.126
    2  0.036  0.090  0.000  0.000  0.000  0.000  0.000  0.000  0.000  0.126
tot    0.071  0.181  0.000  0.000  0.000  0.000  0.000  0.000  0.000  0.252

band     6 # energy    9.39753137 # occ.  0.00000000

ion      s     py     pz     px    dxy    dyz    dz2    dxz  x2-y2    tot
    1  0.074  0.053  0.000  0.000  0.000  0.000  0.000  0.000  0.000  0.126
    2  0.074  0.053  0.000  0.000  0.000  0.000  0.000  0.000  0.000  0.126
tot    0.147  0.106  0.000  0.000  0.000  0.000  0.000  0.000  0.000  0.253

band     7 # energy   10.53912292 # occ.  0.00000000

ion      s     py     pz     px    dxy    dyz    dz2    dxz  x2-y2    tot
    1  0.000  0.000  0.063  0.103  0.000  0.000  0.000  0.000  0.000  0.167
    2  0.000  0.000  0.098  0.069  0.000  0.000  0.000  0.000  0.000  0.167
tot    0.000  0.000  0.161  0.172  0.000  0.000  0.000  0.000  0.000  0.333

band     8 # energy   10.53912297 # occ.  0.00000000

ion      s     py     pz     px    dxy    dyz    dz2    dxz  x2-y2    tot
    1  0.000  0.000  0.103  0.063  0.000  0.000  0.000  0.000  0.000  0.167
    2  0.000  0.000  0.069  0.098  0.000  0.000  0.000  0.000  0.000  0.167
tot    0.000  0.000  0.172  0.161  0.000  0.000  0.000  0.000  0.000  0.333


 k-point    18 :    0.21794872 0.00000000 0.21794872     weight = 0.00416667

band     1 # energy   -5.39000849 # occ.  2.00000000

ion      s     py     pz     px    dxy    dyz    dz2    dxz  x2-y2    tot
    1  0.208  0.009  0.000  0.000  0.000  0.000  0.000  0.000  0.000  0.217
    2  0.208  0.009  0.000  0.000  0.000  0.000  0.000  0.000  0.000  0.217
tot    0.416  0.017  0.000  0.000  0.000  0.000  0.000  0.000  0.000  0.434

band     2 # energy    2.66209368 # occ.  2.00000000

ion      s     py     pz     px    dxy    dyz    dz2    dxz  x2-y2    tot
    1  0.147  0.106  0.000  0.000  0.000  0.000  0.000  0.000  0.000  0.253
    2  0.147  0.106  0.000  0.000  0.000  0.000  0.000  0.000  0.000  0.253
tot    0.293  0.213  0.000  0.000  0.000  0.000  0.000  0.000  0.000  0.506

band     3 # energy    4.01145005 # occ.  2.00000000

ion      s     py     pz     px    dxy    dyz    dz2    dxz  x2-y2    tot
    1  0.000  0.000  0.098  0.098  0.000  0.000  0.000  0.000  0.000  0.197
    2  0.000  0.000  0.098  0.098  0.000  0.000  0.000  0.000  0.000  0.197
tot    0.000  0.000  0.197  0.197  0.000  0.000  0.000  0.000  0.000  0.394

band     4 # energy    4.01145012 # occ.  2.00000000

ion      s     py     pz     px    dxy    dyz    dz2    dxz  x2-y2    tot
    1  0.000  0.000  0.098  0.098  0.000  0.000  0.000  0.000  0.000  0.197
    2  0.000  0.000  0.098  0.098  0.000  0.000  0.000  0.000  0.000  0.197
tot    0.000  0.000  0.197  0.197  0.000  0.000  0.000  0.000  0.000  0.394

band     5 # energy    6.96785703 # occ.  0.00000000

ion      s     py     pz     px    dxy    dyz    dz2    dxz  x2-y2    tot
    1  0.038  0.086  0.000  0.000  0.000  0.000  0.000  0.000  0.000  0.124
    2  0.038  0.086  0.000  0.000  0.000  0.000  0.000  0.000  0.000  0.124
tot    0.075  0.173  0.000  0.000  0.000  0.000  0.000  0.000  0.000  0.248

band     6 # energy    9.21778274 # occ.  0.00000000

ion      s     py     pz     px    dxy    dyz    dz2    dxz  x2-y2    tot
    1  0.065  0.049  0.000  0.000  0.000  0.000  0.000  0.000  0.000  0.113
    2  0.065  0.049  0.000  0.000  0.000  0.000  0.000  0.000  0.000  0.113
tot    0.129  0.097  0.000  0.000  0.000  0.000  0.000  0.000  0.000  0.226

band     7 # energy   10.75419899 # occ.  0.00000000

ion      s     py     pz     px    dxy    dyz    dz2    dxz  x2-y2    tot
    1  0.000  0.000  0.132  0.035  0.000  0.000  0.000  0.000  0.000  0.167
    2  0.000  0.000  0.035  0.132  0.000  0.000  0.000  0.000  0.000  0.167
tot    0.000  0.000  0.167  0.167  0.000  0.000  0.000  0.000  0.000  0.334

band     8 # energy   10.75419920 # occ.  0.00000000

ion      s     py     pz     px    dxy    dyz    dz2    dxz  x2-y2    tot
    1  0.000  0.000  0.035  0.132  0.000  0.000  0.000  0.000  0.000  0.167
    2  0.000  0.000  0.132  0.035  0.000  0.000  0.000  0.000  0.000  0.167
tot    0.000  0.000  0.167  0.167  0.000  0.000  0.000  0.000  0.000  0.334


 k-point    19 :    0.23076923 0.00000000 0.23076923     weight = 0.00416667

band     1 # energy   -5.29296764 # occ.  2.00000000

ion      s     py     pz     px    dxy    dyz    dz2    dxz  x2-y2    tot
    1  0.208  0.010  0.000  0.000  0.000  0.000  0.000  0.000  0.000  0.217
    2  0.208  0.010  0.000  0.000  0.000  0.000  0.000  0.000  0.000  0.217
tot    0.415  0.020  0.000  0.000  0.000  0.000  0.000  0.000  0.000  0.435

band     2 # energy    2.43541649 # occ.  2.00000000

ion      s     py     pz     px    dxy    dyz    dz2    dxz  x2-y2    tot
    1  0.151  0.102  0.000  0.000  0.000  0.000  0.000  0.000  0.000  0.253
    2  0.151  0.102  0.000  0.000  0.000  0.000  0.000  0.000  0.000  0.253
tot    0.302  0.205  0.000  0.000  0.000  0.000  0.000  0.000  0.000  0.507

band     3 # energy    3.91006337 # occ.  2.00000000

ion      s     py     pz     px    dxy    dyz    dz2    dxz  x2-y2    tot
    1  0.000  0.000  0.098  0.098  0.000  0.000  0.000  0.000  0.000  0.197
    2  0.000  0.000  0.098  0.098  0.000  0.000  0.000  0.000  0.000  0.197
tot    0.000  0.000  0.197  0.197  0.000  0.000  0.000  0.000  0.000  0.393

band     4 # energy    3.91006343 # occ.  2.00000000

ion      s     py     pz     px    dxy    dyz    dz2    dxz  x2-y2    tot
    1  0.000  0.000  0.098  0.098  0.000  0.000  0.000  0.000  0.000  0.197
    2  0.000  0.000  0.098  0.098  0.000  0.000  0.000  0.000  0.000  0.197
tot    0.000  0.000  0.197  0.197  0.000  0.000  0.000  0.000  0.000  0.393

band     5 # energy    6.88421470 # occ.  0.00000000

ion      s     py     pz     px    dxy    dyz    dz2    dxz  x2-y2    tot
    1  0.039  0.083  0.000  0.000  0.000  0.000  0.000  0.000  0.000  0.122
    2  0.039  0.083  0.000  0.000  0.000  0.000  0.000  0.000  0.000  0.122
tot    0.079  0.165  0.000  0.000  0.000  0.000  0.000  0.000  0.000  0.244

band     6 # energy    9.03175790 # occ.  0.00000000

ion      s     py     pz     px    dxy    dyz    dz2    dxz  x2-y2    tot
    1  0.058  0.045  0.000  0.000  0.000  0.000  0.000  0.000  0.000  0.103
    2  0.058  0.045  0.000  0.000  0.000  0.000  0.000  0.000  0.000  0.103
tot    0.116  0.090  0.000  0.000  0.000  0.000  0.000  0.000  0.000  0.206

band     7 # energy   10.97179728 # occ.  0.00000000

ion      s     py     pz     px    dxy    dyz    dz2    dxz  x2-y2    tot
    1  0.000  0.000  0.136  0.031  0.000  0.000  0.000  0.000  0.000  0.167
    2  0.000  0.000  0.028  0.139  0.000  0.000  0.000  0.000  0.000  0.167
tot    0.000  0.000  0.164  0.170  0.000  0.000  0.000  0.000  0.000  0.334

band     8 # energy   10.97179969 # occ.  0.00000000

ion      s     py     pz     px    dxy    dyz    dz2    dxz  x2-y2    tot
    1  0.000  0.000  0.031  0.136  0.000  0.000  0.000  0.000  0.000  0.167
    2  0.000  0.000  0.139  0.028  0.000  0.000  0.000  0.000  0.000  0.167
tot    0.000  0.000  0.170  0.164  0.000  0.000  0.000  0.000  0.000  0.334


 k-point    20 :    0.24358974 0.00000000 0.24358974     weight = 0.00416667

band     1 # energy   -5.19063227 # occ.  2.00000000

ion      s     py     pz     px    dxy    dyz    dz2    dxz  x2-y2    tot
    1  0.207  0.011  0.000  0.000  0.000  0.000  0.000  0.000  0.000  0.218
    2  0.207  0.011  0.000  0.000  0.000  0.000  0.000  0.000  0.000  0.218
tot    0.414  0.022  0.000  0.000  0.000  0.000  0.000  0.000  0.000  0.436

band     2 # energy    2.20829630 # occ.  2.00000000

ion      s     py     pz     px    dxy    dyz    dz2    dxz  x2-y2    tot
    1  0.155  0.099  0.000  0.000  0.000  0.000  0.000  0.000  0.000  0.254
    2  0.155  0.099  0.000  0.000  0.000  0.000  0.000  0.000  0.000  0.254
tot    0.310  0.197  0.000  0.000  0.000  0.000  0.000  0.000  0.000  0.507

band     3 # energy    3.81239160 # occ.  2.00000000

ion      s     py     pz     px    dxy    dyz    dz2    dxz  x2-y2    tot
    1  0.000  0.000  0.098  0.098  0.000  0.000  0.000  0.000  0.000  0.196
    2  0.000  0.000  0.098  0.098  0.000  0.000  0.000  0.000  0.000  0.196
tot    0.000  0.000  0.196  0.196  0.000  0.000  0.000  0.000  0.000  0.393

band     4 # energy    3.81239167 # occ.  2.00000000

ion      s     py     pz     px    dxy    dyz    dz2    dxz  x2-y2    tot
    1  0.000  0.000  0.098  0.098  0.000  0.000  0.000  0.000  0.000  0.196
    2  0.000  0.000  0.098  0.098  0.000  0.000  0.000  0.000  0.000  0.196
tot    0.000  0.000  0.196  0.196  0.000  0.000  0.000  0.000  0.000  0.393

band     5 # energy    6.80413580 # occ.  0.00000000

ion      s     py     pz     px    dxy    dyz    dz2    dxz  x2-y2    tot
    1  0.041  0.079  0.000  0.000  0.000  0.000  0.000  0.000  0.000  0.120
    2  0.041  0.079  0.000  0.000  0.000  0.000  0.000  0.000  0.000  0.120
tot    0.082  0.158  0.000  0.000  0.000  0.000  0.000  0.000  0.000  0.241

band     6 # energy    8.84371122 # occ.  0.00000000

ion      s     py     pz     px    dxy    dyz    dz2    dxz  x2-y2    tot
    1  0.053  0.042  0.000  0.000  0.000  0.000  0.000  0.000  0.000  0.096
    2  0.053  0.042  0.000  0.000  0.000  0.000  0.000  0.000  0.000  0.096
tot    0.107  0.084  0.000  0.000  0.000  0.000  0.000  0.000  0.000  0.191

band     7 # energy   11.19183282 # occ.  0.00000000

ion      s     py     pz     px    dxy    dyz    dz2    dxz  x2-y2    tot
    1  0.000  0.000  0.108  0.059  0.000  0.000  0.000  0.000  0.000  0.167
    2  0.000  0.000  0.068  0.099  0.000  0.000  0.000  0.000  0.000  0.167
tot    0.000  0.000  0.176  0.158  0.000  0.000  0.000  0.000  0.000  0.334

band     8 # energy   11.19183335 # occ.  0.00000000

ion      s     py     pz     px    dxy    dyz    dz2    dxz  x2-y2    tot
    1  0.000  0.000  0.059  0.108  0.000  0.000  0.000  0.000  0.000  0.167
    2  0.000  0.000  0.099  0.068  0.000  0.000  0.000  0.000  0.000  0.167
tot    0.000  0.000  0.158  0.176  0.000  0.000  0.000  0.000  0.000  0.334


 k-point    21 :    0.25641026 0.00000000 0.25641026     weight = 0.00416667

band     1 # energy   -5.08304713 # occ.  2.00000000

ion      s     py     pz     px    dxy    dyz    dz2    dxz  x2-y2    tot
    1  0.207  0.012  0.000  0.000  0.000  0.000  0.000  0.000  0.000  0.219
    2  0.207  0.012  0.000  0.000  0.000  0.000  0.000  0.000  0.000  0.219
tot    0.413  0.024  0.000  0.000  0.000  0.000  0.000  0.000  0.000  0.437

band     2 # energy    1.98095853 # occ.  2.00000000

ion      s     py     pz     px    dxy    dyz    dz2    dxz  x2-y2    tot
    1  0.159  0.095  0.000  0.000  0.000  0.000  0.000  0.000  0.000  0.254
    2  0.159  0.095  0.000  0.000  0.000  0.000  0.000  0.000  0.000  0.254
tot    0.317  0.190  0.000  0.000  0.000  0.000  0.000  0.000  0.000  0.508

band     3 # energy    3.71864512 # occ.  2.00000000

ion      s     py     pz     px    dxy    dyz    dz2    dxz  x2-y2    tot
    1  0.000  0.000  0.098  0.098  0.000  0.000  0.000  0.000  0.000  0.196
    2  0.000  0.000  0.098  0.098  0.000  0.000  0.000  0.000  0.000  0.196
tot    0.000  0.000  0.196  0.196  0.000  0.000  0.000  0.000  0.000  0.392

band     4 # energy    3.71864518 # occ.  2.00000000

ion      s     py     pz     px    dxy    dyz    dz2    dxz  x2-y2    tot
    1  0.000  0.000  0.098  0.098  0.000  0.000  0.000  0.000  0.000  0.196
    2  0.000  0.000  0.098  0.098  0.000  0.000  0.000  0.000  0.000  0.196
tot    0.000  0.000  0.196  0.196  0.000  0.000  0.000  0.000  0.000  0.392

band     5 # energy    6.72803614 # occ.  0.00000000

ion      s     py     pz     px    dxy    dyz    dz2    dxz  x2-y2    tot
    1  0.043  0.076  0.000  0.000  0.000  0.000  0.000  0.000  0.000  0.119
    2  0.043  0.076  0.000  0.000  0.000  0.000  0.000  0.000  0.000  0.119
tot    0.086  0.151  0.000  0.000  0.000  0.000  0.000  0.000  0.000  0.237

band     6 # energy    8.65658033 # occ.  0.00000000

ion      s     py     pz     px    dxy    dyz    dz2    dxz  x2-y2    tot
    1  0.050  0.040  0.000  0.000  0.000  0.000  0.000  0.000  0.000  0.090
    2  0.050  0.040  0.000  0.000  0.000  0.000  0.000  0.000  0.000  0.090
tot    0.100  0.080  0.000  0.000  0.000  0.000  0.000  0.000  0.000  0.180

band     7 # energy   11.41409961 # occ.  0.00000000

ion      s     py     pz     px    dxy    dyz    dz2    dxz  x2-y2    tot
    1  0.000  0.000  0.122  0.045  0.000  0.000  0.000  0.000  0.000  0.167
    2  0.000  0.000  0.049  0.118  0.000  0.000  0.000  0.000  0.000  0.167
tot    0.000  0.000  0.171  0.163  0.000  0.000  0.000  0.000  0.000  0.334

band     8 # energy   11.41418220 # occ.  0.00000000

ion      s     py     pz     px    dxy    dyz    dz2    dxz  x2-y2    tot
    1  0.000  0.000  0.045  0.122  0.000  0.000  0.000  0.000  0.000  0.167
    2  0.000  0.000  0.118  0.049  0.000  0.000  0.000  0.000  0.000  0.167
tot    0.000  0.000  0.163  0.171  0.000  0.000  0.000  0.000  0.000  0.334


 k-point    22 :    0.26923077 0.00000000 0.26923077     weight = 0.00416667

band     1 # energy   -4.97027626 # occ.  2.00000000

ion      s     py     pz     px    dxy    dyz    dz2    dxz  x2-y2    tot
    1  0.206  0.013  0.000  0.000  0.000  0.000  0.000  0.000  0.000  0.219
    2  0.206  0.013  0.000  0.000  0.000  0.000  0.000  0.000  0.000  0.219
tot    0.412  0.026  0.000  0.000  0.000  0.000  0.000  0.000  0.000  0.439

band     2 # energy    1.75360478 # occ.  2.00000000

ion      s     py     pz     px    dxy    dyz    dz2    dxz  x2-y2    tot
    1  0.162  0.092  0.000  0.000  0.000  0.000  0.000  0.000  0.000  0.254
    2  0.162  0.092  0.000  0.000  0.000  0.000  0.000  0.000  0.000  0.254
tot    0.324  0.183  0.000  0.000  0.000  0.000  0.000  0.000  0.000  0.507

band     3 # energy    3.62899712 # occ.  2.00000000

ion      s     py     pz     px    dxy    dyz    dz2    dxz  x2-y2    tot
    1  0.000  0.000  0.098  0.098  0.000  0.000  0.000  0.000  0.000  0.196
    2  0.000  0.000  0.098  0.098  0.000  0.000  0.000  0.000  0.000  0.196
tot    0.000  0.000  0.196  0.196  0.000  0.000  0.000  0.000  0.000  0.392

band     4 # energy    3.62899718 # occ.  2.00000000

ion      s     py     pz     px    dxy    dyz    dz2    dxz  x2-y2    tot
    1  0.000  0.000  0.098  0.098  0.000  0.000  0.000  0.000  0.000  0.196
    2  0.000  0.000  0.098  0.098  0.000  0.000  0.000  0.000  0.000  0.196
tot    0.000  0.000  0.196  0.196  0.000  0.000  0.000  0.000  0.000  0.392

band     5 # energy    6.65627152 # occ.  0.00000000

ion      s     py     pz     px    dxy    dyz    dz2    dxz  x2-y2    tot
    1  0.044  0.072  0.000  0.000  0.000  0.000  0.000  0.000  0.000  0.117
    2  0.044  0.072  0.000  0.000  0.000  0.000  0.000  0.000  0.000  0.117
tot    0.089  0.145  0.000  0.000  0.000  0.000  0.000  0.000  0.000  0.234

band     6 # energy    8.47242756 # occ.  0.00000000

ion      s     py     pz     px    dxy    dyz    dz2    dxz  x2-y2    tot
    1  0.048  0.038  0.000  0.000  0.000  0.000  0.000  0.000  0.000  0.086
    2  0.048  0.038  0.000  0.000  0.000  0.000  0.000  0.000  0.000  0.086
tot    0.096  0.076  0.000  0.000  0.000  0.000  0.000  0.000  0.000  0.172

band     7 # energy   11.63840012 # occ.  0.00000000

ion      s     py     pz     px    dxy    dyz    dz2    dxz  x2-y2    tot
    1  0.000  0.000  0.060  0.107  0.000  0.000  0.000  0.000  0.000  0.167
    2  0.000  0.000  0.123  0.044  0.000  0.000  0.000  0.000  0.000  0.167
tot    0.000  0.000  0.183  0.151  0.000  0.000  0.000  0.000  0.000  0.334

band     8 # energy   11.63840225 # occ.  0.00000000

ion      s     py     pz     px    dxy    dyz    dz2    dxz  x2-y2    tot
    1  0.000  0.000  0.107  0.060  0.000  0.000  0.000  0.000  0.000  0.167
    2  0.000  0.000  0.044  0.123  0.000  0.000  0.000  0.000  0.000  0.167
tot    0.000  0.000  0.151  0.183  0.000  0.000  0.000  0.000  0.000  0.334


 k-point    23 :    0.28205128 0.00000000 0.28205128     weight = 0.00416667

band     1 # energy   -4.85236102 # occ.  2.00000000

ion      s     py     pz     px    dxy    dyz    dz2    dxz  x2-y2    tot
    1  0.206  0.015  0.000  0.000  0.000  0.000  0.000  0.000  0.000  0.220
    2  0.206  0.015  0.000  0.000  0.000  0.000  0.000  0.000  0.000  0.220
tot    0.411  0.029  0.000  0.000  0.000  0.000  0.000  0.000  0.000  0.440

band     2 # energy    1.52642559 # occ.  2.00000000

ion      s     py     pz     px    dxy    dyz    dz2    dxz  x2-y2    tot
    1  0.165  0.088  0.000  0.000  0.000  0.000  0.000  0.000  0.000  0.253
    2  0.165  0.088  0.000  0.000  0.000  0.000  0.000  0.000  0.000  0.253
tot    0.330  0.177  0.000  0.000  0.000  0.000  0.000  0.000  0.000  0.507

band     3 # energy    3.54359508 # occ.  2.00000000

ion      s     py     pz     px    dxy    dyz    dz2    dxz  x2-y2    tot
    1  0.000  0.000  0.098  0.098  0.000  0.000  0.000  0.000  0.000  0.196
    2  0.000  0.000  0.098  0.098  0.000  0.000  0.000  0.000  0.000  0.196
tot    0.000  0.000  0.196  0.196  0.000  0.000  0.000  0.000  0.000  0.392

band     4 # energy    3.54359514 # occ.  2.00000000

ion      s     py     pz     px    dxy    dyz    dz2    dxz  x2-y2    tot
    1  0.000  0.000  0.098  0.098  0.000  0.000  0.000  0.000  0.000  0.196
    2  0.000  0.000  0.098  0.098  0.000  0.000  0.000  0.000  0.000  0.196
tot    0.000  0.000  0.196  0.196  0.000  0.000  0.000  0.000  0.000  0.392

band     5 # energy    6.58916071 # occ.  0.00000000

ion      s     py     pz     px    dxy    dyz    dz2    dxz  x2-y2    tot
    1  0.046  0.069  0.000  0.000  0.000  0.000  0.000  0.000  0.000  0.115
    2  0.046  0.069  0.000  0.000  0.000  0.000  0.000  0.000  0.000  0.115
tot    0.091  0.139  0.000  0.000  0.000  0.000  0.000  0.000  0.000  0.230

band     6 # energy    8.29272879 # occ.  0.00000000

ion      s     py     pz     px    dxy    dyz    dz2    dxz  x2-y2    tot
    1  0.046  0.036  0.000  0.000  0.000  0.000  0.000  0.000  0.000  0.083
    2  0.046  0.036  0.000  0.000  0.000  0.000  0.000  0.000  0.000  0.083
tot    0.093  0.073  0.000  0.000  0.000  0.000  0.000  0.000  0.000  0.165

band     7 # energy   11.86457936 # occ.  0.00000000

ion      s     py     pz     px    dxy    dyz    dz2    dxz  x2-y2    tot
    1  0.000  0.000  0.153  0.014  0.000  0.000  0.000  0.000  0.000  0.167
    2  0.000  0.000  0.028  0.138  0.000  0.000  0.000  0.000  0.000  0.167
tot    0.000  0.000  0.181  0.152  0.000  0.000  0.000  0.000  0.000  0.333

band     8 # energy   11.86461550 # occ.  0.00000000

ion      s     py     pz     px    dxy    dyz    dz2    dxz  x2-y2    tot
    1  0.000  0.000  0.014  0.153  0.000  0.000  0.000  0.000  0.000  0.167
    2  0.000  0.000  0.138  0.028  0.000  0.000  0.000  0.000  0.000  0.167
tot    0.000  0.000  0.152  0.181  0.000  0.000  0.000  0.000  0.000  0.333


 k-point    24 :    0.29487179 0.00000000 0.29487179     weight = 0.00416667

band     1 # energy   -4.72935330 # occ.  2.00000000

ion      s     py     pz     px    dxy    dyz    dz2    dxz  x2-y2    tot
    1  0.205  0.016  0.000  0.000  0.000  0.000  0.000  0.000  0.000  0.221
    2  0.205  0.016  0.000  0.000  0.000  0.000  0.000  0.000  0.000  0.221
tot    0.410  0.032  0.000  0.000  0.000  0.000  0.000  0.000  0.000  0.442

band     2 # energy    1.29960586 # occ.  2.00000000

ion      s     py     pz     px    dxy    dyz    dz2    dxz  x2-y2    tot
    1  0.168  0.085  0.000  0.000  0.000  0.000  0.000  0.000  0.000  0.253
    2  0.168  0.085  0.000  0.000  0.000  0.000  0.000  0.000  0.000  0.253
tot    0.336  0.170  0.000  0.000  0.000  0.000  0.000  0.000  0.000  0.506

band     3 # energy    3.46256787 # occ.  2.00000000

ion      s     py     pz     px    dxy    dyz    dz2    dxz  x2-y2    tot
    1  0.000  0.000  0.098  0.098  0.000  0.000  0.000  0.000  0.000  0.196
    2  0.000  0.000  0.098  0.098  0.000  0.000  0.000  0.000  0.000  0.196
tot    0.000  0.000  0.196  0.196  0.000  0.000  0.000  0.000  0.000  0.391

band     4 # energy    3.46256793 # occ.  2.00000000

ion      s     py     pz     px    dxy    dyz    dz2    dxz  x2-y2    tot
    1  0.000  0.000  0.098  0.098  0.000  0.000  0.000  0.000  0.000  0.196
    2  0.000  0.000  0.098  0.098  0.000  0.000  0.000  0.000  0.000  0.196
tot    0.000  0.000  0.196  0.196  0.000  0.000  0.000  0.000  0.000  0.391

band     5 # energy    6.52698958 # occ.  0.00000000

ion      s     py     pz     px    dxy    dyz    dz2    dxz  x2-y2    tot
    1  0.047  0.066  0.000  0.000  0.000  0.000  0.000  0.000  0.000  0.113
    2  0.047  0.066  0.000  0.000  0.000  0.000  0.000  0.000  0.000  0.113
tot    0.094  0.133  0.000  0.000  0.000  0.000  0.000  0.000  0.000  0.227

band     6 # energy    8.11855509 # occ.  0.00000000

ion      s     py     pz     px    dxy    dyz    dz2    dxz  x2-y2    tot
    1  0.045  0.035  0.000  0.000  0.000  0.000  0.000  0.000  0.000  0.080
    2  0.045  0.035  0.000  0.000  0.000  0.000  0.000  0.000  0.000  0.080
tot    0.091  0.070  0.000  0.000  0.000  0.000  0.000  0.000  0.000  0.161

band     7 # energy   12.09250601 # occ.  0.00000000

ion      s     py     pz     px    dxy    dyz    dz2    dxz  x2-y2    tot
    1  0.000  0.000  0.104  0.062  0.000  0.000  0.000  0.000  0.000  0.167
    2  0.000  0.000  0.087  0.079  0.000  0.000  0.000  0.000  0.000  0.167
tot    0.000  0.000  0.192  0.141  0.000  0.000  0.000  0.000  0.000  0.333

band     8 # energy   12.09274889 # occ.  0.00000000

ion      s     py     pz     px    dxy    dyz    dz2    dxz  x2-y2    tot
    1  0.000  0.000  0.062  0.104  0.000  0.000  0.000  0.000  0.000  0.166
    2  0.000  0.000  0.079  0.088  0.000  0.000  0.000  0.000  0.000  0.167
tot    0.000  0.000  0.141  0.192  0.000  0.000  0.000  0.000  0.000  0.333


 k-point    25 :    0.30769231 0.00000000 0.30769231     weight = 0.00416667

band     1 # energy   -4.60131226 # occ.  2.00000000

ion      s     py     pz     px    dxy    dyz    dz2    dxz  x2-y2    tot
    1  0.204  0.017  0.000  0.000  0.000  0.000  0.000  0.000  0.000  0.222
    2  0.204  0.017  0.000  0.000  0.000  0.000  0.000  0.000  0.000  0.222
tot    0.409  0.034  0.000  0.000  0.000  0.000  0.000  0.000  0.000  0.443

band     2 # energy    1.07331548 # occ.  2.00000000

ion      s     py     pz     px    dxy    dyz    dz2    dxz  x2-y2    tot
    1  0.171  0.082  0.000  0.000  0.000  0.000  0.000  0.000  0.000  0.253
    2  0.171  0.082  0.000  0.000  0.000  0.000  0.000  0.000  0.000  0.253
tot    0.341  0.164  0.000  0.000  0.000  0.000  0.000  0.000  0.000  0.505

band     3 # energy    3.38603620 # occ.  2.00000000

ion      s     py     pz     px    dxy    dyz    dz2    dxz  x2-y2    tot
    1  0.000  0.000  0.098  0.098  0.000  0.000  0.000  0.000  0.000  0.195
    2  0.000  0.000  0.098  0.098  0.000  0.000  0.000  0.000  0.000  0.195
tot    0.000  0.000  0.195  0.195  0.000  0.000  0.000  0.000  0.000  0.391

band     4 # energy    3.38603626 # occ.  2.00000000

ion      s     py     pz     px    dxy    dyz    dz2    dxz  x2-y2    tot
    1  0.000  0.000  0.098  0.098  0.000  0.000  0.000  0.000  0.000  0.195
    2  0.000  0.000  0.098  0.098  0.000  0.000  0.000  0.000  0.000  0.195
tot    0.000  0.000  0.195  0.195  0.000  0.000  0.000  0.000  0.000  0.391

band     5 # energy    6.46999232 # occ.  0.00000000

ion      s     py     pz     px    dxy    dyz    dz2    dxz  x2-y2    tot
    1  0.048  0.064  0.000  0.000  0.000  0.000  0.000  0.000  0.000  0.112
    2  0.048  0.064  0.000  0.000  0.000  0.000  0.000  0.000  0.000  0.112
tot    0.096  0.127  0.000  0.000  0.000  0.000  0.000  0.000  0.000  0.223

band     6 # energy    7.95066595 # occ.  0.00000000

ion      s     py     pz     px    dxy    dyz    dz2    dxz  x2-y2    tot
    1  0.045  0.034  0.000  0.000  0.000  0.000  0.000  0.000  0.000  0.079
    2  0.045  0.034  0.000  0.000  0.000  0.000  0.000  0.000  0.000  0.079
tot    0.089  0.068  0.000  0.000  0.000  0.000  0.000  0.000  0.000  0.158

band     7 # energy   12.32201890 # occ.  0.00000000

ion      s     py     pz     px    dxy    dyz    dz2    dxz  x2-y2    tot
    1  0.000  0.000  0.064  0.103  0.000  0.000  0.000  0.000  0.000  0.166
    2  0.000  0.000  0.081  0.086  0.000  0.000  0.000  0.000  0.000  0.166
tot    0.000  0.000  0.145  0.188  0.000  0.000  0.000  0.000  0.000  0.333

band     8 # energy   12.32201894 # occ.  0.00000000

ion      s     py     pz     px    dxy    dyz    dz2    dxz  x2-y2    tot
    1  0.000  0.000  0.103  0.064  0.000  0.000  0.000  0.000  0.000  0.166
    2  0.000  0.000  0.086  0.081  0.000  0.000  0.000  0.000  0.000  0.166
tot    0.000  0.000  0.188  0.145  0.000  0.000  0.000  0.000  0.000  0.333


 k-point    26 :    0.32051282 0.00000000 0.32051282     weight = 0.00416667

band     1 # energy   -4.46830307 # occ.  2.00000000

ion      s     py     pz     px    dxy    dyz    dz2    dxz  x2-y2    tot
    1  0.204  0.019  0.000  0.000  0.000  0.000  0.000  0.000  0.000  0.222
    2  0.204  0.019  0.000  0.000  0.000  0.000  0.000  0.000  0.000  0.222
tot    0.408  0.037  0.000  0.000  0.000  0.000  0.000  0.000  0.000  0.445

band     2 # energy    0.84774099 # occ.  2.00000000

ion      s     py     pz     px    dxy    dyz    dz2    dxz  x2-y2    tot
    1  0.173  0.079  0.000  0.000  0.000  0.000  0.000  0.000  0.000  0.252
    2  0.173  0.079  0.000  0.000  0.000  0.000  0.000  0.000  0.000  0.252
tot    0.346  0.158  0.000  0.000  0.000  0.000  0.000  0.000  0.000  0.504

band     3 # energy    3.31407591 # occ.  2.00000000

ion      s     py     pz     px    dxy    dyz    dz2    dxz  x2-y2    tot
    1  0.000  0.000  0.098  0.098  0.000  0.000  0.000  0.000  0.000  0.195
    2  0.000  0.000  0.098  0.098  0.000  0.000  0.000  0.000  0.000  0.195
tot    0.000  0.000  0.195  0.195  0.000  0.000  0.000  0.000  0.000  0.391

band     4 # energy    3.31407596 # occ.  2.00000000

ion      s     py     pz     px    dxy    dyz    dz2    dxz  x2-y2    tot
    1  0.000  0.000  0.098  0.098  0.000  0.000  0.000  0.000  0.000  0.195
    2  0.000  0.000  0.098  0.098  0.000  0.000  0.000  0.000  0.000  0.195
tot    0.000  0.000  0.195  0.195  0.000  0.000  0.000  0.000  0.000  0.391

band     5 # energy    6.41845081 # occ.  0.00000000

ion      s     py     pz     px    dxy    dyz    dz2    dxz  x2-y2    tot
    1  0.049  0.061  0.000  0.000  0.000  0.000  0.000  0.000  0.000  0.110
    2  0.049  0.061  0.000  0.000  0.000  0.000  0.000  0.000  0.000  0.110
tot    0.098  0.122  0.000  0.000  0.000  0.000  0.000  0.000  0.000  0.220

band     6 # energy    7.78969864 # occ.  0.00000000

ion      s     py     pz     px    dxy    dyz    dz2    dxz  x2-y2    tot
    1  0.044  0.033  0.000  0.000  0.000  0.000  0.000  0.000  0.000  0.078
    2  0.044  0.033  0.000  0.000  0.000  0.000  0.000  0.000  0.000  0.078
tot    0.089  0.067  0.000  0.000  0.000  0.000  0.000  0.000  0.000  0.155

band     7 # energy   12.55310470 # occ.  0.00000000

ion      s     py     pz     px    dxy    dyz    dz2    dxz  x2-y2    tot
    1  0.000  0.000  0.038  0.128  0.000  0.000  0.000  0.000  0.000  0.166
    2  0.000  0.000  0.118  0.048  0.000  0.000  0.000  0.000  0.000  0.166
tot    0.000  0.000  0.157  0.176  0.000  0.000  0.000  0.000  0.000  0.333

band     8 # energy   12.55310497 # occ.  0.00000000

ion      s     py     pz     px    dxy    dyz    dz2    dxz  x2-y2    tot
    1  0.000  0.000  0.128  0.038  0.000  0.000  0.000  0.000  0.000  0.166
    2  0.000  0.000  0.048  0.118  0.000  0.000  0.000  0.000  0.000  0.166
tot    0.000  0.000  0.176  0.157  0.000  0.000  0.000  0.000  0.000  0.333


 k-point    27 :    0.33333333 0.00000000 0.33333333     weight = 0.00416667

band     1 # energy   -4.33039841 # occ.  2.00000000

ion      s     py     pz     px    dxy    dyz    dz2    dxz  x2-y2    tot
    1  0.203  0.020  0.000  0.000  0.000  0.000  0.000  0.000  0.000  0.223
    2  0.203  0.020  0.000  0.000  0.000  0.000  0.000  0.000  0.000  0.223
tot    0.406  0.040  0.000  0.000  0.000  0.000  0.000  0.000  0.000  0.447

band     2 # energy    0.62305733 # occ.  2.00000000

ion      s     py     pz     px    dxy    dyz    dz2    dxz  x2-y2    tot
    1  0.175  0.076  0.000  0.000  0.000  0.000  0.000  0.000  0.000  0.251
    2  0.175  0.076  0.000  0.000  0.000  0.000  0.000  0.000  0.000  0.251
tot    0.350  0.152  0.000  0.000  0.000  0.000  0.000  0.000  0.000  0.503

band     3 # energy    3.24676014 # occ.  2.00000000

ion      s     py     pz     px    dxy    dyz    dz2    dxz  x2-y2    tot
    1  0.000  0.000  0.098  0.098  0.000  0.000  0.000  0.000  0.000  0.195
    2  0.000  0.000  0.098  0.098  0.000  0.000  0.000  0.000  0.000  0.195
tot    0.000  0.000  0.195  0.195  0.000  0.000  0.000  0.000  0.000  0.391

band     4 # energy    3.24676020 # occ.  2.00000000

ion      s     py     pz     px    dxy    dyz    dz2    dxz  x2-y2    tot
    1  0.000  0.000  0.098  0.098  0.000  0.000  0.000  0.000  0.000  0.195
    2  0.000  0.000  0.098  0.098  0.000  0.000  0.000  0.000  0.000  0.195
tot    0.000  0.000  0.195  0.195  0.000  0.000  0.000  0.000  0.000  0.391

band     5 # energy    6.37235325 # occ.  0.00000000

ion      s     py     pz     px    dxy    dyz    dz2    dxz  x2-y2    tot
    1  0.050  0.058  0.000  0.000  0.000  0.000  0.000  0.000  0.000  0.108
    2  0.050  0.058  0.000  0.000  0.000  0.000  0.000  0.000  0.000  0.108
tot    0.099  0.117  0.000  0.000  0.000  0.000  0.000  0.000  0.000  0.216

band     6 # energy    7.63572595 # occ.  0.00000000

ion      s     py     pz     px    dxy    dyz    dz2    dxz  x2-y2    tot
    1  0.044  0.033  0.000  0.000  0.000  0.000  0.000  0.000  0.000  0.077
    2  0.044  0.033  0.000  0.000  0.000  0.000  0.000  0.000  0.000  0.077
tot    0.089  0.065  0.000  0.000  0.000  0.000  0.000  0.000  0.000  0.154

band     7 # energy   12.78553245 # occ.  0.00000000

ion      s     py     pz     px    dxy    dyz    dz2    dxz  x2-y2    tot
    1  0.000  0.000  0.112  0.054  0.000  0.000  0.000  0.000  0.000  0.166
    2  0.000  0.000  0.086  0.080  0.000  0.000  0.000  0.000  0.000  0.166
tot    0.000  0.000  0.198  0.134  0.000  0.000  0.000  0.000  0.000  0.332

band     8 # energy   12.78554693 # occ.  0.00000000

ion      s     py     pz     px    dxy    dyz    dz2    dxz  x2-y2    tot
    1  0.000  0.000  0.054  0.112  0.000  0.000  0.000  0.000  0.000  0.166
    2  0.000  0.000  0.080  0.086  0.000  0.000  0.000  0.000  0.000  0.166
tot    0.000  0.000  0.134  0.198  0.000  0.000  0.000  0.000  0.000  0.333


 k-point    28 :    0.34615385 0.00000000 0.34615385     weight = 0.00416667

band     1 # energy   -4.18766415 # occ.  2.00000000

ion      s     py     pz     px    dxy    dyz    dz2    dxz  x2-y2    tot
    1  0.203  0.022  0.000  0.000  0.000  0.000  0.000  0.000  0.000  0.224
    2  0.203  0.022  0.000  0.000  0.000  0.000  0.000  0.000  0.000  0.224
tot    0.405  0.043  0.000  0.000  0.000  0.000  0.000  0.000  0.000  0.448

band     2 # energy    0.39946636 # occ.  2.00000000

ion      s     py     pz     px    dxy    dyz    dz2    dxz  x2-y2    tot
    1  0.177  0.073  0.000  0.000  0.000  0.000  0.000  0.000  0.000  0.251
    2  0.177  0.073  0.000  0.000  0.000  0.000  0.000  0.000  0.000  0.251
tot    0.354  0.147  0.000  0.000  0.000  0.000  0.000  0.000  0.000  0.501

band     3 # energy    3.18420383 # occ.  2.00000000

ion      s     py     pz     px    dxy    dyz    dz2    dxz  x2-y2    tot
    1  0.000  0.000  0.098  0.098  0.000  0.000  0.000  0.000  0.000  0.195
    2  0.000  0.000  0.098  0.098  0.000  0.000  0.000  0.000  0.000  0.195
tot    0.000  0.000  0.195  0.195  0.000  0.000  0.000  0.000  0.000  0.390

band     4 # energy    3.18420389 # occ.  2.00000000

ion      s     py     pz     px    dxy    dyz    dz2    dxz  x2-y2    tot
    1  0.000  0.000  0.098  0.098  0.000  0.000  0.000  0.000  0.000  0.195
    2  0.000  0.000  0.098  0.098  0.000  0.000  0.000  0.000  0.000  0.195
tot    0.000  0.000  0.195  0.195  0.000  0.000  0.000  0.000  0.000  0.390

band     5 # energy    6.33230004 # occ.  0.00000000

ion      s     py     pz     px    dxy    dyz    dz2    dxz  x2-y2    tot
    1  0.050  0.056  0.000  0.000  0.000  0.000  0.000  0.000  0.000  0.106
    2  0.050  0.056  0.000  0.000  0.000  0.000  0.000  0.000  0.000  0.106
tot    0.101  0.112  0.000  0.000  0.000  0.000  0.000  0.000  0.000  0.213

band     6 # energy    7.48982272 # occ.  0.00000000

ion      s     py     pz     px    dxy    dyz    dz2    dxz  x2-y2    tot
    1  0.045  0.032  0.000  0.000  0.000  0.000  0.000  0.000  0.000  0.077
    2  0.045  0.032  0.000  0.000  0.000  0.000  0.000  0.000  0.000  0.077
tot    0.089  0.064  0.000  0.000  0.000  0.000  0.000  0.000  0.000  0.153

band     7 # energy   13.01941665 # occ.  0.00000000

ion      s     py     pz     px    dxy    dyz    dz2    dxz  x2-y2    tot
    1  0.000  0.000  0.076  0.090  0.000  0.000  0.000  0.000  0.000  0.166
    2  0.000  0.000  0.069  0.097  0.000  0.000  0.000  0.000  0.000  0.166
tot    0.000  0.000  0.146  0.187  0.000  0.000  0.000  0.000  0.000  0.332

band     8 # energy   13.01944875 # occ.  0.00000000

ion      s     py     pz     px    dxy    dyz    dz2    dxz  x2-y2    tot
    1  0.000  0.000  0.090  0.076  0.000  0.000  0.000  0.000  0.000  0.166
    2  0.000  0.000  0.097  0.069  0.000  0.000  0.000  0.000  0.000  0.166
tot    0.000  0.000  0.187  0.146  0.000  0.000  0.000  0.000  0.000  0.332


 k-point    29 :    0.35897436 0.00000000 0.35897436     weight = 0.00416667

band     1 # energy   -4.04019844 # occ.  2.00000000

ion      s     py     pz     px    dxy    dyz    dz2    dxz  x2-y2    tot
    1  0.202  0.023  0.000  0.000  0.000  0.000  0.000  0.000  0.000  0.225
    2  0.202  0.023  0.000  0.000  0.000  0.000  0.000  0.000  0.000  0.225
tot    0.404  0.046  0.000  0.000  0.000  0.000  0.000  0.000  0.000  0.450

band     2 # energy    0.17714152 # occ.  2.00000000

ion      s     py     pz     px    dxy    dyz    dz2    dxz  x2-y2    tot
    1  0.179  0.071  0.000  0.000  0.000  0.000  0.000  0.000  0.000  0.250
    2  0.179  0.071  0.000  0.000  0.000  0.000  0.000  0.000  0.000  0.250
tot    0.358  0.141  0.000  0.000  0.000  0.000  0.000  0.000  0.000  0.499

band     3 # energy    3.12644986 # occ.  2.00000000

ion      s     py     pz     px    dxy    dyz    dz2    dxz  x2-y2    tot
    1  0.000  0.000  0.098  0.098  0.000  0.000  0.000  0.000  0.000  0.195
    2  0.000  0.000  0.098  0.098  0.000  0.000  0.000  0.000  0.000  0.195
tot    0.000  0.000  0.195  0.195  0.000  0.000  0.000  0.000  0.000  0.390

band     4 # energy    3.12644991 # occ.  2.00000000

ion      s     py     pz     px    dxy    dyz    dz2    dxz  x2-y2    tot
    1  0.000  0.000  0.098  0.098  0.000  0.000  0.000  0.000  0.000  0.195
    2  0.000  0.000  0.098  0.098  0.000  0.000  0.000  0.000  0.000  0.195
tot    0.000  0.000  0.195  0.195  0.000  0.000  0.000  0.000  0.000  0.390

band     5 # energy    6.29827962 # occ.  0.00000000

ion      s     py     pz     px    dxy    dyz    dz2    dxz  x2-y2    tot
    1  0.051  0.054  0.000  0.000  0.000  0.000  0.000  0.000  0.000  0.105
    2  0.051  0.054  0.000  0.000  0.000  0.000  0.000  0.000  0.000  0.105
tot    0.102  0.107  0.000  0.000  0.000  0.000  0.000  0.000  0.000  0.210

band     6 # energy    7.35165859 # occ.  0.00000000

ion      s     py     pz     px    dxy    dyz    dz2    dxz  x2-y2    tot
    1  0.045  0.032  0.000  0.000  0.000  0.000  0.000  0.000  0.000  0.077
    2  0.045  0.032  0.000  0.000  0.000  0.000  0.000  0.000  0.000  0.077
tot    0.090  0.064  0.000  0.000  0.000  0.000  0.000  0.000  0.000  0.153

band     7 # energy   13.25450278 # occ.  0.00000000

ion      s     py     pz     px    dxy    dyz    dz2    dxz  x2-y2    tot
    1  0.000  0.000  0.126  0.040  0.000  0.000  0.000  0.000  0.000  0.166
    2  0.000  0.000  0.048  0.118  0.000  0.000  0.000  0.000  0.000  0.166
tot    0.000  0.000  0.174  0.158  0.000  0.000  0.000  0.000  0.000  0.333

band     8 # energy   13.25456978 # occ.  0.00000000

ion      s     py     pz     px    dxy    dyz    dz2    dxz  x2-y2    tot
    1  0.000  0.000  0.040  0.126  0.000  0.000  0.000  0.000  0.000  0.166
    2  0.000  0.000  0.118  0.048  0.000  0.000  0.000  0.000  0.000  0.166
tot    0.000  0.000  0.158  0.174  0.000  0.000  0.000  0.000  0.000  0.332


 k-point    30 :    0.37179487 0.00000000 0.37179487     weight = 0.00416667

band     1 # energy   -3.88806725 # occ.  2.00000000

ion      s     py     pz     px    dxy    dyz    dz2    dxz  x2-y2    tot
    1  0.201  0.025  0.000  0.000  0.000  0.000  0.000  0.000  0.000  0.226
    2  0.201  0.025  0.000  0.000  0.000  0.000  0.000  0.000  0.000  0.226
tot    0.402  0.050  0.000  0.000  0.000  0.000  0.000  0.000  0.000  0.452

band     2 # energy   -0.04373045 # occ.  2.00000000

ion      s     py     pz     px    dxy    dyz    dz2    dxz  x2-y2    tot
    1  0.181  0.068  0.000  0.000  0.000  0.000  0.000  0.000  0.000  0.249
    2  0.181  0.068  0.000  0.000  0.000  0.000  0.000  0.000  0.000  0.249
tot    0.362  0.136  0.000  0.000  0.000  0.000  0.000  0.000  0.000  0.498

band     3 # energy    3.07355386 # occ.  2.00000000

ion      s     py     pz     px    dxy    dyz    dz2    dxz  x2-y2    tot
    1  0.000  0.000  0.098  0.098  0.000  0.000  0.000  0.000  0.000  0.195
    2  0.000  0.000  0.098  0.098  0.000  0.000  0.000  0.000  0.000  0.195
tot    0.000  0.000  0.195  0.195  0.000  0.000  0.000  0.000  0.000  0.390

band     4 # energy    3.07355391 # occ.  2.00000000

ion      s     py     pz     px    dxy    dyz    dz2    dxz  x2-y2    tot
    1  0.000  0.000  0.098  0.098  0.000  0.000  0.000  0.000  0.000  0.195
    2  0.000  0.000  0.098  0.098  0.000  0.000  0.000  0.000  0.000  0.195
tot    0.000  0.000  0.195  0.195  0.000  0.000  0.000  0.000  0.000  0.390

band     5 # energy    6.27046287 # occ.  0.00000000

ion      s     py     pz     px    dxy    dyz    dz2    dxz  x2-y2    tot
    1  0.052  0.052  0.000  0.000  0.000  0.000  0.000  0.000  0.000  0.103
    2  0.052  0.052  0.000  0.000  0.000  0.000  0.000  0.000  0.000  0.103
tot    0.103  0.103  0.000  0.000  0.000  0.000  0.000  0.000  0.000  0.206

band     6 # energy    7.22150672 # occ.  0.00000000

ion      s     py     pz     px    dxy    dyz    dz2    dxz  x2-y2    tot
    1  0.045  0.032  0.000  0.000  0.000  0.000  0.000  0.000  0.000  0.077
    2  0.045  0.032  0.000  0.000  0.000  0.000  0.000  0.000  0.000  0.077
tot    0.091  0.063  0.000  0.000  0.000  0.000  0.000  0.000  0.000  0.154

band     7 # energy   13.49066743 # occ.  0.00000000

ion      s     py     pz     px    dxy    dyz    dz2    dxz  x2-y2    tot
    1  0.000  0.000  0.159  0.007  0.000  0.000  0.000  0.000  0.000  0.167
    2  0.000  0.000  0.007  0.160  0.000  0.000  0.000  0.000  0.000  0.167
tot    0.000  0.000  0.166  0.167  0.000  0.000  0.000  0.000  0.000  0.333

band     8 # energy   13.49069304 # occ.  0.00000000

ion      s     py     pz     px    dxy    dyz    dz2    dxz  x2-y2    tot
    1  0.000  0.000  0.007  0.160  0.000  0.000  0.000  0.000  0.000  0.167
    2  0.000  0.000  0.160  0.007  0.000  0.000  0.000  0.000  0.000  0.167
tot    0.000  0.000  0.167  0.166  0.000  0.000  0.000  0.000  0.000  0.333


 k-point    31 :    0.38461538 0.00000000 0.38461538     weight = 0.00416667

band     1 # energy   -3.73136185 # occ.  2.00000000

ion      s     py     pz     px    dxy    dyz    dz2    dxz  x2-y2    tot
    1  0.201  0.027  0.000  0.000  0.000  0.000  0.000  0.000  0.000  0.227
    2  0.201  0.027  0.000  0.000  0.000  0.000  0.000  0.000  0.000  0.227
tot    0.401  0.053  0.000  0.000  0.000  0.000  0.000  0.000  0.000  0.454

band     2 # energy   -0.26296977 # occ.  2.00000000

ion      s     py     pz     px    dxy    dyz    dz2    dxz  x2-y2    tot
    1  0.182  0.065  0.000  0.000  0.000  0.000  0.000  0.000  0.000  0.248
    2  0.182  0.065  0.000  0.000  0.000  0.000  0.000  0.000  0.000  0.248
tot    0.365  0.131  0.000  0.000  0.000  0.000  0.000  0.000  0.000  0.496

band     3 # energy    3.02555138 # occ.  2.00000000

ion      s     py     pz     px    dxy    dyz    dz2    dxz  x2-y2    tot
    1  0.000  0.000  0.098  0.098  0.000  0.000  0.000  0.000  0.000  0.195
    2  0.000  0.000  0.098  0.098  0.000  0.000  0.000  0.000  0.000  0.195
tot    0.000  0.000  0.195  0.195  0.000  0.000  0.000  0.000  0.000  0.390

band     4 # energy    3.02555143 # occ.  2.00000000

ion      s     py     pz     px    dxy    dyz    dz2    dxz  x2-y2    tot
    1  0.000  0.000  0.098  0.098  0.000  0.000  0.000  0.000  0.000  0.195
    2  0.000  0.000  0.098  0.098  0.000  0.000  0.000  0.000  0.000  0.195
tot    0.000  0.000  0.195  0.195  0.000  0.000  0.000  0.000  0.000  0.390

band     5 # energy    6.24908380 # occ.  0.00000000

ion      s     py     pz     px    dxy    dyz    dz2    dxz  x2-y2    tot
    1  0.052  0.050  0.000  0.000  0.000  0.000  0.000  0.000  0.000  0.101
    2  0.052  0.050  0.000  0.000  0.000  0.000  0.000  0.000  0.000  0.101
tot    0.104  0.099  0.000  0.000  0.000  0.000  0.000  0.000  0.000  0.203

band     6 # energy    7.09939499 # occ.  0.00000000

ion      s     py     pz     px    dxy    dyz    dz2    dxz  x2-y2    tot
    1  0.046  0.032  0.000  0.000  0.000  0.000  0.000  0.000  0.000  0.077
    2  0.046  0.032  0.000  0.000  0.000  0.000  0.000  0.000  0.000  0.077
tot    0.092  0.063  0.000  0.000  0.000  0.000  0.000  0.000  0.000  0.155

band     7 # energy   13.72772145 # occ.  0.00000000

ion      s     py     pz     px    dxy    dyz    dz2    dxz  x2-y2    tot
    1  0.000  0.000  0.072  0.096  0.000  0.000  0.000  0.000  0.000  0.167
    2  0.000  0.000  0.053  0.114  0.000  0.000  0.000  0.000  0.000  0.167
tot    0.000  0.000  0.125  0.210  0.000  0.000  0.000  0.000  0.000  0.335

band     8 # energy   13.72772877 # occ.  0.00000000

ion      s     py     pz     px    dxy    dyz    dz2    dxz  x2-y2    tot
    1  0.000  0.000  0.096  0.072  0.000  0.000  0.000  0.000  0.000  0.167
    2  0.000  0.000  0.114  0.053  0.000  0.000  0.000  0.000  0.000  0.167
tot    0.000  0.000  0.210  0.125  0.000  0.000  0.000  0.000  0.000  0.334


 k-point    32 :    0.39743590 0.00000000 0.39743590     weight = 0.00416667

band     1 # energy   -3.57016732 # occ.  2.00000000

ion      s     py     pz     px    dxy    dyz    dz2    dxz  x2-y2    tot
    1  0.200  0.028  0.000  0.000  0.000  0.000  0.000  0.000  0.000  0.228
    2  0.200  0.028  0.000  0.000  0.000  0.000  0.000  0.000  0.000  0.228
tot    0.400  0.057  0.000  0.000  0.000  0.000  0.000  0.000  0.000  0.456

band     2 # energy   -0.48038012 # occ.  2.00000000

ion      s     py     pz     px    dxy    dyz    dz2    dxz  x2-y2    tot
    1  0.184  0.063  0.000  0.000  0.000  0.000  0.000  0.000  0.000  0.247
    2  0.184  0.063  0.000  0.000  0.000  0.000  0.000  0.000  0.000  0.247
tot    0.368  0.125  0.000  0.000  0.000  0.000  0.000  0.000  0.000  0.493

band     3 # energy    2.98251077 # occ.  2.00000000

ion      s     py     pz     px    dxy    dyz    dz2    dxz  x2-y2    tot
    1  0.000  0.000  0.098  0.098  0.000  0.000  0.000  0.000  0.000  0.195
    2  0.000  0.000  0.098  0.098  0.000  0.000  0.000  0.000  0.000  0.195
tot    0.000  0.000  0.195  0.195  0.000  0.000  0.000  0.000  0.000  0.390

band     4 # energy    2.98251083 # occ.  2.00000000

ion      s     py     pz     px    dxy    dyz    dz2    dxz  x2-y2    tot
    1  0.000  0.000  0.098  0.098  0.000  0.000  0.000  0.000  0.000  0.195
    2  0.000  0.000  0.098  0.098  0.000  0.000  0.000  0.000  0.000  0.195
tot    0.000  0.000  0.195  0.195  0.000  0.000  0.000  0.000  0.000  0.390

band     5 # energy    6.23415045 # occ.  0.00000000

ion      s     py     pz     px    dxy    dyz    dz2    dxz  x2-y2    tot
    1  0.052  0.048  0.000  0.000  0.000  0.000  0.000  0.000  0.000  0.100
    2  0.052  0.048  0.000  0.000  0.000  0.000  0.000  0.000  0.000  0.100
tot    0.104  0.095  0.000  0.000  0.000  0.000  0.000  0.000  0.000  0.200

band     6 # energy    6.98551392 # occ.  0.00000000

ion      s     py     pz     px    dxy    dyz    dz2    dxz  x2-y2    tot
    1  0.046  0.032  0.000  0.000  0.000  0.000  0.000  0.000  0.000  0.078
    2  0.046  0.032  0.000  0.000  0.000  0.000  0.000  0.000  0.000  0.078
tot    0.093  0.063  0.000  0.000  0.000  0.000  0.000  0.000  0.000  0.156

band     7 # energy   13.96534985 # occ.  0.00000000

ion      s     py     pz     px    dxy    dyz    dz2    dxz  x2-y2    tot
    1  0.000  0.000  0.041  0.128  0.000  0.000  0.000  0.000  0.000  0.168
    2  0.000  0.000  0.113  0.056  0.000  0.000  0.000  0.000  0.000  0.168
tot    0.000  0.000  0.153  0.183  0.000  0.000  0.000  0.000  0.000  0.336

band     8 # energy   13.96538291 # occ.  0.00000000

ion      s     py     pz     px    dxy    dyz    dz2    dxz  x2-y2    tot
    1  0.000  0.000  0.128  0.041  0.000  0.000  0.000  0.000  0.000  0.168
    2  0.000  0.000  0.056  0.113  0.000  0.000  0.000  0.000  0.000  0.168
tot    0.000  0.000  0.183  0.153  0.000  0.000  0.000  0.000  0.000  0.337


 k-point    33 :    0.41025641 0.00000000 0.41025641     weight = 0.00416667

band     1 # energy   -3.40458580 # occ.  2.00000000

ion      s     py     pz     px    dxy    dyz    dz2    dxz  x2-y2    tot
    1  0.199  0.030  0.000  0.000  0.000  0.000  0.000  0.000  0.000  0.229
    2  0.199  0.030  0.000  0.000  0.000  0.000  0.000  0.000  0.000  0.229
tot    0.398  0.060  0.000  0.000  0.000  0.000  0.000  0.000  0.000  0.458

band     2 # energy   -0.69579381 # occ.  2.00000000

ion      s     py     pz     px    dxy    dyz    dz2    dxz  x2-y2    tot
    1  0.185  0.060  0.000  0.000  0.000  0.000  0.000  0.000  0.000  0.246
    2  0.185  0.060  0.000  0.000  0.000  0.000  0.000  0.000  0.000  0.246
tot    0.371  0.120  0.000  0.000  0.000  0.000  0.000  0.000  0.000  0.491

band     3 # energy    2.94445454 # occ.  2.00000000

ion      s     py     pz     px    dxy    dyz    dz2    dxz  x2-y2    tot
    1  0.000  0.000  0.097  0.097  0.000  0.000  0.000  0.000  0.000  0.195
    2  0.000  0.000  0.097  0.097  0.000  0.000  0.000  0.000  0.000  0.195
tot    0.000  0.000  0.195  0.195  0.000  0.000  0.000  0.000  0.000  0.390

band     4 # energy    2.94445460 # occ.  2.00000000

ion      s     py     pz     px    dxy    dyz    dz2    dxz  x2-y2    tot
    1  0.000  0.000  0.097  0.097  0.000  0.000  0.000  0.000  0.000  0.195
    2  0.000  0.000  0.097  0.097  0.000  0.000  0.000  0.000  0.000  0.195
tot    0.000  0.000  0.195  0.195  0.000  0.000  0.000  0.000  0.000  0.390

band     5 # energy    6.22588345 # occ.  0.00000000

ion      s     py     pz     px    dxy    dyz    dz2    dxz  x2-y2    tot
    1  0.052  0.046  0.000  0.000  0.000  0.000  0.000  0.000  0.000  0.098
    2  0.052  0.046  0.000  0.000  0.000  0.000  0.000  0.000  0.000  0.098
tot    0.105  0.092  0.000  0.000  0.000  0.000  0.000  0.000  0.000  0.196

band     6 # energy    6.87981720 # occ.  0.00000000

ion      s     py     pz     px    dxy    dyz    dz2    dxz  x2-y2    tot
    1  0.047  0.032  0.000  0.000  0.000  0.000  0.000  0.000  0.000  0.079
    2  0.047  0.032  0.000  0.000  0.000  0.000  0.000  0.000  0.000  0.079
tot    0.094  0.064  0.000  0.000  0.000  0.000  0.000  0.000  0.000  0.158

band     7 # energy   14.20306120 # occ.  0.00000000

ion      s     py     pz     px    dxy    dyz    dz2    dxz  x2-y2    tot
    1  0.000  0.000  0.014  0.156  0.000  0.000  0.000  0.000  0.000  0.170
    2  0.000  0.000  0.170  0.000  0.000  0.000  0.000  0.000  0.000  0.170
tot    0.000  0.000  0.184  0.156  0.000  0.000  0.000  0.000  0.000  0.340

band     8 # energy   14.20306801 # occ.  0.00000000

ion      s     py     pz     px    dxy    dyz    dz2    dxz  x2-y2    tot
    1  0.000  0.000  0.156  0.014  0.000  0.000  0.000  0.000  0.000  0.170
    2  0.000  0.000  0.000  0.170  0.000  0.000  0.000  0.000  0.000  0.170
tot    0.000  0.000  0.156  0.184  0.000  0.000  0.000  0.000  0.000  0.340


 k-point    34 :    0.42307692 0.00000000 0.42307692     weight = 0.00416667

band     1 # energy   -3.23472205 # occ.  2.00000000

ion      s     py     pz     px    dxy    dyz    dz2    dxz  x2-y2    tot
    1  0.198  0.032  0.000  0.000  0.000  0.000  0.000  0.000  0.000  0.230
    2  0.198  0.032  0.000  0.000  0.000  0.000  0.000  0.000  0.000  0.230
tot    0.397  0.064  0.000  0.000  0.000  0.000  0.000  0.000  0.000  0.460

band     2 # energy   -0.90901265 # occ.  2.00000000

ion      s     py     pz     px    dxy    dyz    dz2    dxz  x2-y2    tot
    1  0.187  0.058  0.000  0.000  0.000  0.000  0.000  0.000  0.000  0.244
    2  0.187  0.058  0.000  0.000  0.000  0.000  0.000  0.000  0.000  0.244
tot    0.373  0.115  0.000  0.000  0.000  0.000  0.000  0.000  0.000  0.489

band     3 # energy    2.91141614 # occ.  2.00000000

ion      s     py     pz     px    dxy    dyz    dz2    dxz  x2-y2    tot
    1  0.000  0.000  0.097  0.097  0.000  0.000  0.000  0.000  0.000  0.195
    2  0.000  0.000  0.097  0.097  0.000  0.000  0.000  0.000  0.000  0.195
tot    0.000  0.000  0.195  0.195  0.000  0.000  0.000  0.000  0.000  0.390

band     4 # energy    2.91141620 # occ.  2.00000000

ion      s     py     pz     px    dxy    dyz    dz2    dxz  x2-y2    tot
    1  0.000  0.000  0.097  0.097  0.000  0.000  0.000  0.000  0.000  0.195
    2  0.000  0.000  0.097  0.097  0.000  0.000  0.000  0.000  0.000  0.195
tot    0.000  0.000  0.195  0.195  0.000  0.000  0.000  0.000  0.000  0.390

band     5 # energy    6.22442814 # occ.  0.00000000

ion      s     py     pz     px    dxy    dyz    dz2    dxz  x2-y2    tot
    1  0.052  0.044  0.000  0.000  0.000  0.000  0.000  0.000  0.000  0.097
    2  0.052  0.044  0.000  0.000  0.000  0.000  0.000  0.000  0.000  0.097
tot    0.105  0.088  0.000  0.000  0.000  0.000  0.000  0.000  0.000  0.193

band     6 # energy    6.78230931 # occ.  0.00000000

ion      s     py     pz     px    dxy    dyz    dz2    dxz  x2-y2    tot
    1  0.048  0.032  0.000  0.000  0.000  0.000  0.000  0.000  0.000  0.080
    2  0.048  0.032  0.000  0.000  0.000  0.000  0.000  0.000  0.000  0.080
tot    0.095  0.064  0.000  0.000  0.000  0.000  0.000  0.000  0.000  0.160

band     7 # energy   14.44014044 # occ.  0.00000000

ion      s     py     pz     px    dxy    dyz    dz2    dxz  x2-y2    tot
    1  0.000  0.000  0.142  0.031  0.000  0.000  0.000  0.000  0.000  0.173
    2  0.000  0.000  0.073  0.100  0.000  0.000  0.000  0.000  0.000  0.173
tot    0.000  0.000  0.215  0.131  0.000  0.000  0.000  0.000  0.000  0.345

band     8 # energy   14.44015067 # occ.  0.00000000

ion      s     py     pz     px    dxy    dyz    dz2    dxz  x2-y2    tot
    1  0.000  0.000  0.031  0.142  0.000  0.000  0.000  0.000  0.000  0.172
    2  0.000  0.000  0.100  0.073  0.000  0.000  0.000  0.000  0.000  0.173
tot    0.000  0.000  0.131  0.215  0.000  0.000  0.000  0.000  0.000  0.345


 k-point    35 :    0.43589744 0.00000000 0.43589744     weight = 0.00416667

band     1 # energy   -3.06069272 # occ.  2.00000000

ion      s     py     pz     px    dxy    dyz    dz2    dxz  x2-y2    tot
    1  0.198  0.034  0.000  0.000  0.000  0.000  0.000  0.000  0.000  0.231
    2  0.198  0.034  0.000  0.000  0.000  0.000  0.000  0.000  0.000  0.231
tot    0.395  0.068  0.000  0.000  0.000  0.000  0.000  0.000  0.000  0.463

band     2 # energy   -1.11985457 # occ.  2.00000000

ion      s     py     pz     px    dxy    dyz    dz2    dxz  x2-y2    tot
    1  0.188  0.055  0.000  0.000  0.000  0.000  0.000  0.000  0.000  0.243
    2  0.188  0.055  0.000  0.000  0.000  0.000  0.000  0.000  0.000  0.243
tot    0.376  0.111  0.000  0.000  0.000  0.000  0.000  0.000  0.000  0.486

band     3 # energy    2.88341645 # occ.  2.00000000

ion      s     py     pz     px    dxy    dyz    dz2    dxz  x2-y2    tot
    1  0.000  0.000  0.097  0.097  0.000  0.000  0.000  0.000  0.000  0.195
    2  0.000  0.000  0.097  0.097  0.000  0.000  0.000  0.000  0.000  0.195
tot    0.000  0.000  0.195  0.195  0.000  0.000  0.000  0.000  0.000  0.390

band     4 # energy    2.88341650 # occ.  2.00000000

ion      s     py     pz     px    dxy    dyz    dz2    dxz  x2-y2    tot
    1  0.000  0.000  0.097  0.097  0.000  0.000  0.000  0.000  0.000  0.195
    2  0.000  0.000  0.097  0.097  0.000  0.000  0.000  0.000  0.000  0.195
tot    0.000  0.000  0.195  0.195  0.000  0.000  0.000  0.000  0.000  0.390

band     5 # energy    6.22990871 # occ.  0.00000000

ion      s     py     pz     px    dxy    dyz    dz2    dxz  x2-y2    tot
    1  0.052  0.043  0.000  0.000  0.000  0.000  0.000  0.000  0.000  0.095
    2  0.052  0.043  0.000  0.000  0.000  0.000  0.000  0.000  0.000  0.095
tot    0.105  0.085  0.000  0.000  0.000  0.000  0.000  0.000  0.000  0.190

band     6 # energy    6.69292530 # occ.  0.00000000

ion      s     py     pz     px    dxy    dyz    dz2    dxz  x2-y2    tot
    1  0.048  0.033  0.000  0.000  0.000  0.000  0.000  0.000  0.000  0.081
    2  0.048  0.033  0.000  0.000  0.000  0.000  0.000  0.000  0.000  0.081
tot    0.097  0.065  0.000  0.000  0.000  0.000  0.000  0.000  0.000  0.162

band     7 # energy   14.67519765 # occ.  0.00000000

ion      s     py     pz     px    dxy    dyz    dz2    dxz  x2-y2    tot
    1  0.000  0.000  0.094  0.082  0.000  0.000  0.000  0.000  0.000  0.177
    2  0.000  0.000  0.049  0.128  0.000  0.000  0.000  0.000  0.000  0.177
tot    0.000  0.000  0.143  0.210  0.000  0.000  0.000  0.000  0.000  0.353

band     8 # energy   14.67520393 # occ.  0.00000000

ion      s     py     pz     px    dxy    dyz    dz2    dxz  x2-y2    tot
    1  0.000  0.000  0.082  0.094  0.000  0.000  0.000  0.000  0.000  0.177
    2  0.000  0.000  0.128  0.049  0.000  0.000  0.000  0.000  0.000  0.177
tot    0.000  0.000  0.210  0.143  0.000  0.000  0.000  0.000  0.000  0.353


 k-point    36 :    0.44871795 0.00000000 0.44871795     weight = 0.00416667

band     1 # energy   -2.88262048 # occ.  2.00000000

ion      s     py     pz     px    dxy    dyz    dz2    dxz  x2-y2    tot
    1  0.197  0.036  0.000  0.000  0.000  0.000  0.000  0.000  0.000  0.232
    2  0.197  0.036  0.000  0.000  0.000  0.000  0.000  0.000  0.000  0.232
tot    0.394  0.071  0.000  0.000  0.000  0.000  0.000  0.000  0.000  0.465

band     2 # energy   -1.32813883 # occ.  2.00000000

ion      s     py     pz     px    dxy    dyz    dz2    dxz  x2-y2    tot
    1  0.189  0.053  0.000  0.000  0.000  0.000  0.000  0.000  0.000  0.242
    2  0.189  0.053  0.000  0.000  0.000  0.000  0.000  0.000  0.000  0.242
tot    0.378  0.106  0.000  0.000  0.000  0.000  0.000  0.000  0.000  0.484

band     3 # energy    2.86047971 # occ.  2.00000000

ion      s     py     pz     px    dxy    dyz    dz2    dxz  x2-y2    tot
    1  0.000  0.000  0.097  0.097  0.000  0.000  0.000  0.000  0.000  0.195
    2  0.000  0.000  0.097  0.097  0.000  0.000  0.000  0.000  0.000  0.195
tot    0.000  0.000  0.195  0.195  0.000  0.000  0.000  0.000  0.000  0.390

band     4 # energy    2.86047976 # occ.  2.00000000

ion      s     py     pz     px    dxy    dyz    dz2    dxz  x2-y2    tot
    1  0.000  0.000  0.097  0.097  0.000  0.000  0.000  0.000  0.000  0.195
    2  0.000  0.000  0.097  0.097  0.000  0.000  0.000  0.000  0.000  0.195
tot    0.000  0.000  0.195  0.195  0.000  0.000  0.000  0.000  0.000  0.390

band     5 # energy    6.24248028 # occ.  0.00000000

ion      s     py     pz     px    dxy    dyz    dz2    dxz  x2-y2    tot
    1  0.052  0.041  0.000  0.000  0.000  0.000  0.000  0.000  0.000  0.093
    2  0.052  0.041  0.000  0.000  0.000  0.000  0.000  0.000  0.000  0.093
tot    0.105  0.082  0.000  0.000  0.000  0.000  0.000  0.000  0.000  0.187

band     6 # energy    6.61164794 # occ.  0.00000000

ion      s     py     pz     px    dxy    dyz    dz2    dxz  x2-y2    tot
    1  0.049  0.033  0.000  0.000  0.000  0.000  0.000  0.000  0.000  0.082
    2  0.049  0.033  0.000  0.000  0.000  0.000  0.000  0.000  0.000  0.082
tot    0.098  0.066  0.000  0.000  0.000  0.000  0.000  0.000  0.000  0.164

band     7 # energy   14.90598930 # occ.  0.00000000

ion      s     py     pz     px    dxy    dyz    dz2    dxz  x2-y2    tot
    1  0.000  0.000  0.085  0.098  0.000  0.000  0.000  0.000  0.000  0.183
    2  0.000  0.000  0.125  0.058  0.000  0.000  0.000  0.000  0.000  0.183
tot    0.000  0.000  0.210  0.156  0.000  0.000  0.000  0.000  0.000  0.366

band     8 # energy   14.90599560 # occ.  0.00000000

ion      s     py     pz     px    dxy    dyz    dz2    dxz  x2-y2    tot
    1  0.000  0.000  0.098  0.085  0.000  0.000  0.000  0.000  0.000  0.183
    2  0.000  0.000  0.058  0.125  0.000  0.000  0.000  0.000  0.000  0.183
tot    0.000  0.000  0.156  0.210  0.000  0.000  0.000  0.000  0.000  0.366


 k-point    37 :    0.46153846 0.00000000 0.46153846     weight = 0.00416667

band     1 # energy   -2.70061598 # occ.  2.00000000

ion      s     py     pz     px    dxy    dyz    dz2    dxz  x2-y2    tot
    1  0.196  0.038  0.000  0.000  0.000  0.000  0.000  0.000  0.000  0.234
    2  0.196  0.038  0.000  0.000  0.000  0.000  0.000  0.000  0.000  0.234
tot    0.392  0.075  0.000  0.000  0.000  0.000  0.000  0.000  0.000  0.467

band     2 # energy   -1.53369406 # occ.  2.00000000

ion      s     py     pz     px    dxy    dyz    dz2    dxz  x2-y2    tot
    1  0.190  0.051  0.000  0.000  0.000  0.000  0.000  0.000  0.000  0.241
    2  0.190  0.051  0.000  0.000  0.000  0.000  0.000  0.000  0.000  0.241
tot    0.381  0.101  0.000  0.000  0.000  0.000  0.000  0.000  0.000  0.482

band     3 # energy    2.84262277 # occ.  2.00000000

ion      s     py     pz     px    dxy    dyz    dz2    dxz  x2-y2    tot
    1  0.000  0.000  0.097  0.097  0.000  0.000  0.000  0.000  0.000  0.195
    2  0.000  0.000  0.097  0.097  0.000  0.000  0.000  0.000  0.000  0.195
tot    0.000  0.000  0.195  0.195  0.000  0.000  0.000  0.000  0.000  0.390

band     4 # energy    2.84262282 # occ.  2.00000000

ion      s     py     pz     px    dxy    dyz    dz2    dxz  x2-y2    tot
    1  0.000  0.000  0.097  0.097  0.000  0.000  0.000  0.000  0.000  0.195
    2  0.000  0.000  0.097  0.097  0.000  0.000  0.000  0.000  0.000  0.195
tot    0.000  0.000  0.195  0.195  0.000  0.000  0.000  0.000  0.000  0.390

band     5 # energy    6.26224898 # occ.  0.00000000

ion      s     py     pz     px    dxy    dyz    dz2    dxz  x2-y2    tot
    1  0.052  0.040  0.000  0.000  0.000  0.000  0.000  0.000  0.000  0.092
    2  0.052  0.040  0.000  0.000  0.000  0.000  0.000  0.000  0.000  0.092
tot    0.104  0.079  0.000  0.000  0.000  0.000  0.000  0.000  0.000  0.184

band     6 # energy    6.53837640 # occ.  0.00000000

ion      s     py     pz     px    dxy    dyz    dz2    dxz  x2-y2    tot
    1  0.050  0.034  0.000  0.000  0.000  0.000  0.000  0.000  0.000  0.083
    2  0.050  0.034  0.000  0.000  0.000  0.000  0.000  0.000  0.000  0.083
tot    0.099  0.067  0.000  0.000  0.000  0.000  0.000  0.000  0.000  0.166

band     7 # energy   15.12725618 # occ.  0.00000000

ion      s     py     pz     px    dxy    dyz    dz2    dxz  x2-y2    tot
    1  0.000  0.000  0.089  0.104  0.000  0.000  0.000  0.000  0.000  0.193
    2  0.000  0.000  0.061  0.132  0.000  0.000  0.000  0.000  0.000  0.193
tot    0.000  0.000  0.150  0.236  0.000  0.000  0.000  0.000  0.000  0.386

band     8 # energy   15.12728619 # occ.  0.00000000

ion      s     py     pz     px    dxy    dyz    dz2    dxz  x2-y2    tot
    1  0.000  0.000  0.104  0.088  0.000  0.000  0.000  0.000  0.000  0.192
    2  0.000  0.000  0.131  0.061  0.000  0.000  0.000  0.000  0.000  0.192
tot    0.000  0.000  0.235  0.148  0.000  0.000  0.000  0.000  0.000  0.384


 k-point    38 :    0.47435897 0.00000000 0.47435897     weight = 0.00416667

band     1 # energy   -2.51480792 # occ.  2.00000000

ion      s     py     pz     px    dxy    dyz    dz2    dxz  x2-y2    tot
    1  0.195  0.040  0.000  0.000  0.000  0.000  0.000  0.000  0.000  0.235
    2  0.195  0.040  0.000  0.000  0.000  0.000  0.000  0.000  0.000  0.235
tot    0.390  0.079  0.000  0.000  0.000  0.000  0.000  0.000  0.000  0.470

band     2 # energy   -1.73634896 # occ.  2.00000000

ion      s     py     pz     px    dxy    dyz    dz2    dxz  x2-y2    tot
    1  0.191  0.048  0.000  0.000  0.000  0.000  0.000  0.000  0.000  0.240
    2  0.191  0.048  0.000  0.000  0.000  0.000  0.000  0.000  0.000  0.240
tot    0.383  0.097  0.000  0.000  0.000  0.000  0.000  0.000  0.000  0.479

band     3 # energy    2.82985898 # occ.  2.00000000

ion      s     py     pz     px    dxy    dyz    dz2    dxz  x2-y2    tot
    1  0.000  0.000  0.097  0.097  0.000  0.000  0.000  0.000  0.000  0.195
    2  0.000  0.000  0.097  0.097  0.000  0.000  0.000  0.000  0.000  0.195
tot    0.000  0.000  0.195  0.195  0.000  0.000  0.000  0.000  0.000  0.390

band     4 # energy    2.82985904 # occ.  2.00000000

ion      s     py     pz     px    dxy    dyz    dz2    dxz  x2-y2    tot
    1  0.000  0.000  0.097  0.097  0.000  0.000  0.000  0.000  0.000  0.195
    2  0.000  0.000  0.097  0.097  0.000  0.000  0.000  0.000  0.000  0.195
tot    0.000  0.000  0.195  0.195  0.000  0.000  0.000  0.000  0.000  0.390

band     5 # energy    6.28931686 # occ.  0.00000000

ion      s     py     pz     px    dxy    dyz    dz2    dxz  x2-y2    tot
    1  0.052  0.038  0.000  0.000  0.000  0.000  0.000  0.000  0.000  0.090
    2  0.052  0.038  0.000  0.000  0.000  0.000  0.000  0.000  0.000  0.090
tot    0.104  0.077  0.000  0.000  0.000  0.000  0.000  0.000  0.000  0.181

band     6 # energy    6.47304986 # occ.  0.00000000

ion      s     py     pz     px    dxy    dyz    dz2    dxz  x2-y2    tot
    1  0.050  0.034  0.000  0.000  0.000  0.000  0.000  0.000  0.000  0.085
    2  0.050  0.034  0.000  0.000  0.000  0.000  0.000  0.000  0.000  0.085
tot    0.100  0.069  0.000  0.000  0.000  0.000  0.000  0.000  0.000  0.169

band     7 # energy   15.32834025 # occ.  0.00000000

ion      s     py     pz     px    dxy    dyz    dz2    dxz  x2-y2    tot
    1  0.000  0.000  0.042  0.165  0.000  0.000  0.000  0.000  0.000  0.207
    2  0.000  0.000  0.155  0.053  0.000  0.000  0.000  0.000  0.000  0.207
tot    0.000  0.000  0.197  0.218  0.000  0.000  0.000  0.000  0.000  0.415

band     8 # energy   15.32843480 # occ.  0.00000000

ion      s     py     pz     px    dxy    dyz    dz2    dxz  x2-y2    tot
    1  0.000  0.000  0.166  0.042  0.000  0.000  0.000  0.000  0.000  0.207
    2  0.000  0.000  0.053  0.155  0.000  0.000  0.000  0.000  0.000  0.208
tot    0.000  0.000  0.219  0.197  0.000  0.000  0.000  0.000  0.000  0.415


 k-point    39 :    0.48717949 0.00000000 0.48717949     weight = 0.00416667

band     1 # energy   -2.32533139 # occ.  2.00000000

ion      s     py     pz     px    dxy    dyz    dz2    dxz  x2-y2    tot
    1  0.194  0.042  0.000  0.000  0.000  0.000  0.000  0.000  0.000  0.236
    2  0.194  0.042  0.000  0.000  0.000  0.000  0.000  0.000  0.000  0.236
tot    0.388  0.084  0.000  0.000  0.000  0.000  0.000  0.000  0.000  0.472

band     2 # energy   -1.93594612 # occ.  2.00000000

ion      s     py     pz     px    dxy    dyz    dz2    dxz  x2-y2    tot
    1  0.192  0.046  0.000  0.000  0.000  0.000  0.000  0.000  0.000  0.238
    2  0.192  0.046  0.000  0.000  0.000  0.000  0.000  0.000  0.000  0.238
tot    0.385  0.092  0.000  0.000  0.000  0.000  0.000  0.000  0.000  0.477

band     3 # energy    2.82219763 # occ.  2.00000000

ion      s     py     pz     px    dxy    dyz    dz2    dxz  x2-y2    tot
    1  0.000  0.000  0.097  0.097  0.000  0.000  0.000  0.000  0.000  0.195
    2  0.000  0.000  0.097  0.097  0.000  0.000  0.000  0.000  0.000  0.195
tot    0.000  0.000  0.195  0.195  0.000  0.000  0.000  0.000  0.000  0.390

band     4 # energy    2.82219768 # occ.  2.00000000

ion      s     py     pz     px    dxy    dyz    dz2    dxz  x2-y2    tot
    1  0.000  0.000  0.097  0.097  0.000  0.000  0.000  0.000  0.000  0.195
    2  0.000  0.000  0.097  0.097  0.000  0.000  0.000  0.000  0.000  0.195
tot    0.000  0.000  0.195  0.195  0.000  0.000  0.000  0.000  0.000  0.390

band     5 # energy    6.32382022 # occ.  0.00000000

ion      s     py     pz     px    dxy    dyz    dz2    dxz  x2-y2    tot
    1  0.052  0.037  0.000  0.000  0.000  0.000  0.000  0.000  0.000  0.089
    2  0.052  0.037  0.000  0.000  0.000  0.000  0.000  0.000  0.000  0.089
tot    0.103  0.075  0.000  0.000  0.000  0.000  0.000  0.000  0.000  0.178

band     6 # energy    6.41558066 # occ.  0.00000000

ion      s     py     pz     px    dxy    dyz    dz2    dxz  x2-y2    tot
    1  0.051  0.035  0.000  0.000  0.000  0.000  0.000  0.000  0.000  0.086
    2  0.051  0.035  0.000  0.000  0.000  0.000  0.000  0.000  0.000  0.086
tot    0.101  0.071  0.000  0.000  0.000  0.000  0.000  0.000  0.000  0.172

band     7 # energy   15.48454024 # occ.  0.00000000

ion      s     py     pz     px    dxy    dyz    dz2    dxz  x2-y2    tot
    1  0.000  0.000  0.019  0.209  0.000  0.000  0.000  0.000  0.000  0.228
    2  0.000  0.000  0.217  0.011  0.000  0.000  0.000  0.000  0.000  0.228
tot    0.000  0.000  0.236  0.220  0.000  0.000  0.000  0.000  0.000  0.456

band     8 # energy   15.48499925 # occ.  0.00000000

ion      s     py     pz     px    dxy    dyz    dz2    dxz  x2-y2    tot
    1  0.000  0.000  0.209  0.019  0.000  0.000  0.000  0.000  0.000  0.228
    2  0.000  0.000  0.011  0.216  0.000  0.000  0.000  0.000  0.000  0.226
tot    0.000  0.000  0.219  0.235  0.000  0.000  0.000  0.000  0.000  0.454


 k-point    40 :    0.50000000 0.00000000 0.50000000     weight = 0.00416667

band     1 # energy   -2.13232827 # occ.  2.00000000

ion      s     py     pz     px    dxy    dyz    dz2    dxz  x2-y2    tot
    1  0.193  0.044  0.000  0.000  0.000  0.000  0.000  0.000  0.000  0.237
    2  0.193  0.044  0.000  0.000  0.000  0.000  0.000  0.000  0.000  0.237
tot    0.387  0.088  0.000  0.000  0.000  0.000  0.000  0.000  0.000  0.474

band     2 # energy   -2.13232825 # occ.  2.00000000

ion      s     py     pz     px    dxy    dyz    dz2    dxz  x2-y2    tot
    1  0.193  0.044  0.000  0.000  0.000  0.000  0.000  0.000  0.000  0.237
    2  0.193  0.044  0.000  0.000  0.000  0.000  0.000  0.000  0.000  0.237
tot    0.387  0.088  0.000  0.000  0.000  0.000  0.000  0.000  0.000  0.474

band     3 # energy    2.81964305 # occ.  2.00000000

ion      s     py     pz     px    dxy    dyz    dz2    dxz  x2-y2    tot
    1  0.000  0.000  0.097  0.097  0.000  0.000  0.000  0.000  0.000  0.195
    2  0.000  0.000  0.097  0.097  0.000  0.000  0.000  0.000  0.000  0.195
tot    0.000  0.000  0.195  0.195  0.000  0.000  0.000  0.000  0.000  0.390

band     4 # energy    2.81964310 # occ.  2.00000000

ion      s     py     pz     px    dxy    dyz    dz2    dxz  x2-y2    tot
    1  0.000  0.000  0.097  0.097  0.000  0.000  0.000  0.000  0.000  0.195
    2  0.000  0.000  0.097  0.097  0.000  0.000  0.000  0.000  0.000  0.195
tot    0.000  0.000  0.195  0.195  0.000  0.000  0.000  0.000  0.000  0.390

band     5 # energy    6.36587166 # occ.  0.00000000

ion      s     py     pz     px    dxy    dyz    dz2    dxz  x2-y2    tot
    1  0.051  0.036  0.000  0.000  0.000  0.000  0.000  0.000  0.000  0.087
    2  0.051  0.036  0.000  0.000  0.000  0.000  0.000  0.000  0.000  0.087
tot    0.102  0.072  0.000  0.000  0.000  0.000  0.000  0.000  0.000  0.175

band     6 # energy    6.36587167 # occ.  0.00000000

ion      s     py     pz     px    dxy    dyz    dz2    dxz  x2-y2    tot
    1  0.051  0.036  0.000  0.000  0.000  0.000  0.000  0.000  0.000  0.087
    2  0.051  0.036  0.000  0.000  0.000  0.000  0.000  0.000  0.000  0.087
tot    0.102  0.072  0.000  0.000  0.000  0.000  0.000  0.000  0.000  0.175

band     7 # energy   15.54790031 # occ.  0.00000000

ion      s     py     pz     px    dxy    dyz    dz2    dxz  x2-y2    tot
    1  0.000  0.000  0.052  0.188  0.000  0.000  0.000  0.000  0.000  0.241
    2  0.000  0.000  0.187  0.052  0.000  0.000  0.000  0.000  0.000  0.239
tot    0.000  0.000  0.240  0.240  0.000  0.000  0.000  0.000  0.000  0.480

band     8 # energy   15.54858276 # occ.  0.00000000

ion      s     py     pz     px    dxy    dyz    dz2    dxz  x2-y2    tot
    1  0.000  0.000  0.189  0.053  0.000  0.000  0.000  0.000  0.000  0.242
    2  0.000  0.000  0.052  0.186  0.000  0.000  0.000  0.000  0.000  0.238
tot    0.000  0.000  0.240  0.239  0.000  0.000  0.000  0.000  0.000  0.480


 k-point    41 :    0.50000000 0.00000000 0.50000000     weight = 0.00416667

band     1 # energy   -2.13232827 # occ.  2.00000000

ion      s     py     pz     px    dxy    dyz    dz2    dxz  x2-y2    tot
    1  0.193  0.044  0.000  0.000  0.000  0.000  0.000  0.000  0.000  0.237
    2  0.193  0.044  0.000  0.000  0.000  0.000  0.000  0.000  0.000  0.237
tot    0.387  0.088  0.000  0.000  0.000  0.000  0.000  0.000  0.000  0.474

band     2 # energy   -2.13232825 # occ.  2.00000000

ion      s     py     pz     px    dxy    dyz    dz2    dxz  x2-y2    tot
    1  0.193  0.044  0.000  0.000  0.000  0.000  0.000  0.000  0.000  0.237
    2  0.193  0.044  0.000  0.000  0.000  0.000  0.000  0.000  0.000  0.237
tot    0.387  0.088  0.000  0.000  0.000  0.000  0.000  0.000  0.000  0.474

band     3 # energy    2.81964305 # occ.  2.00000000

ion      s     py     pz     px    dxy    dyz    dz2    dxz  x2-y2    tot
    1  0.000  0.000  0.097  0.097  0.000  0.000  0.000  0.000  0.000  0.195
    2  0.000  0.000  0.097  0.097  0.000  0.000  0.000  0.000  0.000  0.195
tot    0.000  0.000  0.195  0.195  0.000  0.000  0.000  0.000  0.000  0.390

band     4 # energy    2.81964310 # occ.  2.00000000

ion      s     py     pz     px    dxy    dyz    dz2    dxz  x2-y2    tot
    1  0.000  0.000  0.097  0.097  0.000  0.000  0.000  0.000  0.000  0.195
    2  0.000  0.000  0.097  0.097  0.000  0.000  0.000  0.000  0.000  0.195
tot    0.000  0.000  0.195  0.195  0.000  0.000  0.000  0.000  0.000  0.390

band     5 # energy    6.36587166 # occ.  0.00000000

ion      s     py     pz     px    dxy    dyz    dz2    dxz  x2-y2    tot
    1  0.051  0.036  0.000  0.000  0.000  0.000  0.000  0.000  0.000  0.087
    2  0.051  0.036  0.000  0.000  0.000  0.000  0.000  0.000  0.000  0.087
tot    0.102  0.072  0.000  0.000  0.000  0.000  0.000  0.000  0.000  0.175

band     6 # energy    6.36587167 # occ.  0.00000000

ion      s     py     pz     px    dxy    dyz    dz2    dxz  x2-y2    tot
    1  0.051  0.036  0.000  0.000  0.000  0.000  0.000  0.000  0.000  0.087
    2  0.051  0.036  0.000  0.000  0.000  0.000  0.000  0.000  0.000  0.087
tot    0.102  0.072  0.000  0.000  0.000  0.000  0.000  0.000  0.000  0.175

band     7 # energy   15.54780578 # occ.  0.00000000

ion      s     py     pz     px    dxy    dyz    dz2    dxz  x2-y2    tot
    1  0.000  0.000  0.036  0.204  0.000  0.000  0.000  0.000  0.000  0.240
    2  0.000  0.000  0.205  0.036  0.000  0.000  0.000  0.000  0.000  0.240
tot    0.000  0.000  0.240  0.240  0.000  0.000  0.000  0.000  0.000  0.480

band     8 # energy   15.54933324 # occ.  0.00000000

ion      s     py     pz     px    dxy    dyz    dz2    dxz  x2-y2    tot
    1  0.000  0.000  0.202  0.035  0.000  0.000  0.000  0.000  0.000  0.238
    2  0.000  0.000  0.037  0.205  0.000  0.000  0.000  0.000  0.000  0.242
tot    0.000  0.000  0.239  0.240  0.000  0.000  0.000  0.000  0.000  0.479


 k-point    42 :    0.50000000 0.00641026 0.50641026     weight = 0.00416667

band     1 # energy   -2.13209904 # occ.  2.00000000

ion      s     py     pz     px    dxy    dyz    dz2    dxz  x2-y2    tot
    1  0.193  0.044  0.000  0.000  0.000  0.000  0.000  0.000  0.000  0.237
    2  0.193  0.044  0.000  0.000  0.000  0.000  0.000  0.000  0.000  0.237
tot    0.387  0.088  0.000  0.000  0.000  0.000  0.000  0.000  0.000  0.474

band     2 # energy   -2.13209901 # occ.  2.00000000

ion      s     py     pz     px    dxy    dyz    dz2    dxz  x2-y2    tot
    1  0.193  0.044  0.000  0.000  0.000  0.000  0.000  0.000  0.000  0.237
    2  0.193  0.044  0.000  0.000  0.000  0.000  0.000  0.000  0.000  0.237
tot    0.387  0.088  0.000  0.000  0.000  0.000  0.000  0.000  0.000  0.474

band     3 # energy    2.81751437 # occ.  2.00000000

ion      s     py     pz     px    dxy    dyz    dz2    dxz  x2-y2    tot
    1  0.000  0.000  0.097  0.097  0.000  0.000  0.000  0.000  0.000  0.195
    2  0.000  0.000  0.097  0.097  0.000  0.000  0.000  0.000  0.000  0.195
tot    0.000  0.000  0.195  0.195  0.000  0.000  0.000  0.000  0.000  0.390

band     4 # energy    2.81751443 # occ.  2.00000000

ion      s     py     pz     px    dxy    dyz    dz2    dxz  x2-y2    tot
    1  0.000  0.000  0.097  0.097  0.000  0.000  0.000  0.000  0.000  0.195
    2  0.000  0.000  0.097  0.097  0.000  0.000  0.000  0.000  0.000  0.195
tot    0.000  0.000  0.195  0.195  0.000  0.000  0.000  0.000  0.000  0.390

band     5 # energy    6.36979243 # occ.  0.00000000

ion      s     py     pz     px    dxy    dyz    dz2    dxz  x2-y2    tot
    1  0.051  0.036  0.000  0.000  0.000  0.000  0.000  0.000  0.000  0.087
    2  0.051  0.036  0.000  0.000  0.000  0.000  0.000  0.000  0.000  0.087
tot    0.102  0.072  0.000  0.000  0.000  0.000  0.000  0.000  0.000  0.175

band     6 # energy    6.36979244 # occ.  0.00000000

ion      s     py     pz     px    dxy    dyz    dz2    dxz  x2-y2    tot
    1  0.051  0.036  0.000  0.000  0.000  0.000  0.000  0.000  0.000  0.087
    2  0.051  0.036  0.000  0.000  0.000  0.000  0.000  0.000  0.000  0.087
tot    0.102  0.072  0.000  0.000  0.000  0.000  0.000  0.000  0.000  0.175

band     7 # energy   15.54186860 # occ.  0.00000000

ion      s     py     pz     px    dxy    dyz    dz2    dxz  x2-y2    tot
    1  0.000  0.000  0.050  0.190  0.000  0.000  0.000  0.000  0.000  0.241
    2  0.000  0.000  0.187  0.051  0.000  0.000  0.000  0.000  0.000  0.239
tot    0.000  0.000  0.238  0.241  0.000  0.000  0.000  0.000  0.000  0.479

band     8 # energy   15.54196677 # occ.  0.00000000

ion      s     py     pz     px    dxy    dyz    dz2    dxz  x2-y2    tot
    1  0.000  0.000  0.188  0.051  0.000  0.000  0.000  0.000  0.000  0.239
    2  0.000  0.000  0.050  0.190  0.000  0.000  0.000  0.000  0.000  0.240
tot    0.000  0.000  0.238  0.241  0.000  0.000  0.000  0.000  0.000  0.479


 k-point    43 :    0.50000000 0.01282051 0.51282051     weight = 0.00416667

band     1 # energy   -2.13141247 # occ.  2.00000000

ion      s     py     pz     px    dxy    dyz    dz2    dxz  x2-y2    tot
    1  0.193  0.044  0.000  0.000  0.000  0.000  0.000  0.000  0.000  0.237
    2  0.193  0.044  0.000  0.000  0.000  0.000  0.000  0.000  0.000  0.237
tot    0.387  0.088  0.000  0.000  0.000  0.000  0.000  0.000  0.000  0.474

band     2 # energy   -2.13141245 # occ.  2.00000000

ion      s     py     pz     px    dxy    dyz    dz2    dxz  x2-y2    tot
    1  0.193  0.044  0.000  0.000  0.000  0.000  0.000  0.000  0.000  0.237
    2  0.193  0.044  0.000  0.000  0.000  0.000  0.000  0.000  0.000  0.237
tot    0.387  0.088  0.000  0.000  0.000  0.000  0.000  0.000  0.000  0.474

band     3 # energy    2.81116232 # occ.  2.00000000

ion      s     py     pz     px    dxy    dyz    dz2    dxz  x2-y2    tot
    1  0.000  0.000  0.097  0.097  0.000  0.000  0.000  0.000  0.000  0.194
    2  0.000  0.000  0.097  0.097  0.000  0.000  0.000  0.000  0.000  0.194
tot    0.000  0.001  0.194  0.194  0.000  0.000  0.000  0.000  0.000  0.389

band     4 # energy    2.81116238 # occ.  2.00000000

ion      s     py     pz     px    dxy    dyz    dz2    dxz  x2-y2    tot
    1  0.000  0.000  0.097  0.097  0.000  0.000  0.000  0.000  0.000  0.194
    2  0.000  0.000  0.097  0.097  0.000  0.000  0.000  0.000  0.000  0.194
tot    0.000  0.001  0.194  0.194  0.000  0.000  0.000  0.000  0.000  0.389

band     5 # energy    6.38152114 # occ.  0.00000000

ion      s     py     pz     px    dxy    dyz    dz2    dxz  x2-y2    tot
    1  0.051  0.036  0.000  0.000  0.000  0.000  0.000  0.000  0.000  0.088
    2  0.051  0.036  0.000  0.000  0.000  0.000  0.000  0.000  0.000  0.088
tot    0.102  0.072  0.001  0.001  0.000  0.000  0.000  0.000  0.000  0.175

band     6 # energy    6.38152115 # occ.  0.00000000

ion      s     py     pz     px    dxy    dyz    dz2    dxz  x2-y2    tot
    1  0.051  0.036  0.000  0.000  0.000  0.000  0.000  0.000  0.000  0.088
    2  0.051  0.036  0.000  0.000  0.000  0.000  0.000  0.000  0.000  0.088
tot    0.102  0.072  0.001  0.001  0.000  0.000  0.000  0.000  0.000  0.175

band     7 # energy   15.52325251 # occ.  0.00000000

ion      s     py     pz     px    dxy    dyz    dz2    dxz  x2-y2    tot
    1  0.000  0.001  0.200  0.036  0.000  0.000  0.000  0.000  0.000  0.236
    2  0.001  0.000  0.034  0.205  0.000  0.000  0.000  0.000  0.000  0.240
tot    0.001  0.001  0.234  0.241  0.000  0.000  0.000  0.000  0.000  0.477

band     8 # energy   15.52860212 # occ.  0.00000000

ion      s     py     pz     px    dxy    dyz    dz2    dxz  x2-y2    tot
    1  0.001  0.000  0.035  0.202  0.000  0.000  0.000  0.000  0.000  0.238
    2  0.000  0.001  0.203  0.035  0.000  0.000  0.000  0.000  0.000  0.238
tot    0.001  0.001  0.238  0.237  0.000  0.000  0.000  0.000  0.000  0.476


 k-point    44 :    0.50000000 0.01923077 0.51923077     weight = 0.00416667

band     1 # energy   -2.13027197 # occ.  2.00000000

ion      s     py     pz     px    dxy    dyz    dz2    dxz  x2-y2    tot
    1  0.193  0.044  0.000  0.000  0.000  0.000  0.000  0.000  0.000  0.237
    2  0.193  0.044  0.000  0.000  0.000  0.000  0.000  0.000  0.000  0.237
tot    0.387  0.088  0.000  0.000  0.000  0.000  0.000  0.000  0.000  0.475

band     2 # energy   -2.13027195 # occ.  2.00000000

ion      s     py     pz     px    dxy    dyz    dz2    dxz  x2-y2    tot
    1  0.193  0.044  0.000  0.000  0.000  0.000  0.000  0.000  0.000  0.237
    2  0.193  0.044  0.000  0.000  0.000  0.000  0.000  0.000  0.000  0.237
tot    0.387  0.088  0.000  0.000  0.000  0.000  0.000  0.000  0.000  0.475

band     3 # energy    2.80068837 # occ.  2.00000000

ion      s     py     pz     px    dxy    dyz    dz2    dxz  x2-y2    tot
    1  0.000  0.001  0.097  0.097  0.000  0.000  0.000  0.000  0.000  0.194
    2  0.000  0.001  0.097  0.097  0.000  0.000  0.000  0.000  0.000  0.194
tot    0.000  0.001  0.193  0.193  0.000  0.000  0.000  0.000  0.000  0.388

band     4 # energy    2.80068843 # occ.  2.00000000

ion      s     py     pz     px    dxy    dyz    dz2    dxz  x2-y2    tot
    1  0.000  0.001  0.097  0.097  0.000  0.000  0.000  0.000  0.000  0.194
    2  0.000  0.001  0.097  0.097  0.000  0.000  0.000  0.000  0.000  0.194
tot    0.000  0.001  0.193  0.193  0.000  0.000  0.000  0.000  0.000  0.388

band     5 # energy    6.40095920 # occ.  0.00000000

ion      s     py     pz     px    dxy    dyz    dz2    dxz  x2-y2    tot
    1  0.051  0.036  0.001  0.001  0.000  0.000  0.000  0.000  0.000  0.088
    2  0.051  0.036  0.001  0.001  0.000  0.000  0.000  0.000  0.000  0.088
tot    0.101  0.072  0.001  0.002  0.000  0.000  0.000  0.000  0.000  0.176

band     6 # energy    6.40095921 # occ.  0.00000000

ion      s     py     pz     px    dxy    dyz    dz2    dxz  x2-y2    tot
    1  0.051  0.036  0.001  0.001  0.000  0.000  0.000  0.000  0.000  0.088
    2  0.051  0.036  0.001  0.001  0.000  0.000  0.000  0.000  0.000  0.088
tot    0.101  0.072  0.001  0.002  0.000  0.000  0.000  0.000  0.000  0.176

band     7 # energy   15.49117934 # occ.  0.00000000

ion      s     py     pz     px    dxy    dyz    dz2    dxz  x2-y2    tot
    1  0.000  0.002  0.170  0.061  0.000  0.000  0.000  0.000  0.000  0.233
    2  0.001  0.001  0.057  0.178  0.000  0.000  0.000  0.000  0.000  0.238
tot    0.002  0.002  0.228  0.239  0.000  0.000  0.000  0.000  0.000  0.471

band     8 # energy   15.49154895 # occ.  0.00000000

ion      s     py     pz     px    dxy    dyz    dz2    dxz  x2-y2    tot
    1  0.001  0.001  0.059  0.179  0.000  0.000  0.000  0.000  0.000  0.240
    2  0.000  0.002  0.170  0.060  0.000  0.000  0.000  0.000  0.000  0.232
tot    0.002  0.002  0.229  0.239  0.000  0.000  0.000  0.000  0.000  0.472


 k-point    45 :    0.50000000 0.02564103 0.52564103     weight = 0.00416667

band     1 # energy   -2.12868369 # occ.  2.00000000

ion      s     py     pz     px    dxy    dyz    dz2    dxz  x2-y2    tot
    1  0.194  0.044  0.000  0.000  0.000  0.000  0.000  0.000  0.000  0.237
    2  0.193  0.044  0.000  0.000  0.000  0.000  0.000  0.000  0.000  0.237
tot    0.387  0.087  0.000  0.000  0.000  0.000  0.000  0.000  0.000  0.475

band     2 # energy   -2.12868367 # occ.  2.00000000

ion      s     py     pz     px    dxy    dyz    dz2    dxz  x2-y2    tot
    1  0.193  0.044  0.000  0.000  0.000  0.000  0.000  0.000  0.000  0.237
    2  0.194  0.044  0.000  0.000  0.000  0.000  0.000  0.000  0.000  0.237
tot    0.387  0.087  0.000  0.000  0.000  0.000  0.000  0.000  0.000  0.475

band     3 # energy    2.78625408 # occ.  2.00000000

ion      s     py     pz     px    dxy    dyz    dz2    dxz  x2-y2    tot
    1  0.000  0.001  0.096  0.096  0.000  0.000  0.000  0.000  0.000  0.193
    2  0.000  0.001  0.096  0.096  0.000  0.000  0.000  0.000  0.000  0.193
tot    0.001  0.002  0.192  0.192  0.000  0.000  0.000  0.000  0.000  0.387

band     4 # energy    2.78625414 # occ.  2.00000000

ion      s     py     pz     px    dxy    dyz    dz2    dxz  x2-y2    tot
    1  0.000  0.001  0.096  0.096  0.000  0.000  0.000  0.000  0.000  0.193
    2  0.000  0.001  0.096  0.096  0.000  0.000  0.000  0.000  0.000  0.193
tot    0.001  0.002  0.192  0.192  0.000  0.000  0.000  0.000  0.000  0.387

band     5 # energy    6.42794701 # occ.  0.00000000

ion      s     py     pz     px    dxy    dyz    dz2    dxz  x2-y2    tot
    1  0.050  0.035  0.001  0.002  0.000  0.000  0.000  0.000  0.000  0.089
    2  0.050  0.035  0.001  0.002  0.000  0.000  0.000  0.000  0.000  0.089
tot    0.101  0.071  0.003  0.003  0.000  0.000  0.000  0.000  0.000  0.178

band     6 # energy    6.42794702 # occ.  0.00000000

ion      s     py     pz     px    dxy    dyz    dz2    dxz  x2-y2    tot
    1  0.050  0.035  0.001  0.002  0.000  0.000  0.000  0.000  0.000  0.089
    2  0.050  0.035  0.001  0.002  0.000  0.000  0.000  0.000  0.000  0.089
tot    0.101  0.071  0.003  0.003  0.000  0.000  0.000  0.000  0.000  0.178

band     7 # energy   15.44438371 # occ.  0.00000000

ion      s     py     pz     px    dxy    dyz    dz2    dxz  x2-y2    tot
    1  0.003  0.000  0.019  0.217  0.000  0.000  0.000  0.000  0.000  0.239
    2  0.000  0.004  0.199  0.020  0.000  0.000  0.000  0.000  0.000  0.224
tot    0.003  0.004  0.217  0.237  0.000  0.000  0.000  0.000  0.000  0.463

band     8 # energy   15.44536163 # occ.  0.00000000

ion      s     py     pz     px    dxy    dyz    dz2    dxz  x2-y2    tot
    1  0.000  0.004  0.198  0.020  0.000  0.000  0.000  0.000  0.000  0.222
    2  0.003  0.000  0.019  0.218  0.000  0.000  0.000  0.000  0.000  0.241
tot    0.003  0.004  0.217  0.239  0.000  0.000  0.000  0.000  0.000  0.463


 k-point    46 :    0.50000000 0.03205128 0.53205128     weight = 0.00416667

band     1 # energy   -2.12665593 # occ.  2.00000000

ion      s     py     pz     px    dxy    dyz    dz2    dxz  x2-y2    tot
    1  0.194  0.044  0.000  0.000  0.000  0.000  0.000  0.000  0.000  0.237
    2  0.194  0.044  0.000  0.000  0.000  0.000  0.000  0.000  0.000  0.237
tot    0.387  0.087  0.001  0.000  0.000  0.000  0.000  0.000  0.000  0.475

band     2 # energy   -2.12665591 # occ.  2.00000000

ion      s     py     pz     px    dxy    dyz    dz2    dxz  x2-y2    tot
    1  0.194  0.044  0.000  0.000  0.000  0.000  0.000  0.000  0.000  0.237
    2  0.194  0.044  0.000  0.000  0.000  0.000  0.000  0.000  0.000  0.237
tot    0.387  0.087  0.001  0.000  0.000  0.000  0.000  0.000  0.000  0.475

band     3 # energy    2.76807565 # occ.  2.00000000

ion      s     py     pz     px    dxy    dyz    dz2    dxz  x2-y2    tot
    1  0.001  0.002  0.095  0.095  0.000  0.000  0.000  0.000  0.000  0.192
    2  0.001  0.002  0.095  0.095  0.000  0.000  0.000  0.000  0.000  0.192
tot    0.001  0.003  0.190  0.190  0.000  0.000  0.000  0.000  0.000  0.385

band     4 # energy    2.76807571 # occ.  2.00000000

ion      s     py     pz     px    dxy    dyz    dz2    dxz  x2-y2    tot
    1  0.001  0.002  0.095  0.095  0.000  0.000  0.000  0.000  0.000  0.192
    2  0.001  0.002  0.095  0.095  0.000  0.000  0.000  0.000  0.000  0.192
tot    0.001  0.003  0.190  0.190  0.000  0.000  0.000  0.000  0.000  0.385

band     5 # energy    6.46227251 # occ.  0.00000000

ion      s     py     pz     px    dxy    dyz    dz2    dxz  x2-y2    tot
    1  0.050  0.035  0.002  0.003  0.000  0.000  0.000  0.000  0.000  0.090
    2  0.050  0.035  0.002  0.003  0.000  0.000  0.000  0.000  0.000  0.090
tot    0.100  0.070  0.004  0.005  0.000  0.000  0.000  0.000  0.000  0.179

band     6 # energy    6.46227252 # occ.  0.00000000

ion      s     py     pz     px    dxy    dyz    dz2    dxz  x2-y2    tot
    1  0.050  0.035  0.002  0.003  0.000  0.000  0.000  0.000  0.000  0.090
    2  0.050  0.035  0.002  0.003  0.000  0.000  0.000  0.000  0.000  0.090
tot    0.100  0.070  0.004  0.005  0.000  0.000  0.000  0.000  0.000  0.179

band     7 # energy   15.38172882 # occ.  0.00000000

ion      s     py     pz     px    dxy    dyz    dz2    dxz  x2-y2    tot
    1  0.003  0.003  0.085  0.136  0.000  0.000  0.000  0.000  0.000  0.228
    2  0.002  0.004  0.119  0.097  0.000  0.000  0.000  0.000  0.000  0.223
tot    0.006  0.008  0.204  0.233  0.000  0.000  0.000  0.000  0.000  0.451

band     8 # energy   15.38425158 # occ.  0.00000000

ion      s     py     pz     px    dxy    dyz    dz2    dxz  x2-y2    tot
    1  0.002  0.004  0.117  0.097  0.000  0.000  0.000  0.000  0.000  0.220
    2  0.003  0.003  0.081  0.137  0.000  0.000  0.000  0.000  0.000  0.224
tot    0.005  0.007  0.198  0.234  0.000  0.000  0.000  0.000  0.000  0.444


 k-point    47 :    0.50000000 0.03846154 0.53846154     weight = 0.00416667

band     1 # energy   -2.12419796 # occ.  2.00000000

ion      s     py     pz     px    dxy    dyz    dz2    dxz  x2-y2    tot
    1  0.194  0.043  0.000  0.000  0.000  0.000  0.000  0.000  0.000  0.238
    2  0.194  0.043  0.000  0.000  0.000  0.000  0.000  0.000  0.000  0.238
tot    0.388  0.087  0.001  0.000  0.000  0.000  0.000  0.000  0.000  0.475

band     2 # energy   -2.12419793 # occ.  2.00000000

ion      s     py     pz     px    dxy    dyz    dz2    dxz  x2-y2    tot
    1  0.194  0.043  0.000  0.000  0.000  0.000  0.000  0.000  0.000  0.238
    2  0.194  0.043  0.000  0.000  0.000  0.000  0.000  0.000  0.000  0.238
tot    0.388  0.087  0.001  0.000  0.000  0.000  0.000  0.000  0.000  0.475

band     3 # energy    2.74641721 # occ.  2.00000000

ion      s     py     pz     px    dxy    dyz    dz2    dxz  x2-y2    tot
    1  0.001  0.002  0.094  0.094  0.000  0.000  0.000  0.000  0.000  0.191
    2  0.001  0.002  0.094  0.094  0.000  0.000  0.000  0.000  0.000  0.191
tot    0.002  0.004  0.188  0.188  0.000  0.000  0.000  0.000  0.000  0.383

band     4 # energy    2.74641727 # occ.  2.00000000

ion      s     py     pz     px    dxy    dyz    dz2    dxz  x2-y2    tot
    1  0.001  0.002  0.094  0.094  0.000  0.000  0.000  0.000  0.000  0.191
    2  0.001  0.002  0.094  0.094  0.000  0.000  0.000  0.000  0.000  0.191
tot    0.002  0.004  0.188  0.188  0.000  0.000  0.000  0.000  0.000  0.383

band     5 # energy    6.50368057 # occ.  0.00000000

ion      s     py     pz     px    dxy    dyz    dz2    dxz  x2-y2    tot
    1  0.049  0.035  0.003  0.004  0.000  0.000  0.000  0.000  0.000  0.091
    2  0.049  0.035  0.003  0.004  0.000  0.000  0.000  0.000  0.000  0.091
tot    0.099  0.069  0.005  0.007  0.000  0.000  0.000  0.000  0.000  0.181

band     6 # energy    6.50368058 # occ.  0.00000000

ion      s     py     pz     px    dxy    dyz    dz2    dxz  x2-y2    tot
    1  0.049  0.035  0.003  0.004  0.000  0.000  0.000  0.000  0.000  0.091
    2  0.049  0.035  0.003  0.004  0.000  0.000  0.000  0.000  0.000  0.091
tot    0.099  0.069  0.005  0.007  0.000  0.000  0.000  0.000  0.000  0.181

band     7 # energy   15.30299630 # occ.  0.00000000

ion      s     py     pz     px    dxy    dyz    dz2    dxz  x2-y2    tot
    1  0.001  0.010  0.156  0.038  0.000  0.000  0.000  0.000  0.000  0.205
    2  0.007  0.002  0.031  0.188  0.000  0.000  0.000  0.000  0.000  0.228
tot    0.008  0.011  0.187  0.227  0.000  0.000  0.000  0.000  0.000  0.434

band     8 # energy   15.30321099 # occ.  0.00000000

ion      s     py     pz     px    dxy    dyz    dz2    dxz  x2-y2    tot
    1  0.007  0.002  0.033  0.188  0.000  0.000  0.000  0.000  0.000  0.229
    2  0.001  0.009  0.155  0.039  0.000  0.000  0.000  0.000  0.000  0.205
tot    0.008  0.011  0.188  0.227  0.000  0.000  0.000  0.000  0.000  0.434


 k-point    48 :    0.50000000 0.04487179 0.54487179     weight = 0.00416667

band     1 # energy   -2.12132221 # occ.  2.00000000

ion      s     py     pz     px    dxy    dyz    dz2    dxz  x2-y2    tot
    1  0.194  0.043  0.001  0.000  0.000  0.000  0.000  0.000  0.000  0.238
    2  0.194  0.043  0.001  0.000  0.000  0.000  0.000  0.000  0.000  0.238
tot    0.388  0.086  0.001  0.000  0.000  0.000  0.000  0.000  0.000  0.475

band     2 # energy   -2.12132218 # occ.  2.00000000

ion      s     py     pz     px    dxy    dyz    dz2    dxz  x2-y2    tot
    1  0.194  0.043  0.001  0.000  0.000  0.000  0.000  0.000  0.000  0.238
    2  0.194  0.043  0.001  0.000  0.000  0.000  0.000  0.000  0.000  0.238
tot    0.388  0.086  0.001  0.000  0.000  0.000  0.000  0.000  0.000  0.475

band     3 # energy    2.72157564 # occ.  2.00000000

ion      s     py     pz     px    dxy    dyz    dz2    dxz  x2-y2    tot
    1  0.001  0.003  0.093  0.093  0.000  0.000  0.000  0.000  0.000  0.190
    2  0.001  0.003  0.093  0.093  0.000  0.000  0.000  0.000  0.000  0.190
tot    0.002  0.006  0.186  0.186  0.000  0.000  0.000  0.000  0.000  0.380

band     4 # energy    2.72157569 # occ.  2.00000000

ion      s     py     pz     px    dxy    dyz    dz2    dxz  x2-y2    tot
    1  0.001  0.003  0.093  0.093  0.000  0.000  0.000  0.000  0.000  0.190
    2  0.001  0.003  0.093  0.093  0.000  0.000  0.000  0.000  0.000  0.190
tot    0.002  0.006  0.186  0.186  0.000  0.000  0.000  0.000  0.000  0.380

band     5 # energy    6.55188197 # occ.  0.00000000

ion      s     py     pz     px    dxy    dyz    dz2    dxz  x2-y2    tot
    1  0.049  0.034  0.004  0.005  0.000  0.000  0.000  0.000  0.000  0.092
    2  0.049  0.034  0.004  0.005  0.000  0.000  0.000  0.000  0.000  0.092
tot    0.098  0.068  0.007  0.010  0.000  0.000  0.000  0.000  0.000  0.183

band     6 # energy    6.55188198 # occ.  0.00000000

ion      s     py     pz     px    dxy    dyz    dz2    dxz  x2-y2    tot
    1  0.049  0.034  0.004  0.005  0.000  0.000  0.000  0.000  0.000  0.092
    2  0.049  0.034  0.004  0.005  0.000  0.000  0.000  0.000  0.000  0.092
tot    0.098  0.068  0.007  0.010  0.000  0.000  0.000  0.000  0.000  0.183

band     7 # energy   15.20801018 # occ.  0.00000000

ion      s     py     pz     px    dxy    dyz    dz2    dxz  x2-y2    tot
    1  0.007  0.006  0.065  0.135  0.000  0.000  0.000  0.000  0.000  0.213
    2  0.004  0.010  0.106  0.083  0.000  0.000  0.000  0.000  0.000  0.203
tot    0.011  0.016  0.172  0.218  0.000  0.000  0.000  0.000  0.000  0.417

band     8 # energy   15.20813424 # occ.  0.00000000

ion      s     py     pz     px    dxy    dyz    dz2    dxz  x2-y2    tot
    1  0.004  0.010  0.106  0.083  0.000  0.000  0.000  0.000  0.000  0.203
    2  0.007  0.006  0.065  0.135  0.000  0.000  0.000  0.000  0.000  0.213
tot    0.011  0.016  0.170  0.218  0.000  0.000  0.000  0.000  0.000  0.415


 k-point    49 :    0.50000000 0.05128205 0.55128205     weight = 0.00416667

band     1 # energy   -2.11804868 # occ.  2.00000000

ion      s     py     pz     px    dxy    dyz    dz2    dxz  x2-y2    tot
    1  0.194  0.043  0.001  0.000  0.000  0.000  0.000  0.000  0.000  0.238
    2  0.194  0.043  0.001  0.000  0.000  0.000  0.000  0.000  0.000  0.238
tot    0.388  0.086  0.001  0.000  0.000  0.000  0.000  0.000  0.000  0.476

band     2 # energy   -2.11804865 # occ.  2.00000000

ion      s     py     pz     px    dxy    dyz    dz2    dxz  x2-y2    tot
    1  0.194  0.043  0.001  0.000  0.000  0.000  0.000  0.000  0.000  0.238
    2  0.194  0.043  0.001  0.000  0.000  0.000  0.000  0.000  0.000  0.238
tot    0.388  0.086  0.001  0.000  0.000  0.000  0.000  0.000  0.000  0.476

band     3 # energy    2.69386992 # occ.  2.00000000

ion      s     py     pz     px    dxy    dyz    dz2    dxz  x2-y2    tot
    1  0.001  0.004  0.092  0.092  0.000  0.000  0.000  0.000  0.000  0.189
    2  0.001  0.004  0.092  0.092  0.000  0.000  0.000  0.000  0.000  0.189
tot    0.002  0.008  0.184  0.184  0.000  0.000  0.000  0.000  0.000  0.378

band     4 # energy    2.69386998 # occ.  2.00000000

ion      s     py     pz     px    dxy    dyz    dz2    dxz  x2-y2    tot
    1  0.001  0.004  0.092  0.092  0.000  0.000  0.000  0.000  0.000  0.189
    2  0.001  0.004  0.092  0.092  0.000  0.000  0.000  0.000  0.000  0.189
tot    0.002  0.008  0.184  0.184  0.000  0.000  0.000  0.000  0.000  0.378

band     5 # energy    6.60653254 # occ.  0.00000000

ion      s     py     pz     px    dxy    dyz    dz2    dxz  x2-y2    tot
    1  0.048  0.034  0.004  0.006  0.000  0.000  0.000  0.000  0.000  0.093
    2  0.048  0.034  0.004  0.006  0.000  0.000  0.000  0.000  0.000  0.093
tot    0.097  0.067  0.009  0.013  0.000  0.000  0.000  0.000  0.000  0.185

band     6 # energy    6.60653255 # occ.  0.00000000

ion      s     py     pz     px    dxy    dyz    dz2    dxz  x2-y2    tot
    1  0.048  0.034  0.004  0.006  0.000  0.000  0.000  0.000  0.000  0.093
    2  0.048  0.034  0.004  0.006  0.000  0.000  0.000  0.000  0.000  0.093
tot    0.097  0.067  0.009  0.013  0.000  0.000  0.000  0.000  0.000  0.185

band     7 # energy   15.09881060 # occ.  0.00000000

ion      s     py     pz     px    dxy    dyz    dz2    dxz  x2-y2    tot
    1  0.005  0.013  0.101  0.073  0.000  0.000  0.000  0.000  0.000  0.192
    2  0.009  0.007  0.054  0.135  0.000  0.000  0.000  0.000  0.000  0.206
tot    0.014  0.021  0.155  0.208  0.000  0.000  0.000  0.000  0.000  0.398

band     8 # energy   15.09891520 # occ.  0.00000000

ion      s     py     pz     px    dxy    dyz    dz2    dxz  x2-y2    tot
    1  0.009  0.007  0.054  0.136  0.000  0.000  0.000  0.000  0.000  0.206
    2  0.005  0.013  0.102  0.073  0.000  0.000  0.000  0.000  0.000  0.192
tot    0.014  0.020  0.156  0.208  0.000  0.000  0.000  0.000  0.000  0.399


 k-point    50 :    0.50000000 0.05769231 0.55769231     weight = 0.00416667

band     1 # energy   -2.11438325 # occ.  2.00000000

ion      s     py     pz     px    dxy    dyz    dz2    dxz  x2-y2    tot
    1  0.194  0.043  0.001  0.000  0.000  0.000  0.000  0.000  0.000  0.238
    2  0.194  0.043  0.001  0.000  0.000  0.000  0.000  0.000  0.000  0.238
tot    0.389  0.085  0.002  0.000  0.000  0.000  0.000  0.000  0.000  0.476

band     2 # energy   -2.11438323 # occ.  2.00000000

ion      s     py     pz     px    dxy    dyz    dz2    dxz  x2-y2    tot
    1  0.194  0.043  0.001  0.000  0.000  0.000  0.000  0.000  0.000  0.238
    2  0.194  0.043  0.001  0.000  0.000  0.000  0.000  0.000  0.000  0.238
tot    0.389  0.085  0.002  0.000  0.000  0.000  0.000  0.000  0.000  0.476

band     3 # energy    2.66364088 # occ.  2.00000000

ion      s     py     pz     px    dxy    dyz    dz2    dxz  x2-y2    tot
    1  0.001  0.005  0.091  0.091  0.000  0.000  0.000  0.000  0.000  0.188
    2  0.001  0.005  0.091  0.091  0.000  0.000  0.000  0.000  0.000  0.188
tot    0.003  0.009  0.181  0.182  0.000  0.000  0.000  0.000  0.000  0.375

band     4 # energy    2.66364093 # occ.  2.00000000

ion      s     py     pz     px    dxy    dyz    dz2    dxz  x2-y2    tot
    1  0.001  0.005  0.091  0.091  0.000  0.000  0.000  0.000  0.000  0.188
    2  0.001  0.005  0.091  0.091  0.000  0.000  0.000  0.000  0.000  0.188
tot    0.003  0.009  0.181  0.182  0.000  0.000  0.000  0.000  0.000  0.375

band     5 # energy    6.66745844 # occ.  0.00000000

ion      s     py     pz     px    dxy    dyz    dz2    dxz  x2-y2    tot
    1  0.048  0.033  0.005  0.008  0.000  0.000  0.000  0.000  0.000  0.094
    2  0.048  0.033  0.005  0.008  0.000  0.000  0.000  0.000  0.000  0.094
tot    0.095  0.066  0.011  0.015  0.000  0.000  0.000  0.000  0.000  0.188

band     6 # energy    6.66745844 # occ.  0.00000000

ion      s     py     pz     px    dxy    dyz    dz2    dxz  x2-y2    tot
    1  0.048  0.033  0.005  0.008  0.000  0.000  0.000  0.000  0.000  0.094
    2  0.048  0.033  0.005  0.008  0.000  0.000  0.000  0.000  0.000  0.094
tot    0.095  0.066  0.011  0.015  0.000  0.000  0.000  0.000  0.000  0.188

band     7 # energy   14.97725004 # occ.  0.00000000

ion      s     py     pz     px    dxy    dyz    dz2    dxz  x2-y2    tot
    1  0.012  0.007  0.040  0.141  0.000  0.000  0.000  0.000  0.000  0.200
    2  0.005  0.018  0.100  0.056  0.000  0.000  0.000  0.000  0.000  0.179
tot    0.017  0.025  0.140  0.197  0.000  0.000  0.000  0.000  0.000  0.379

band     8 # energy   14.97734993 # occ.  0.00000000

ion      s     py     pz     px    dxy    dyz    dz2    dxz  x2-y2    tot
    1  0.005  0.018  0.100  0.056  0.000  0.000  0.000  0.000  0.000  0.178
    2  0.012  0.007  0.040  0.141  0.000  0.000  0.000  0.000  0.000  0.200
tot    0.017  0.025  0.139  0.197  0.000  0.000  0.000  0.000  0.000  0.378


 k-point    51 :    0.50000000 0.06410256 0.56410256     weight = 0.00416667

band     1 # energy   -2.11035378 # occ.  2.00000000

ion      s     py     pz     px    dxy    dyz    dz2    dxz  x2-y2    tot
    1  0.195  0.042  0.001  0.000  0.000  0.000  0.000  0.000  0.000  0.238
    2  0.195  0.042  0.001  0.000  0.000  0.000  0.000  0.000  0.000  0.238
tot    0.389  0.085  0.002  0.000  0.000  0.000  0.000  0.000  0.000  0.476

band     2 # energy   -2.11035376 # occ.  2.00000000

ion      s     py     pz     px    dxy    dyz    dz2    dxz  x2-y2    tot
    1  0.195  0.042  0.001  0.000  0.000  0.000  0.000  0.000  0.000  0.238
    2  0.195  0.042  0.001  0.000  0.000  0.000  0.000  0.000  0.000  0.238
tot    0.389  0.085  0.002  0.000  0.000  0.000  0.000  0.000  0.000  0.476

band     3 # energy    2.63122157 # occ.  2.00000000

ion      s     py     pz     px    dxy    dyz    dz2    dxz  x2-y2    tot
    1  0.002  0.006  0.089  0.090  0.000  0.000  0.000  0.000  0.000  0.186
    2  0.002  0.006  0.089  0.090  0.000  0.000  0.000  0.000  0.000  0.186
tot    0.003  0.011  0.179  0.179  0.000  0.000  0.000  0.000  0.000  0.372

band     4 # energy    2.63122162 # occ.  2.00000000

ion      s     py     pz     px    dxy    dyz    dz2    dxz  x2-y2    tot
    1  0.002  0.006  0.089  0.090  0.000  0.000  0.000  0.000  0.000  0.186
    2  0.002  0.006  0.089  0.090  0.000  0.000  0.000  0.000  0.000  0.186
tot    0.003  0.011  0.179  0.179  0.000  0.000  0.000  0.000  0.000  0.372

band     5 # energy    6.73408679 # occ.  0.00000000

ion      s     py     pz     px    dxy    dyz    dz2    dxz  x2-y2    tot
    1  0.047  0.032  0.006  0.009  0.000  0.000  0.000  0.000  0.000  0.095
    2  0.047  0.032  0.006  0.009  0.000  0.000  0.000  0.000  0.000  0.095
tot    0.094  0.065  0.013  0.019  0.000  0.000  0.000  0.000  0.000  0.190

band     6 # energy    6.73408680 # occ.  0.00000000

ion      s     py     pz     px    dxy    dyz    dz2    dxz  x2-y2    tot
    1  0.047  0.032  0.006  0.009  0.000  0.000  0.000  0.000  0.000  0.095
    2  0.047  0.032  0.006  0.009  0.000  0.000  0.000  0.000  0.000  0.095
tot    0.094  0.065  0.013  0.019  0.000  0.000  0.000  0.000  0.000  0.190

band     7 # energy   14.84547358 # occ.  0.00000000

ion      s     py     pz     px    dxy    dyz    dz2    dxz  x2-y2    tot
    1  0.018  0.003  0.012  0.168  0.000  0.000  0.000  0.000  0.000  0.202
    2  0.002  0.027  0.115  0.018  0.000  0.000  0.000  0.000  0.000  0.162
tot    0.020  0.030  0.127  0.187  0.000  0.000  0.000  0.000  0.000  0.364

band     8 # energy   14.84554522 # occ.  0.00000000

ion      s     py     pz     px    dxy    dyz    dz2    dxz  x2-y2    tot
    1  0.002  0.027  0.115  0.018  0.000  0.000  0.000  0.000  0.000  0.162
    2  0.018  0.003  0.012  0.169  0.000  0.000  0.000  0.000  0.000  0.202
tot    0.020  0.030  0.127  0.187  0.000  0.000  0.000  0.000  0.000  0.364


 k-point    52 :    0.50000000 0.07051282 0.57051282     weight = 0.00416667

band     1 # energy   -2.10597564 # occ.  2.00000000

ion      s     py     pz     px    dxy    dyz    dz2    dxz  x2-y2    tot
    1  0.195  0.042  0.001  0.000  0.000  0.000  0.000  0.000  0.000  0.238
    2  0.195  0.042  0.001  0.000  0.000  0.000  0.000  0.000  0.000  0.238
tot    0.390  0.084  0.003  0.000  0.000  0.000  0.000  0.000  0.000  0.477

band     2 # energy   -2.10597562 # occ.  2.00000000

ion      s     py     pz     px    dxy    dyz    dz2    dxz  x2-y2    tot
    1  0.195  0.042  0.001  0.000  0.000  0.000  0.000  0.000  0.000  0.238
    2  0.195  0.042  0.001  0.000  0.000  0.000  0.000  0.000  0.000  0.238
tot    0.390  0.084  0.003  0.000  0.000  0.000  0.000  0.000  0.000  0.477

band     3 # energy    2.59696347 # occ.  2.00000000

ion      s     py     pz     px    dxy    dyz    dz2    dxz  x2-y2    tot
    1  0.002  0.007  0.088  0.088  0.000  0.000  0.000  0.000  0.000  0.185
    2  0.002  0.007  0.088  0.088  0.000  0.000  0.000  0.000  0.000  0.185
tot    0.004  0.013  0.176  0.177  0.000  0.000  0.000  0.000  0.000  0.370

band     4 # energy    2.59696352 # occ.  2.00000000

ion      s     py     pz     px    dxy    dyz    dz2    dxz  x2-y2    tot
    1  0.002  0.007  0.088  0.088  0.000  0.000  0.000  0.000  0.000  0.185
    2  0.002  0.007  0.088  0.088  0.000  0.000  0.000  0.000  0.000  0.185
tot    0.004  0.013  0.176  0.177  0.000  0.000  0.000  0.000  0.000  0.370

band     5 # energy    6.80623773 # occ.  0.00000000

ion      s     py     pz     px    dxy    dyz    dz2    dxz  x2-y2    tot
    1  0.046  0.032  0.007  0.011  0.000  0.000  0.000  0.000  0.000  0.096
    2  0.046  0.032  0.007  0.011  0.000  0.000  0.000  0.000  0.000  0.096
tot    0.093  0.063  0.015  0.022  0.000  0.000  0.000  0.000  0.000  0.193

band     6 # energy    6.80623773 # occ.  0.00000000

ion      s     py     pz     px    dxy    dyz    dz2    dxz  x2-y2    tot
    1  0.046  0.032  0.007  0.011  0.000  0.000  0.000  0.000  0.000  0.096
    2  0.046  0.032  0.007  0.011  0.000  0.000  0.000  0.000  0.000  0.096
tot    0.093  0.063  0.015  0.022  0.000  0.000  0.000  0.000  0.000  0.193

band     7 # energy   14.70553479 # occ.  0.00000000

ion      s     py     pz     px    dxy    dyz    dz2    dxz  x2-y2    tot
    1  0.015  0.011  0.038  0.119  0.000  0.000  0.000  0.000  0.000  0.183
    2  0.008  0.023  0.078  0.058  0.000  0.000  0.000  0.000  0.000  0.167
tot    0.023  0.034  0.116  0.177  0.000  0.000  0.000  0.000  0.000  0.350

band     8 # energy   14.70573149 # occ.  0.00000000

ion      s     py     pz     px    dxy    dyz    dz2    dxz  x2-y2    tot
    1  0.007  0.023  0.077  0.059  0.000  0.000  0.000  0.000  0.000  0.167
    2  0.015  0.011  0.039  0.118  0.000  0.000  0.000  0.000  0.000  0.184
tot    0.023  0.034  0.116  0.177  0.000  0.000  0.000  0.000  0.000  0.351


 k-point    53 :    0.50000000 0.07692308 0.57692308     weight = 0.00416667

band     1 # energy   -2.10127387 # occ.  2.00000000

ion      s     py     pz     px    dxy    dyz    dz2    dxz  x2-y2    tot
    1  0.195  0.042  0.002  0.000  0.000  0.000  0.000  0.000  0.000  0.239
    2  0.195  0.042  0.002  0.000  0.000  0.000  0.000  0.000  0.000  0.239
tot    0.391  0.083  0.003  0.000  0.000  0.000  0.000  0.000  0.000  0.477

band     2 # energy   -2.10127384 # occ.  2.00000000

ion      s     py     pz     px    dxy    dyz    dz2    dxz  x2-y2    tot
    1  0.195  0.042  0.002  0.000  0.000  0.000  0.000  0.000  0.000  0.239
    2  0.195  0.042  0.002  0.000  0.000  0.000  0.000  0.000  0.000  0.239
tot    0.391  0.083  0.003  0.000  0.000  0.000  0.000  0.000  0.000  0.477

band     3 # energy    2.56119706 # occ.  2.00000000

ion      s     py     pz     px    dxy    dyz    dz2    dxz  x2-y2    tot
    1  0.002  0.008  0.087  0.087  0.000  0.000  0.000  0.000  0.000  0.183
    2  0.002  0.008  0.087  0.087  0.000  0.000  0.000  0.000  0.000  0.183
tot    0.004  0.015  0.173  0.174  0.000  0.000  0.000  0.000  0.000  0.367

band     4 # energy    2.56119711 # occ.  2.00000000

ion      s     py     pz     px    dxy    dyz    dz2    dxz  x2-y2    tot
    1  0.002  0.008  0.087  0.087  0.000  0.000  0.000  0.000  0.000  0.183
    2  0.002  0.008  0.087  0.087  0.000  0.000  0.000  0.000  0.000  0.183
tot    0.004  0.015  0.173  0.174  0.000  0.000  0.000  0.000  0.000  0.367

band     5 # energy    6.88366230 # occ.  0.00000000

ion      s     py     pz     px    dxy    dyz    dz2    dxz  x2-y2    tot
    1  0.046  0.031  0.008  0.012  0.000  0.000  0.000  0.000  0.000  0.098
    2  0.046  0.031  0.008  0.012  0.000  0.000  0.000  0.000  0.000  0.098
tot    0.091  0.062  0.017  0.025  0.000  0.000  0.000  0.000  0.000  0.195

band     6 # energy    6.88366230 # occ.  0.00000000

ion      s     py     pz     px    dxy    dyz    dz2    dxz  x2-y2    tot
    1  0.046  0.031  0.008  0.012  0.000  0.000  0.000  0.000  0.000  0.098
    2  0.046  0.031  0.008  0.012  0.000  0.000  0.000  0.000  0.000  0.098
tot    0.091  0.062  0.017  0.025  0.000  0.000  0.000  0.000  0.000  0.195

band     7 # energy   14.55929046 # occ.  0.00000000

ion      s     py     pz     px    dxy    dyz    dz2    dxz  x2-y2    tot
    1  0.010  0.023  0.065  0.067  0.000  0.000  0.000  0.000  0.000  0.164
    2  0.015  0.015  0.042  0.102  0.000  0.000  0.000  0.000  0.000  0.175
tot    0.025  0.038  0.107  0.168  0.000  0.000  0.000  0.000  0.000  0.339

band     8 # energy   14.55937266 # occ.  0.00000000

ion      s     py     pz     px    dxy    dyz    dz2    dxz  x2-y2    tot
    1  0.015  0.015  0.042  0.101  0.000  0.000  0.000  0.000  0.000  0.174
    2  0.010  0.023  0.064  0.066  0.000  0.000  0.000  0.000  0.000  0.164
tot    0.026  0.038  0.106  0.168  0.000  0.000  0.000  0.000  0.000  0.338


 k-point    54 :    0.50000000 0.08333333 0.58333333     weight = 0.00416667

band     1 # energy   -2.09627258 # occ.  2.00000000

ion      s     py     pz     px    dxy    dyz    dz2    dxz  x2-y2    tot
    1  0.196  0.041  0.002  0.000  0.000  0.000  0.000  0.000  0.000  0.239
    2  0.196  0.041  0.002  0.000  0.000  0.000  0.000  0.000  0.000  0.239
tot    0.391  0.083  0.004  0.000  0.000  0.000  0.000  0.000  0.000  0.478

band     2 # energy   -2.09627255 # occ.  2.00000000

ion      s     py     pz     px    dxy    dyz    dz2    dxz  x2-y2    tot
    1  0.196  0.041  0.002  0.000  0.000  0.000  0.000  0.000  0.000  0.239
    2  0.196  0.041  0.002  0.000  0.000  0.000  0.000  0.000  0.000  0.239
tot    0.391  0.083  0.004  0.000  0.000  0.000  0.000  0.000  0.000  0.478

band     3 # energy    2.52424414 # occ.  2.00000000

ion      s     py     pz     px    dxy    dyz    dz2    dxz  x2-y2    tot
    1  0.002  0.009  0.085  0.086  0.000  0.000  0.000  0.000  0.000  0.182
    2  0.002  0.009  0.085  0.086  0.000  0.000  0.000  0.000  0.000  0.182
tot    0.004  0.018  0.170  0.172  0.000  0.000  0.000  0.000  0.000  0.364

band     4 # energy    2.52424419 # occ.  2.00000000

ion      s     py     pz     px    dxy    dyz    dz2    dxz  x2-y2    tot
    1  0.002  0.009  0.085  0.086  0.000  0.000  0.000  0.000  0.000  0.182
    2  0.002  0.009  0.085  0.086  0.000  0.000  0.000  0.000  0.000  0.182
tot    0.004  0.018  0.170  0.172  0.000  0.000  0.000  0.000  0.000  0.364

band     5 # energy    6.96587654 # occ.  0.00000000

ion      s     py     pz     px    dxy    dyz    dz2    dxz  x2-y2    tot
    1  0.045  0.030  0.009  0.014  0.000  0.000  0.000  0.000  0.000  0.099
    2  0.045  0.030  0.010  0.014  0.000  0.000  0.000  0.000  0.000  0.099
tot    0.090  0.061  0.019  0.028  0.000  0.000  0.000  0.000  0.000  0.198

band     6 # energy    6.96587654 # occ.  0.00000000

ion      s     py     pz     px    dxy    dyz    dz2    dxz  x2-y2    tot
    1  0.045  0.030  0.010  0.014  0.000  0.000  0.000  0.000  0.000  0.099
    2  0.045  0.030  0.009  0.014  0.000  0.000  0.000  0.000  0.000  0.099
tot    0.090  0.061  0.019  0.028  0.000  0.000  0.000  0.000  0.000  0.198

band     7 # energy   14.40816742 # occ.  0.00000000

ion      s     py     pz     px    dxy    dyz    dz2    dxz  x2-y2    tot
    1  0.007  0.032  0.076  0.038  0.000  0.000  0.000  0.000  0.000  0.152
    2  0.021  0.010  0.023  0.123  0.000  0.000  0.000  0.000  0.000  0.177
tot    0.028  0.041  0.099  0.160  0.000  0.000  0.000  0.000  0.000  0.329

band     8 # energy   14.40819050 # occ.  0.00000000

ion      s     py     pz     px    dxy    dyz    dz2    dxz  x2-y2    tot
    1  0.021  0.010  0.023  0.123  0.000  0.000  0.000  0.000  0.000  0.177
    2  0.007  0.031  0.076  0.038  0.000  0.000  0.000  0.000  0.000  0.152
tot    0.028  0.041  0.099  0.160  0.000  0.000  0.000  0.000  0.000  0.328


 k-point    55 :    0.50000000 0.08974359 0.58974359     weight = 0.00416667

band     1 # energy   -2.09100388 # occ.  2.00000000

ion      s     py     pz     px    dxy    dyz    dz2    dxz  x2-y2    tot
    1  0.196  0.041  0.002  0.000  0.000  0.000  0.000  0.000  0.000  0.239
    2  0.196  0.041  0.002  0.000  0.000  0.000  0.000  0.000  0.000  0.239
tot    0.392  0.082  0.005  0.000  0.000  0.000  0.000  0.000  0.000  0.478

band     2 # energy   -2.09100385 # occ.  2.00000000

ion      s     py     pz     px    dxy    dyz    dz2    dxz  x2-y2    tot
    1  0.196  0.041  0.002  0.000  0.000  0.000  0.000  0.000  0.000  0.239
    2  0.196  0.041  0.002  0.000  0.000  0.000  0.000  0.000  0.000  0.239
tot    0.392  0.082  0.005  0.000  0.000  0.000  0.000  0.000  0.000  0.478

band     3 # energy    2.48641374 # occ.  2.00000000

ion      s     py     pz     px    dxy    dyz    dz2    dxz  x2-y2    tot
    1  0.002  0.010  0.084  0.085  0.000  0.000  0.000  0.000  0.000  0.180
    2  0.002  0.010  0.084  0.085  0.000  0.000  0.000  0.000  0.000  0.180
tot    0.005  0.020  0.167  0.169  0.000  0.000  0.000  0.000  0.000  0.361

band     4 # energy    2.48641379 # occ.  2.00000000

ion      s     py     pz     px    dxy    dyz    dz2    dxz  x2-y2    tot
    1  0.002  0.010  0.084  0.085  0.000  0.000  0.000  0.000  0.000  0.180
    2  0.002  0.010  0.084  0.085  0.000  0.000  0.000  0.000  0.000  0.180
tot    0.005  0.020  0.167  0.169  0.000  0.000  0.000  0.000  0.000  0.361

band     5 # energy    7.05265392 # occ.  0.00000000

ion      s     py     pz     px    dxy    dyz    dz2    dxz  x2-y2    tot
    1  0.044  0.030  0.010  0.016  0.000  0.000  0.000  0.000  0.000  0.100
    2  0.044  0.030  0.010  0.016  0.000  0.000  0.000  0.000  0.000  0.100
tot    0.088  0.060  0.021  0.031  0.000  0.000  0.000  0.000  0.000  0.200

band     6 # energy    7.05265393 # occ.  0.00000000

ion      s     py     pz     px    dxy    dyz    dz2    dxz  x2-y2    tot
    1  0.044  0.030  0.010  0.016  0.000  0.000  0.000  0.000  0.000  0.100
    2  0.044  0.030  0.010  0.016  0.000  0.000  0.000  0.000  0.000  0.100
tot    0.088  0.060  0.021  0.031  0.000  0.000  0.000  0.000  0.000  0.200

band     7 # energy   14.25317748 # occ.  0.00000000

ion      s     py     pz     px    dxy    dyz    dz2    dxz  x2-y2    tot
    1  0.007  0.034  0.072  0.034  0.000  0.000  0.000  0.000  0.000  0.148
    2  0.024  0.010  0.021  0.119  0.000  0.000  0.000  0.000  0.000  0.173
tot    0.030  0.044  0.093  0.153  0.000  0.000  0.000  0.000  0.000  0.321

band     8 # energy   14.25318380 # occ.  0.00000000

ion      s     py     pz     px    dxy    dyz    dz2    dxz  x2-y2    tot
    1  0.024  0.010  0.021  0.119  0.000  0.000  0.000  0.000  0.000  0.173
    2  0.007  0.035  0.072  0.034  0.000  0.000  0.000  0.000  0.000  0.148
tot    0.030  0.044  0.093  0.153  0.000  0.000  0.000  0.000  0.000  0.321


 k-point    56 :    0.50000000 0.09615385 0.59615385     weight = 0.00416667

band     1 # energy   -2.08550087 # occ.  2.00000000

ion      s     py     pz     px    dxy    dyz    dz2    dxz  x2-y2    tot
    1  0.196  0.040  0.003  0.000  0.000  0.000  0.000  0.000  0.000  0.239
    2  0.196  0.040  0.003  0.000  0.000  0.000  0.000  0.000  0.000  0.239
tot    0.393  0.081  0.005  0.000  0.000  0.000  0.000  0.000  0.000  0.479

band     2 # energy   -2.08550085 # occ.  2.00000000

ion      s     py     pz     px    dxy    dyz    dz2    dxz  x2-y2    tot
    1  0.196  0.040  0.003  0.000  0.000  0.000  0.000  0.000  0.000  0.239
    2  0.196  0.040  0.003  0.000  0.000  0.000  0.000  0.000  0.000  0.239
tot    0.393  0.081  0.005  0.000  0.000  0.000  0.000  0.000  0.000  0.479

band     3 # energy    2.44799242 # occ.  2.00000000

ion      s     py     pz     px    dxy    dyz    dz2    dxz  x2-y2    tot
    1  0.002  0.011  0.082  0.083  0.000  0.000  0.000  0.000  0.000  0.179
    2  0.002  0.011  0.082  0.083  0.000  0.000  0.000  0.000  0.000  0.179
tot    0.005  0.022  0.164  0.167  0.000  0.000  0.000  0.000  0.000  0.358

band     4 # energy    2.44799247 # occ.  2.00000000

ion      s     py     pz     px    dxy    dyz    dz2    dxz  x2-y2    tot
    1  0.002  0.011  0.082  0.083  0.000  0.000  0.000  0.000  0.000  0.179
    2  0.002  0.011  0.082  0.083  0.000  0.000  0.000  0.000  0.000  0.179
tot    0.005  0.022  0.164  0.167  0.000  0.000  0.000  0.000  0.000  0.358

band     5 # energy    7.14367930 # occ.  0.00000000

ion      s     py     pz     px    dxy    dyz    dz2    dxz  x2-y2    tot
    1  0.043  0.029  0.011  0.017  0.000  0.000  0.000  0.000  0.000  0.101
    2  0.043  0.029  0.011  0.017  0.000  0.000  0.000  0.000  0.000  0.101
tot    0.087  0.058  0.023  0.035  0.000  0.000  0.000  0.000  0.000  0.202

band     6 # energy    7.14367930 # occ.  0.00000000

ion      s     py     pz     px    dxy    dyz    dz2    dxz  x2-y2    tot
    1  0.043  0.029  0.011  0.017  0.000  0.000  0.000  0.000  0.000  0.101
    2  0.043  0.029  0.011  0.017  0.000  0.000  0.000  0.000  0.000  0.101
tot    0.087  0.058  0.023  0.035  0.000  0.000  0.000  0.000  0.000  0.202

band     7 # energy   14.09517168 # occ.  0.00000000

ion      s     py     pz     px    dxy    dyz    dz2    dxz  x2-y2    tot
    1  0.011  0.031  0.057  0.050  0.000  0.000  0.000  0.000  0.000  0.150
    2  0.021  0.016  0.030  0.096  0.000  0.000  0.000  0.000  0.000  0.164
tot    0.033  0.047  0.088  0.147  0.000  0.000  0.000  0.000  0.000  0.314

band     8 # energy   14.09522591 # occ.  0.00000000

ion      s     py     pz     px    dxy    dyz    dz2    dxz  x2-y2    tot
    1  0.021  0.016  0.030  0.096  0.000  0.000  0.000  0.000  0.000  0.164
    2  0.011  0.031  0.058  0.050  0.000  0.000  0.000  0.000  0.000  0.150
tot    0.033  0.047  0.088  0.147  0.000  0.000  0.000  0.000  0.000  0.314


 k-point    57 :    0.50000000 0.10256410 0.60256410     weight = 0.00416667

band     1 # energy   -2.07978423 # occ.  2.00000000

ion      s     py     pz     px    dxy    dyz    dz2    dxz  x2-y2    tot
    1  0.197  0.040  0.003  0.000  0.000  0.000  0.000  0.000  0.000  0.240
    2  0.197  0.040  0.003  0.000  0.000  0.000  0.000  0.000  0.000  0.240
tot    0.393  0.080  0.006  0.000  0.000  0.000  0.000  0.000  0.000  0.479

band     2 # energy   -2.07978421 # occ.  2.00000000

ion      s     py     pz     px    dxy    dyz    dz2    dxz  x2-y2    tot
    1  0.197  0.040  0.003  0.000  0.000  0.000  0.000  0.000  0.000  0.240
    2  0.197  0.040  0.003  0.000  0.000  0.000  0.000  0.000  0.000  0.240
tot    0.393  0.080  0.006  0.000  0.000  0.000  0.000  0.000  0.000  0.479

band     3 # energy    2.40926653 # occ.  2.00000000

ion      s     py     pz     px    dxy    dyz    dz2    dxz  x2-y2    tot
    1  0.003  0.012  0.081  0.082  0.000  0.000  0.000  0.000  0.000  0.178
    2  0.003  0.012  0.081  0.082  0.000  0.000  0.000  0.000  0.000  0.178
tot    0.005  0.024  0.161  0.164  0.000  0.000  0.000  0.000  0.000  0.355

band     4 # energy    2.40926657 # occ.  2.00000000

ion      s     py     pz     px    dxy    dyz    dz2    dxz  x2-y2    tot
    1  0.003  0.012  0.081  0.082  0.000  0.000  0.000  0.000  0.000  0.178
    2  0.003  0.012  0.081  0.082  0.000  0.000  0.000  0.000  0.000  0.178
tot    0.005  0.024  0.161  0.164  0.000  0.000  0.000  0.000  0.000  0.355

band     5 # energy    7.23878620 # occ.  0.00000000

ion      s     py     pz     px    dxy    dyz    dz2    dxz  x2-y2    tot
    1  0.042  0.028  0.012  0.019  0.000  0.000  0.000  0.000  0.000  0.102
    2  0.043  0.028  0.012  0.019  0.000  0.000  0.000  0.000  0.000  0.102
tot    0.085  0.057  0.025  0.038  0.000  0.000  0.000  0.000  0.000  0.205

band     6 # energy    7.23878620 # occ.  0.00000000

ion      s     py     pz     px    dxy    dyz    dz2    dxz  x2-y2    tot
    1  0.043  0.028  0.012  0.019  0.000  0.000  0.000  0.000  0.000  0.102
    2  0.042  0.028  0.012  0.019  0.000  0.000  0.000  0.000  0.000  0.102
tot    0.085  0.057  0.025  0.038  0.000  0.000  0.000  0.000  0.000  0.205

band     7 # energy   13.93510716 # occ.  0.00000000

ion      s     py     pz     px    dxy    dyz    dz2    dxz  x2-y2    tot
    1  0.026  0.012  0.020  0.106  0.000  0.000  0.000  0.000  0.000  0.165
    2  0.009  0.037  0.063  0.035  0.000  0.000  0.000  0.000  0.000  0.143
tot    0.035  0.049  0.083  0.141  0.000  0.000  0.000  0.000  0.000  0.308

band     8 # energy   13.93511044 # occ.  0.00000000

ion      s     py     pz     px    dxy    dyz    dz2    dxz  x2-y2    tot
    1  0.009  0.037  0.063  0.035  0.000  0.000  0.000  0.000  0.000  0.143
    2  0.026  0.012  0.020  0.106  0.000  0.000  0.000  0.000  0.000  0.165
tot    0.035  0.049  0.083  0.141  0.000  0.000  0.000  0.000  0.000  0.308


 k-point    58 :    0.50000000 0.10897436 0.60897436     weight = 0.00416667

band     1 # energy   -2.07388930 # occ.  2.00000000

ion      s     py     pz     px    dxy    dyz    dz2    dxz  x2-y2    tot
    1  0.197  0.039  0.003  0.000  0.000  0.000  0.000  0.000  0.000  0.240
    2  0.197  0.039  0.003  0.000  0.000  0.000  0.000  0.000  0.000  0.240
tot    0.394  0.079  0.007  0.000  0.000  0.000  0.000  0.000  0.000  0.480

band     2 # energy   -2.07388928 # occ.  2.00000000

ion      s     py     pz     px    dxy    dyz    dz2    dxz  x2-y2    tot
    1  0.197  0.039  0.003  0.000  0.000  0.000  0.000  0.000  0.000  0.240
    2  0.197  0.039  0.003  0.000  0.000  0.000  0.000  0.000  0.000  0.240
tot    0.394  0.079  0.007  0.000  0.000  0.000  0.000  0.000  0.000  0.480

band     3 # energy    2.37049284 # occ.  2.00000000

ion      s     py     pz     px    dxy    dyz    dz2    dxz  x2-y2    tot
    1  0.003  0.013  0.079  0.081  0.000  0.000  0.000  0.000  0.000  0.176
    2  0.003  0.013  0.079  0.081  0.000  0.000  0.000  0.000  0.000  0.176
tot    0.005  0.027  0.158  0.162  0.000  0.000  0.000  0.000  0.000  0.352

band     4 # energy    2.37049289 # occ.  2.00000000

ion      s     py     pz     px    dxy    dyz    dz2    dxz  x2-y2    tot
    1  0.003  0.013  0.079  0.081  0.000  0.000  0.000  0.000  0.000  0.176
    2  0.003  0.013  0.079  0.081  0.000  0.000  0.000  0.000  0.000  0.176
tot    0.005  0.027  0.158  0.162  0.000  0.000  0.000  0.000  0.000  0.352

band     5 # energy    7.33771462 # occ.  0.00000000

ion      s     py     pz     px    dxy    dyz    dz2    dxz  x2-y2    tot
    1  0.042  0.028  0.013  0.021  0.000  0.000  0.000  0.000  0.000  0.103
    2  0.042  0.028  0.013  0.021  0.000  0.000  0.000  0.000  0.000  0.103
tot    0.083  0.056  0.026  0.041  0.000  0.000  0.000  0.000  0.000  0.207

band     6 # energy    7.33771462 # occ.  0.00000000

ion      s     py     pz     px    dxy    dyz    dz2    dxz  x2-y2    tot
    1  0.042  0.028  0.013  0.021  0.000  0.000  0.000  0.000  0.000  0.103
    2  0.042  0.028  0.013  0.021  0.000  0.000  0.000  0.000  0.000  0.103
tot    0.083  0.056  0.026  0.041  0.000  0.000  0.000  0.000  0.000  0.207

band     7 # energy   13.77346889 # occ.  0.00000000

ion      s     py     pz     px    dxy    dyz    dz2    dxz  x2-y2    tot
    1  0.035  0.002  0.003  0.130  0.000  0.000  0.000  0.000  0.000  0.171
    2  0.002  0.049  0.076  0.006  0.000  0.000  0.000  0.000  0.000  0.133
tot    0.037  0.052  0.079  0.135  0.000  0.000  0.000  0.000  0.000  0.303

band     8 # energy   13.77346975 # occ.  0.00000000

ion      s     py     pz     px    dxy    dyz    dz2    dxz  x2-y2    tot
    1  0.002  0.049  0.076  0.006  0.000  0.000  0.000  0.000  0.000  0.133
    2  0.035  0.002  0.003  0.130  0.000  0.000  0.000  0.000  0.000  0.171
tot    0.037  0.052  0.079  0.135  0.000  0.000  0.000  0.000  0.000  0.303


 k-point    59 :    0.50000000 0.11538462 0.61538462     weight = 0.00416667

band     1 # energy   -2.06785730 # occ.  2.00000000

ion      s     py     pz     px    dxy    dyz    dz2    dxz  x2-y2    tot
    1  0.198  0.039  0.004  0.000  0.000  0.000  0.000  0.000  0.000  0.240
    2  0.198  0.039  0.004  0.000  0.000  0.000  0.000  0.000  0.000  0.240
tot    0.395  0.078  0.008  0.000  0.000  0.000  0.000  0.000  0.000  0.481

band     2 # energy   -2.06785728 # occ.  2.00000000

ion      s     py     pz     px    dxy    dyz    dz2    dxz  x2-y2    tot
    1  0.198  0.039  0.004  0.000  0.000  0.000  0.000  0.000  0.000  0.240
    2  0.198  0.039  0.004  0.000  0.000  0.000  0.000  0.000  0.000  0.240
tot    0.395  0.078  0.008  0.000  0.000  0.000  0.000  0.000  0.000  0.481

band     3 # energy    2.33191159 # occ.  2.00000000

ion      s     py     pz     px    dxy    dyz    dz2    dxz  x2-y2    tot
    1  0.003  0.015  0.078  0.080  0.000  0.000  0.000  0.000  0.000  0.175
    2  0.003  0.015  0.078  0.080  0.000  0.000  0.000  0.000  0.000  0.175
tot    0.005  0.029  0.155  0.160  0.000  0.000  0.000  0.000  0.000  0.350

band     4 # energy    2.33191164 # occ.  2.00000000

ion      s     py     pz     px    dxy    dyz    dz2    dxz  x2-y2    tot
    1  0.003  0.015  0.078  0.080  0.000  0.000  0.000  0.000  0.000  0.175
    2  0.003  0.015  0.078  0.080  0.000  0.000  0.000  0.000  0.000  0.175
tot    0.005  0.029  0.155  0.160  0.000  0.000  0.000  0.000  0.000  0.350

band     5 # energy    7.44018033 # occ.  0.00000000

ion      s     py     pz     px    dxy    dyz    dz2    dxz  x2-y2    tot
    1  0.041  0.027  0.014  0.022  0.000  0.000  0.000  0.000  0.000  0.104
    2  0.041  0.027  0.014  0.022  0.000  0.000  0.000  0.000  0.000  0.104
tot    0.082  0.054  0.028  0.045  0.000  0.000  0.000  0.000  0.000  0.209

band     6 # energy    7.44018034 # occ.  0.00000000

ion      s     py     pz     px    dxy    dyz    dz2    dxz  x2-y2    tot
    1  0.041  0.027  0.014  0.022  0.000  0.000  0.000  0.000  0.000  0.104
    2  0.041  0.027  0.014  0.022  0.000  0.000  0.000  0.000  0.000  0.104
tot    0.082  0.054  0.028  0.045  0.000  0.000  0.000  0.000  0.000  0.209

band     7 # energy   13.61064599 # occ.  0.00000000

ion      s     py     pz     px    dxy    dyz    dz2    dxz  x2-y2    tot
    1  0.021  0.024  0.035  0.071  0.000  0.000  0.000  0.000  0.000  0.151
    2  0.018  0.029  0.041  0.059  0.000  0.000  0.000  0.000  0.000  0.148
tot    0.039  0.054  0.076  0.130  0.000  0.000  0.000  0.000  0.000  0.299

band     8 # energy   13.61068804 # occ.  0.00000000

ion      s     py     pz     px    dxy    dyz    dz2    dxz  x2-y2    tot
    1  0.018  0.029  0.041  0.059  0.000  0.000  0.000  0.000  0.000  0.148
    2  0.021  0.024  0.035  0.071  0.000  0.000  0.000  0.000  0.000  0.151
tot    0.039  0.054  0.076  0.131  0.000  0.000  0.000  0.000  0.000  0.299


 k-point    60 :    0.50000000 0.12179487 0.62179487     weight = 0.00416667

band     1 # energy   -2.06172193 # occ.  2.00000000

ion      s     py     pz     px    dxy    dyz    dz2    dxz  x2-y2    tot
    1  0.198  0.038  0.004  0.000  0.000  0.000  0.000  0.000  0.000  0.241
    2  0.198  0.038  0.004  0.000  0.000  0.000  0.000  0.000  0.000  0.241
tot    0.396  0.076  0.009  0.000  0.000  0.000  0.000  0.000  0.000  0.481

band     2 # energy   -2.06172191 # occ.  2.00000000

ion      s     py     pz     px    dxy    dyz    dz2    dxz  x2-y2    tot
    1  0.198  0.038  0.004  0.000  0.000  0.000  0.000  0.000  0.000  0.241
    2  0.198  0.038  0.004  0.000  0.000  0.000  0.000  0.000  0.000  0.241
tot    0.396  0.076  0.009  0.000  0.000  0.000  0.000  0.000  0.000  0.481

band     3 # energy    2.29374995 # occ.  2.00000000

ion      s     py     pz     px    dxy    dyz    dz2    dxz  x2-y2    tot
    1  0.003  0.016  0.076  0.079  0.000  0.000  0.000  0.000  0.000  0.174
    2  0.003  0.016  0.076  0.079  0.000  0.000  0.000  0.000  0.000  0.174
tot    0.005  0.032  0.152  0.158  0.000  0.000  0.000  0.000  0.000  0.347

band     4 # energy    2.29375000 # occ.  2.00000000

ion      s     py     pz     px    dxy    dyz    dz2    dxz  x2-y2    tot
    1  0.003  0.016  0.076  0.079  0.000  0.000  0.000  0.000  0.000  0.174
    2  0.003  0.016  0.076  0.079  0.000  0.000  0.000  0.000  0.000  0.174
tot    0.005  0.032  0.152  0.158  0.000  0.000  0.000  0.000  0.000  0.347

band     5 # energy    7.54600071 # occ.  0.00000000

ion      s     py     pz     px    dxy    dyz    dz2    dxz  x2-y2    tot
    1  0.040  0.027  0.015  0.024  0.000  0.000  0.000  0.000  0.000  0.105
    2  0.040  0.027  0.015  0.024  0.000  0.000  0.000  0.000  0.000  0.105
tot    0.080  0.053  0.030  0.048  0.000  0.000  0.000  0.000  0.000  0.211

band     6 # energy    7.54600071 # occ.  0.00000000

ion      s     py     pz     px    dxy    dyz    dz2    dxz  x2-y2    tot
    1  0.040  0.027  0.015  0.024  0.000  0.000  0.000  0.000  0.000  0.105
    2  0.040  0.027  0.015  0.024  0.000  0.000  0.000  0.000  0.000  0.105
tot    0.080  0.053  0.030  0.048  0.000  0.000  0.000  0.000  0.000  0.211

band     7 # energy   13.44703605 # occ.  0.00000000

ion      s     py     pz     px    dxy    dyz    dz2    dxz  x2-y2    tot
    1  0.030  0.014  0.019  0.093  0.000  0.000  0.000  0.000  0.000  0.157
    2  0.011  0.041  0.054  0.033  0.000  0.000  0.000  0.000  0.000  0.139
tot    0.041  0.055  0.073  0.126  0.000  0.000  0.000  0.000  0.000  0.296

band     8 # energy   13.44705278 # occ.  0.00000000

ion      s     py     pz     px    dxy    dyz    dz2    dxz  x2-y2    tot
    1  0.011  0.041  0.054  0.033  0.000  0.000  0.000  0.000  0.000  0.139
    2  0.030  0.014  0.019  0.093  0.000  0.000  0.000  0.000  0.000  0.157
tot    0.041  0.056  0.073  0.126  0.000  0.000  0.000  0.000  0.000  0.296


 k-point    61 :    0.50000000 0.12820513 0.62820513     weight = 0.00416667

band     1 # energy   -2.05552134 # occ.  2.00000000

ion      s     py     pz     px    dxy    dyz    dz2    dxz  x2-y2    tot
    1  0.198  0.038  0.005  0.000  0.000  0.000  0.000  0.000  0.000  0.241
    2  0.198  0.038  0.005  0.000  0.000  0.000  0.000  0.000  0.000  0.241
tot    0.397  0.075  0.010  0.000  0.000  0.000  0.000  0.000  0.000  0.482

band     2 # energy   -2.05552131 # occ.  2.00000000

ion      s     py     pz     px    dxy    dyz    dz2    dxz  x2-y2    tot
    1  0.198  0.038  0.005  0.000  0.000  0.000  0.000  0.000  0.000  0.241
    2  0.198  0.038  0.005  0.000  0.000  0.000  0.000  0.000  0.000  0.241
tot    0.397  0.075  0.010  0.000  0.000  0.000  0.000  0.000  0.000  0.482

band     3 # energy    2.25621822 # occ.  2.00000000

ion      s     py     pz     px    dxy    dyz    dz2    dxz  x2-y2    tot
    1  0.002  0.017  0.075  0.078  0.000  0.000  0.000  0.000  0.000  0.172
    2  0.002  0.017  0.075  0.078  0.000  0.000  0.000  0.000  0.000  0.172
tot    0.005  0.035  0.149  0.156  0.000  0.000  0.000  0.000  0.000  0.345

band     4 # energy    2.25621827 # occ.  2.00000000

ion      s     py     pz     px    dxy    dyz    dz2    dxz  x2-y2    tot
    1  0.002  0.017  0.075  0.078  0.000  0.000  0.000  0.000  0.000  0.172
    2  0.002  0.017  0.075  0.078  0.000  0.000  0.000  0.000  0.000  0.172
tot    0.005  0.035  0.149  0.156  0.000  0.000  0.000  0.000  0.000  0.345

band     5 # energy    7.65497829 # occ.  0.00000000

ion      s     py     pz     px    dxy    dyz    dz2    dxz  x2-y2    tot
    1  0.039  0.026  0.016  0.026  0.000  0.000  0.000  0.000  0.000  0.106
    2  0.039  0.026  0.016  0.026  0.000  0.000  0.000  0.000  0.000  0.106
tot    0.078  0.052  0.031  0.051  0.000  0.000  0.000  0.000  0.000  0.213

band     6 # energy    7.65497829 # occ.  0.00000000

ion      s     py     pz     px    dxy    dyz    dz2    dxz  x2-y2    tot
    1  0.039  0.026  0.016  0.026  0.000  0.000  0.000  0.000  0.000  0.106
    2  0.039  0.026  0.016  0.026  0.000  0.000  0.000  0.000  0.000  0.106
tot    0.078  0.052  0.031  0.051  0.000  0.000  0.000  0.000  0.000  0.213

band     7 # energy   13.28295325 # occ.  0.00000000

ion      s     py     pz     px    dxy    dyz    dz2    dxz  x2-y2    tot
    1  0.012  0.041  0.051  0.034  0.000  0.000  0.000  0.000  0.000  0.138
    2  0.031  0.016  0.020  0.088  0.000  0.000  0.000  0.000  0.000  0.154
tot    0.043  0.057  0.071  0.122  0.000  0.000  0.000  0.000  0.000  0.293

band     8 # energy   13.28296062 # occ.  0.00000000

ion      s     py     pz     px    dxy    dyz    dz2    dxz  x2-y2    tot
    1  0.031  0.016  0.020  0.087  0.000  0.000  0.000  0.000  0.000  0.154
    2  0.012  0.041  0.051  0.034  0.000  0.000  0.000  0.000  0.000  0.138
tot    0.043  0.057  0.071  0.122  0.000  0.000  0.000  0.000  0.000  0.293


 k-point    62 :    0.50000000 0.13461538 0.63461538     weight = 0.00416667

band     1 # energy   -2.04929490 # occ.  2.00000000

ion      s     py     pz     px    dxy    dyz    dz2    dxz  x2-y2    tot
    1  0.199  0.037  0.005  0.000  0.000  0.000  0.000  0.000  0.000  0.241
    2  0.199  0.037  0.005  0.000  0.000  0.000  0.000  0.000  0.000  0.241
tot    0.398  0.074  0.011  0.000  0.000  0.000  0.000  0.000  0.000  0.482

band     2 # energy   -2.04929488 # occ.  2.00000000

ion      s     py     pz     px    dxy    dyz    dz2    dxz  x2-y2    tot
    1  0.199  0.037  0.005  0.000  0.000  0.000  0.000  0.000  0.000  0.241
    2  0.199  0.037  0.005  0.000  0.000  0.000  0.000  0.000  0.000  0.241
tot    0.398  0.074  0.011  0.000  0.000  0.000  0.000  0.000  0.000  0.482

band     3 # energy    2.21951203 # occ.  2.00000000

ion      s     py     pz     px    dxy    dyz    dz2    dxz  x2-y2    tot
    1  0.002  0.019  0.073  0.077  0.000  0.000  0.000  0.000  0.000  0.171
    2  0.002  0.019  0.073  0.077  0.000  0.000  0.000  0.000  0.000  0.171
tot    0.005  0.037  0.146  0.154  0.000  0.000  0.000  0.000  0.000  0.342

band     4 # energy    2.21951207 # occ.  2.00000000

ion      s     py     pz     px    dxy    dyz    dz2    dxz  x2-y2    tot
    1  0.002  0.019  0.073  0.077  0.000  0.000  0.000  0.000  0.000  0.171
    2  0.002  0.019  0.073  0.077  0.000  0.000  0.000  0.000  0.000  0.171
tot    0.005  0.037  0.146  0.154  0.000  0.000  0.000  0.000  0.000  0.342

band     5 # energy    7.76692807 # occ.  0.00000000

ion      s     py     pz     px    dxy    dyz    dz2    dxz  x2-y2    tot
    1  0.038  0.025  0.016  0.027  0.000  0.000  0.000  0.000  0.000  0.107
    2  0.038  0.025  0.016  0.027  0.000  0.000  0.000  0.000  0.000  0.107
tot    0.077  0.051  0.032  0.055  0.000  0.000  0.000  0.000  0.000  0.214

band     6 # energy    7.76692808 # occ.  0.00000000

ion      s     py     pz     px    dxy    dyz    dz2    dxz  x2-y2    tot
    1  0.038  0.025  0.016  0.027  0.000  0.000  0.000  0.000  0.000  0.107
    2  0.038  0.025  0.016  0.027  0.000  0.000  0.000  0.000  0.000  0.107
tot    0.077  0.051  0.032  0.055  0.000  0.000  0.000  0.000  0.000  0.214

band     7 # energy   13.11865518 # occ.  0.00000000

ion      s     py     pz     px    dxy    dyz    dz2    dxz  x2-y2    tot
    1  0.044  0.001  0.002  0.115  0.000  0.000  0.000  0.000  0.000  0.162
    2  0.001  0.057  0.068  0.003  0.000  0.000  0.000  0.000  0.000  0.129
tot    0.045  0.058  0.069  0.118  0.000  0.000  0.000  0.000  0.000  0.290

band     8 # energy   13.11865717 # occ.  0.00000000

ion      s     py     pz     px    dxy    dyz    dz2    dxz  x2-y2    tot
    1  0.001  0.057  0.068  0.003  0.000  0.000  0.000  0.000  0.000  0.129
    2  0.044  0.001  0.002  0.115  0.000  0.000  0.000  0.000  0.000  0.162
tot    0.045  0.058  0.069  0.118  0.000  0.000  0.000  0.000  0.000  0.290


 k-point    63 :    0.50000000 0.14102564 0.64102564     weight = 0.00416667

band     1 # energy   -2.04308471 # occ.  2.00000000

ion      s     py     pz     px    dxy    dyz    dz2    dxz  x2-y2    tot
    1  0.199  0.036  0.006  0.000  0.000  0.000  0.000  0.000  0.000  0.242
    2  0.199  0.036  0.006  0.000  0.000  0.000  0.000  0.000  0.000  0.242
tot    0.399  0.072  0.012  0.000  0.000  0.000  0.000  0.000  0.000  0.483

band     2 # energy   -2.04308469 # occ.  2.00000000

ion      s     py     pz     px    dxy    dyz    dz2    dxz  x2-y2    tot
    1  0.199  0.036  0.006  0.000  0.000  0.000  0.000  0.000  0.000  0.242
    2  0.199  0.036  0.006  0.000  0.000  0.000  0.000  0.000  0.000  0.242
tot    0.399  0.072  0.012  0.000  0.000  0.000  0.000  0.000  0.000  0.483

band     3 # energy    2.18381294 # occ.  2.00000000

ion      s     py     pz     px    dxy    dyz    dz2    dxz  x2-y2    tot
    1  0.002  0.020  0.072  0.076  0.000  0.000  0.000  0.000  0.000  0.170
    2  0.002  0.020  0.072  0.076  0.000  0.000  0.000  0.000  0.000  0.170
tot    0.005  0.040  0.143  0.152  0.000  0.000  0.000  0.000  0.000  0.340

band     4 # energy    2.18381298 # occ.  2.00000000

ion      s     py     pz     px    dxy    dyz    dz2    dxz  x2-y2    tot
    1  0.002  0.020  0.072  0.076  0.000  0.000  0.000  0.000  0.000  0.170
    2  0.002  0.020  0.072  0.076  0.000  0.000  0.000  0.000  0.000  0.170
tot    0.005  0.040  0.143  0.152  0.000  0.000  0.000  0.000  0.000  0.340

band     5 # energy    7.88167562 # occ.  0.00000000

ion      s     py     pz     px    dxy    dyz    dz2    dxz  x2-y2    tot
    1  0.037  0.025  0.017  0.029  0.000  0.000  0.000  0.000  0.000  0.108
    2  0.037  0.025  0.017  0.029  0.000  0.000  0.000  0.000  0.000  0.108
tot    0.075  0.050  0.034  0.058  0.000  0.000  0.000  0.000  0.000  0.216

band     6 # energy    7.88167563 # occ.  0.00000000

ion      s     py     pz     px    dxy    dyz    dz2    dxz  x2-y2    tot
    1  0.037  0.025  0.017  0.029  0.000  0.000  0.000  0.000  0.000  0.108
    2  0.037  0.025  0.017  0.029  0.000  0.000  0.000  0.000  0.000  0.108
tot    0.075  0.050  0.034  0.058  0.000  0.000  0.000  0.000  0.000  0.216

band     7 # energy   12.95436931 # occ.  0.00000000

ion      s     py     pz     px    dxy    dyz    dz2    dxz  x2-y2    tot
    1  0.003  0.056  0.063  0.008  0.000  0.000  0.000  0.000  0.000  0.130
    2  0.044  0.004  0.005  0.106  0.000  0.000  0.000  0.000  0.000  0.159
tot    0.047  0.060  0.068  0.114  0.000  0.000  0.000  0.000  0.000  0.288

band     8 # energy   12.95437378 # occ.  0.00000000

ion      s     py     pz     px    dxy    dyz    dz2    dxz  x2-y2    tot
    1  0.044  0.004  0.005  0.106  0.000  0.000  0.000  0.000  0.000  0.159
    2  0.003  0.056  0.063  0.008  0.000  0.000  0.000  0.000  0.000  0.130
tot    0.047  0.060  0.068  0.114  0.000  0.000  0.000  0.000  0.000  0.288


 k-point    64 :    0.50000000 0.14743590 0.64743590     weight = 0.00416667

band     1 # energy   -2.03693091 # occ.  2.00000000

ion      s     py     pz     px    dxy    dyz    dz2    dxz  x2-y2    tot
    1  0.200  0.035  0.007  0.000  0.000  0.000  0.000  0.000  0.000  0.242
    2  0.200  0.035  0.007  0.000  0.000  0.000  0.000  0.000  0.000  0.242
tot    0.399  0.071  0.013  0.000  0.000  0.000  0.000  0.000  0.000  0.484

band     2 # energy   -2.03693089 # occ.  2.00000000

ion      s     py     pz     px    dxy    dyz    dz2    dxz  x2-y2    tot
    1  0.200  0.035  0.007  0.000  0.000  0.000  0.000  0.000  0.000  0.242
    2  0.200  0.035  0.007  0.000  0.000  0.000  0.000  0.000  0.000  0.242
tot    0.399  0.071  0.013  0.000  0.000  0.000  0.000  0.000  0.000  0.484

band     3 # energy    2.14928967 # occ.  2.00000000

ion      s     py     pz     px    dxy    dyz    dz2    dxz  x2-y2    tot
    1  0.002  0.021  0.070  0.075  0.000  0.000  0.000  0.000  0.000  0.169
    2  0.002  0.021  0.070  0.075  0.000  0.000  0.000  0.000  0.000  0.169
tot    0.004  0.043  0.140  0.150  0.000  0.000  0.000  0.000  0.000  0.338

band     4 # energy    2.14928972 # occ.  2.00000000

ion      s     py     pz     px    dxy    dyz    dz2    dxz  x2-y2    tot
    1  0.002  0.021  0.070  0.075  0.000  0.000  0.000  0.000  0.000  0.169
    2  0.002  0.021  0.070  0.075  0.000  0.000  0.000  0.000  0.000  0.169
tot    0.004  0.043  0.140  0.150  0.000  0.000  0.000  0.000  0.000  0.338

band     5 # energy    7.99905455 # occ.  0.00000000

ion      s     py     pz     px    dxy    dyz    dz2    dxz  x2-y2    tot
    1  0.037  0.024  0.017  0.031  0.000  0.000  0.000  0.000  0.000  0.109
    2  0.037  0.024  0.017  0.031  0.000  0.000  0.000  0.000  0.000  0.109
tot    0.073  0.048  0.035  0.061  0.000  0.000  0.000  0.000  0.000  0.217

band     6 # energy    7.99905456 # occ.  0.00000000

ion      s     py     pz     px    dxy    dyz    dz2    dxz  x2-y2    tot
    1  0.037  0.024  0.017  0.031  0.000  0.000  0.000  0.000  0.000  0.109
    2  0.037  0.024  0.017  0.031  0.000  0.000  0.000  0.000  0.000  0.109
tot    0.073  0.048  0.035  0.061  0.000  0.000  0.000  0.000  0.000  0.217

band     7 # energy   12.79028960 # occ.  0.00000000

ion      s     py     pz     px    dxy    dyz    dz2    dxz  x2-y2    tot
    1  0.039  0.012  0.013  0.088  0.000  0.000  0.000  0.000  0.000  0.153
    2  0.010  0.049  0.053  0.022  0.000  0.000  0.000  0.000  0.000  0.134
tot    0.049  0.061  0.066  0.110  0.000  0.000  0.000  0.000  0.000  0.287

band     8 # energy   12.79028981 # occ.  0.00000000

ion      s     py     pz     px    dxy    dyz    dz2    dxz  x2-y2    tot
    1  0.010  0.049  0.053  0.022  0.000  0.000  0.000  0.000  0.000  0.134
    2  0.039  0.012  0.013  0.088  0.000  0.000  0.000  0.000  0.000  0.153
tot    0.049  0.061  0.066  0.110  0.000  0.000  0.000  0.000  0.000  0.287


 k-point    65 :    0.50000000 0.15384615 0.65384615     weight = 0.00416667

band     1 # energy   -2.03087226 # occ.  2.00000000

ion      s     py     pz     px    dxy    dyz    dz2    dxz  x2-y2    tot
    1  0.200  0.035  0.007  0.000  0.000  0.000  0.000  0.000  0.000  0.242
    2  0.200  0.035  0.007  0.000  0.000  0.000  0.000  0.000  0.000  0.242
tot    0.400  0.069  0.015  0.000  0.000  0.000  0.000  0.000  0.000  0.484

band     2 # energy   -2.03087223 # occ.  2.00000000

ion      s     py     pz     px    dxy    dyz    dz2    dxz  x2-y2    tot
    1  0.200  0.035  0.007  0.000  0.000  0.000  0.000  0.000  0.000  0.242
    2  0.200  0.035  0.007  0.000  0.000  0.000  0.000  0.000  0.000  0.242
tot    0.400  0.069  0.015  0.000  0.000  0.000  0.000  0.000  0.000  0.484

band     3 # energy    2.11609906 # occ.  2.00000000

ion      s     py     pz     px    dxy    dyz    dz2    dxz  x2-y2    tot
    1  0.002  0.023  0.069  0.074  0.000  0.000  0.000  0.000  0.000  0.168
    2  0.002  0.023  0.069  0.074  0.000  0.000  0.000  0.000  0.000  0.168
tot    0.004  0.045  0.137  0.149  0.000  0.000  0.000  0.000  0.000  0.336

band     4 # energy    2.11609910 # occ.  2.00000000

ion      s     py     pz     px    dxy    dyz    dz2    dxz  x2-y2    tot
    1  0.002  0.023  0.069  0.074  0.000  0.000  0.000  0.000  0.000  0.168
    2  0.002  0.023  0.069  0.074  0.000  0.000  0.000  0.000  0.000  0.168
tot    0.004  0.045  0.137  0.149  0.000  0.000  0.000  0.000  0.000  0.336

band     5 # energy    8.11894204 # occ.  0.00000000

ion      s     py     pz     px    dxy    dyz    dz2    dxz  x2-y2    tot
    1  0.036  0.024  0.018  0.032  0.000  0.000  0.000  0.000  0.000  0.109
    2  0.036  0.024  0.018  0.032  0.000  0.000  0.000  0.000  0.000  0.109
tot    0.071  0.047  0.036  0.065  0.000  0.000  0.000  0.000  0.000  0.219

band     6 # energy    8.11894205 # occ.  0.00000000

ion      s     py     pz     px    dxy    dyz    dz2    dxz  x2-y2    tot
    1  0.036  0.024  0.018  0.032  0.000  0.000  0.000  0.000  0.000  0.109
    2  0.036  0.024  0.018  0.032  0.000  0.000  0.000  0.000  0.000  0.109
tot    0.071  0.047  0.036  0.065  0.000  0.000  0.000  0.000  0.000  0.219

band     7 # energy   12.62663254 # occ.  0.00000000

ion      s     py     pz     px    dxy    dyz    dz2    dxz  x2-y2    tot
    1  0.023  0.034  0.036  0.048  0.000  0.000  0.000  0.000  0.000  0.141
    2  0.028  0.028  0.029  0.059  0.000  0.000  0.000  0.000  0.000  0.144
tot    0.051  0.062  0.065  0.107  0.000  0.000  0.000  0.000  0.000  0.285

band     8 # energy   12.62663892 # occ.  0.00000000

ion      s     py     pz     px    dxy    dyz    dz2    dxz  x2-y2    tot
    1  0.028  0.028  0.029  0.059  0.000  0.000  0.000  0.000  0.000  0.144
    2  0.023  0.034  0.036  0.048  0.000  0.000  0.000  0.000  0.000  0.141
tot    0.051  0.062  0.065  0.107  0.000  0.000  0.000  0.000  0.000  0.285


 k-point    66 :    0.50000000 0.16025641 0.66025641     weight = 0.00416667

band     1 # energy   -2.02495612 # occ.  2.00000000

ion      s     py     pz     px    dxy    dyz    dz2    dxz  x2-y2    tot
    1  0.201  0.034  0.008  0.000  0.000  0.000  0.000  0.000  0.000  0.243
    2  0.201  0.034  0.008  0.000  0.000  0.000  0.000  0.000  0.000  0.243
tot    0.401  0.068  0.016  0.000  0.000  0.000  0.000  0.000  0.000  0.485

band     2 # energy   -2.02495610 # occ.  2.00000000

ion      s     py     pz     px    dxy    dyz    dz2    dxz  x2-y2    tot
    1  0.201  0.034  0.008  0.000  0.000  0.000  0.000  0.000  0.000  0.243
    2  0.201  0.034  0.008  0.000  0.000  0.000  0.000  0.000  0.000  0.243
tot    0.401  0.068  0.016  0.000  0.000  0.000  0.000  0.000  0.000  0.485

band     3 # energy    2.08438563 # occ.  2.00000000

ion      s     py     pz     px    dxy    dyz    dz2    dxz  x2-y2    tot
    1  0.002  0.024  0.067  0.074  0.000  0.000  0.000  0.000  0.000  0.167
    2  0.002  0.024  0.067  0.074  0.000  0.000  0.000  0.000  0.000  0.167
tot    0.004  0.048  0.134  0.147  0.000  0.000  0.000  0.000  0.000  0.334

band     4 # energy    2.08438567 # occ.  2.00000000

ion      s     py     pz     px    dxy    dyz    dz2    dxz  x2-y2    tot
    1  0.002  0.024  0.067  0.074  0.000  0.000  0.000  0.000  0.000  0.167
    2  0.002  0.024  0.067  0.074  0.000  0.000  0.000  0.000  0.000  0.167
tot    0.004  0.048  0.134  0.147  0.000  0.000  0.000  0.000  0.000  0.334

band     5 # energy    8.24110479 # occ.  0.00000000

ion      s     py     pz     px    dxy    dyz    dz2    dxz  x2-y2    tot
    1  0.035  0.023  0.018  0.034  0.000  0.000  0.000  0.000  0.000  0.110
    2  0.035  0.023  0.018  0.034  0.000  0.000  0.000  0.000  0.000  0.110
tot    0.069  0.046  0.036  0.068  0.000  0.000  0.000  0.000  0.000  0.220

band     6 # energy    8.24110479 # occ.  0.00000000

ion      s     py     pz     px    dxy    dyz    dz2    dxz  x2-y2    tot
    1  0.035  0.023  0.018  0.034  0.000  0.000  0.000  0.000  0.000  0.110
    2  0.035  0.023  0.018  0.034  0.000  0.000  0.000  0.000  0.000  0.110
tot    0.069  0.046  0.036  0.068  0.000  0.000  0.000  0.000  0.000  0.220

band     7 # energy   12.46348710 # occ.  0.00000000

ion      s     py     pz     px    dxy    dyz    dz2    dxz  x2-y2    tot
    1  0.043  0.012  0.012  0.084  0.000  0.000  0.000  0.000  0.000  0.151
    2  0.010  0.052  0.053  0.019  0.000  0.000  0.000  0.000  0.000  0.133
tot    0.053  0.063  0.065  0.103  0.000  0.000  0.000  0.000  0.000  0.284

band     8 # energy   12.46348716 # occ.  0.00000000

ion      s     py     pz     px    dxy    dyz    dz2    dxz  x2-y2    tot
    1  0.010  0.052  0.053  0.019  0.000  0.000  0.000  0.000  0.000  0.133
    2  0.043  0.012  0.012  0.084  0.000  0.000  0.000  0.000  0.000  0.151
tot    0.053  0.064  0.065  0.103  0.000  0.000  0.000  0.000  0.000  0.284


 k-point    67 :    0.50000000 0.16666667 0.66666667     weight = 0.00416667

band     1 # energy   -2.01922402 # occ.  2.00000000

ion      s     py     pz     px    dxy    dyz    dz2    dxz  x2-y2    tot
    1  0.201  0.033  0.009  0.000  0.000  0.000  0.000  0.000  0.000  0.243
    2  0.201  0.033  0.009  0.000  0.000  0.000  0.000  0.000  0.000  0.243
tot    0.402  0.066  0.017  0.000  0.000  0.000  0.000  0.000  0.000  0.486

band     2 # energy   -2.01922400 # occ.  2.00000000

ion      s     py     pz     px    dxy    dyz    dz2    dxz  x2-y2    tot
    1  0.201  0.033  0.009  0.000  0.000  0.000  0.000  0.000  0.000  0.243
    2  0.201  0.033  0.009  0.000  0.000  0.000  0.000  0.000  0.000  0.243
tot    0.402  0.066  0.017  0.000  0.000  0.000  0.000  0.000  0.000  0.486

band     3 # energy    2.05428181 # occ.  2.00000000

ion      s     py     pz     px    dxy    dyz    dz2    dxz  x2-y2    tot
    1  0.002  0.025  0.066  0.073  0.000  0.000  0.000  0.000  0.000  0.166
    2  0.002  0.025  0.066  0.073  0.000  0.000  0.000  0.000  0.000  0.166
tot    0.003  0.051  0.131  0.146  0.000  0.000  0.000  0.000  0.000  0.332

band     4 # energy    2.05428185 # occ.  2.00000000

ion      s     py     pz     px    dxy    dyz    dz2    dxz  x2-y2    tot
    1  0.002  0.025  0.066  0.073  0.000  0.000  0.000  0.000  0.000  0.166
    2  0.002  0.025  0.066  0.073  0.000  0.000  0.000  0.000  0.000  0.166
tot    0.003  0.051  0.131  0.146  0.000  0.000  0.000  0.000  0.000  0.332

band     5 # energy    8.36542094 # occ.  0.00000000

ion      s     py     pz     px    dxy    dyz    dz2    dxz  x2-y2    tot
    1  0.034  0.022  0.019  0.036  0.000  0.000  0.000  0.000  0.000  0.110
    2  0.034  0.022  0.019  0.036  0.000  0.000  0.000  0.000  0.000  0.110
tot    0.067  0.045  0.037  0.071  0.000  0.000  0.000  0.000  0.000  0.221

band     6 # energy    8.36542094 # occ.  0.00000000

ion      s     py     pz     px    dxy    dyz    dz2    dxz  x2-y2    tot
    1  0.034  0.022  0.019  0.036  0.000  0.000  0.000  0.000  0.000  0.110
    2  0.034  0.022  0.019  0.036  0.000  0.000  0.000  0.000  0.000  0.110
tot    0.067  0.045  0.037  0.071  0.000  0.000  0.000  0.000  0.000  0.221

band     7 # energy   12.30105409 # occ.  0.00000000

ion      s     py     pz     px    dxy    dyz    dz2    dxz  x2-y2    tot
    1  0.042  0.016  0.016  0.075  0.000  0.000  0.000  0.000  0.000  0.148
    2  0.013  0.049  0.049  0.024  0.000  0.000  0.000  0.000  0.000  0.135
tot    0.055  0.065  0.064  0.099  0.000  0.000  0.000  0.000  0.000  0.283

band     8 # energy   12.30105445 # occ.  0.00000000

ion      s     py     pz     px    dxy    dyz    dz2    dxz  x2-y2    tot
    1  0.013  0.049  0.049  0.024  0.000  0.000  0.000  0.000  0.000  0.135
    2  0.042  0.016  0.016  0.075  0.000  0.000  0.000  0.000  0.000  0.148
tot    0.055  0.065  0.064  0.099  0.000  0.000  0.000  0.000  0.000  0.283


 k-point    68 :    0.50000000 0.17307692 0.67307692     weight = 0.00416667

band     1 # energy   -2.01371536 # occ.  2.00000000

ion      s     py     pz     px    dxy    dyz    dz2    dxz  x2-y2    tot
    1  0.201  0.032  0.009  0.000  0.000  0.000  0.000  0.000  0.000  0.243
    2  0.201  0.032  0.009  0.000  0.000  0.000  0.000  0.000  0.000  0.243
tot    0.403  0.064  0.019  0.000  0.000  0.000  0.000  0.000  0.000  0.486

band     2 # energy   -2.01371533 # occ.  2.00000000

ion      s     py     pz     px    dxy    dyz    dz2    dxz  x2-y2    tot
    1  0.201  0.032  0.009  0.000  0.000  0.000  0.000  0.000  0.000  0.243
    2  0.201  0.032  0.009  0.000  0.000  0.000  0.000  0.000  0.000  0.243
tot    0.403  0.064  0.019  0.000  0.000  0.000  0.000  0.000  0.000  0.486

band     3 # energy    2.02591391 # occ.  2.00000000

ion      s     py     pz     px    dxy    dyz    dz2    dxz  x2-y2    tot
    1  0.001  0.027  0.064  0.072  0.000  0.000  0.000  0.000  0.000  0.165
    2  0.001  0.027  0.064  0.072  0.000  0.000  0.000  0.000  0.000  0.165
tot    0.003  0.054  0.128  0.145  0.000  0.000  0.000  0.000  0.000  0.330

band     4 # energy    2.02591395 # occ.  2.00000000

ion      s     py     pz     px    dxy    dyz    dz2    dxz  x2-y2    tot
    1  0.001  0.027  0.064  0.072  0.000  0.000  0.000  0.000  0.000  0.165
    2  0.001  0.027  0.064  0.072  0.000  0.000  0.000  0.000  0.000  0.165
tot    0.003  0.054  0.128  0.145  0.000  0.000  0.000  0.000  0.000  0.330

band     5 # energy    8.49172452 # occ.  0.00000000

ion      s     py     pz     px    dxy    dyz    dz2    dxz  x2-y2    tot
    1  0.033  0.022  0.019  0.038  0.000  0.000  0.000  0.000  0.000  0.111
    2  0.033  0.022  0.019  0.037  0.000  0.000  0.000  0.000  0.000  0.111
tot    0.065  0.044  0.038  0.075  0.000  0.000  0.000  0.000  0.000  0.221

band     6 # energy    8.49172453 # occ.  0.00000000

ion      s     py     pz     px    dxy    dyz    dz2    dxz  x2-y2    tot
    1  0.033  0.022  0.019  0.037  0.000  0.000  0.000  0.000  0.000  0.111
    2  0.033  0.022  0.019  0.038  0.000  0.000  0.000  0.000  0.000  0.111
tot    0.065  0.044  0.038  0.075  0.000  0.000  0.000  0.000  0.000  0.221

band     7 # energy   12.13949686 # occ.  0.00000000

ion      s     py     pz     px    dxy    dyz    dz2    dxz  x2-y2    tot
    1  0.001  0.065  0.063  0.001  0.000  0.000  0.000  0.000  0.000  0.130
    2  0.057  0.001  0.001  0.094  0.000  0.000  0.000  0.000  0.000  0.153
tot    0.057  0.066  0.064  0.096  0.000  0.000  0.000  0.000  0.000  0.283

band     8 # energy   12.13949738 # occ.  0.00000000

ion      s     py     pz     px    dxy    dyz    dz2    dxz  x2-y2    tot
    1  0.057  0.001  0.001  0.094  0.000  0.000  0.000  0.000  0.000  0.153
    2  0.001  0.065  0.063  0.001  0.000  0.000  0.000  0.000  0.000  0.130
tot    0.057  0.066  0.064  0.096  0.000  0.000  0.000  0.000  0.000  0.283


 k-point    69 :    0.50000000 0.17948718 0.67948718     weight = 0.00416667

band     1 # energy   -2.00847078 # occ.  2.00000000

ion      s     py     pz     px    dxy    dyz    dz2    dxz  x2-y2    tot
    1  0.202  0.031  0.010  0.000  0.000  0.000  0.000  0.000  0.000  0.243
    2  0.202  0.031  0.010  0.000  0.000  0.000  0.000  0.000  0.000  0.243
tot    0.404  0.063  0.020  0.000  0.000  0.000  0.000  0.000  0.000  0.487

band     2 # energy   -2.00847076 # occ.  2.00000000

ion      s     py     pz     px    dxy    dyz    dz2    dxz  x2-y2    tot
    1  0.202  0.031  0.010  0.000  0.000  0.000  0.000  0.000  0.000  0.243
    2  0.202  0.031  0.010  0.000  0.000  0.000  0.000  0.000  0.000  0.243
tot    0.404  0.063  0.020  0.000  0.000  0.000  0.000  0.000  0.000  0.487

band     3 # energy    1.99939618 # occ.  2.00000000

ion      s     py     pz     px    dxy    dyz    dz2    dxz  x2-y2    tot
    1  0.001  0.028  0.063  0.072  0.000  0.000  0.000  0.000  0.000  0.164
    2  0.001  0.028  0.063  0.072  0.000  0.000  0.000  0.000  0.000  0.164
tot    0.003  0.057  0.125  0.144  0.000  0.000  0.000  0.000  0.000  0.328

band     4 # energy    1.99939623 # occ.  2.00000000

ion      s     py     pz     px    dxy    dyz    dz2    dxz  x2-y2    tot
    1  0.001  0.028  0.063  0.072  0.000  0.000  0.000  0.000  0.000  0.164
    2  0.001  0.028  0.063  0.072  0.000  0.000  0.000  0.000  0.000  0.164
tot    0.003  0.057  0.125  0.144  0.000  0.000  0.000  0.000  0.000  0.328

band     5 # energy    8.61983564 # occ.  0.00000000

ion      s     py     pz     px    dxy    dyz    dz2    dxz  x2-y2    tot
    1  0.032  0.021  0.018  0.040  0.000  0.000  0.000  0.000  0.000  0.112
    2  0.031  0.022  0.019  0.038  0.000  0.000  0.000  0.000  0.000  0.110
tot    0.063  0.042  0.038  0.079  0.000  0.000  0.000  0.000  0.000  0.222

band     6 # energy    8.61983566 # occ.  0.00000000

ion      s     py     pz     px    dxy    dyz    dz2    dxz  x2-y2    tot
    1  0.031  0.022  0.019  0.038  0.000  0.000  0.000  0.000  0.000  0.110
    2  0.032  0.021  0.018  0.040  0.000  0.000  0.000  0.000  0.000  0.112
tot    0.063  0.042  0.038  0.079  0.000  0.000  0.000  0.000  0.000  0.222

band     7 # energy   11.97899071 # occ.  0.00000000

ion      s     py     pz     px    dxy    dyz    dz2    dxz  x2-y2    tot
    1  0.046  0.015  0.015  0.071  0.000  0.000  0.000  0.000  0.000  0.147
    2  0.014  0.052  0.049  0.021  0.000  0.000  0.000  0.000  0.000  0.136
tot    0.060  0.067  0.064  0.092  0.000  0.000  0.000  0.000  0.000  0.282

band     8 # energy   11.97899209 # occ.  0.00000000

ion      s     py     pz     px    dxy    dyz    dz2    dxz  x2-y2    tot
    1  0.014  0.052  0.049  0.021  0.000  0.000  0.000  0.000  0.000  0.135
    2  0.046  0.015  0.014  0.071  0.000  0.000  0.000  0.000  0.000  0.147
tot    0.060  0.067  0.064  0.092  0.000  0.000  0.000  0.000  0.000  0.282


 k-point    70 :    0.50000000 0.18589744 0.68589744     weight = 0.00416667

band     1 # energy   -2.00353418 # occ.  2.00000000

ion      s     py     pz     px    dxy    dyz    dz2    dxz  x2-y2    tot
    1  0.202  0.030  0.011  0.000  0.000  0.000  0.000  0.000  0.000  0.244
    2  0.202  0.030  0.011  0.000  0.000  0.000  0.000  0.000  0.000  0.244
tot    0.405  0.061  0.022  0.000  0.000  0.000  0.000  0.000  0.000  0.487

band     2 # energy   -2.00353416 # occ.  2.00000000

ion      s     py     pz     px    dxy    dyz    dz2    dxz  x2-y2    tot
    1  0.202  0.030  0.011  0.000  0.000  0.000  0.000  0.000  0.000  0.244
    2  0.202  0.030  0.011  0.000  0.000  0.000  0.000  0.000  0.000  0.244
tot    0.405  0.061  0.022  0.000  0.000  0.000  0.000  0.000  0.000  0.487

band     3 # energy    1.97483296 # occ.  2.00000000

ion      s     py     pz     px    dxy    dyz    dz2    dxz  x2-y2    tot
    1  0.001  0.030  0.061  0.071  0.000  0.000  0.000  0.000  0.000  0.163
    2  0.001  0.030  0.061  0.071  0.000  0.000  0.000  0.000  0.000  0.163
tot    0.002  0.060  0.122  0.143  0.000  0.000  0.000  0.000  0.000  0.327

band     4 # energy    1.97483301 # occ.  2.00000000

ion      s     py     pz     px    dxy    dyz    dz2    dxz  x2-y2    tot
    1  0.001  0.030  0.061  0.071  0.000  0.000  0.000  0.000  0.000  0.163
    2  0.001  0.030  0.061  0.071  0.000  0.000  0.000  0.000  0.000  0.163
tot    0.002  0.060  0.122  0.143  0.000  0.000  0.000  0.000  0.000  0.327

band     5 # energy    8.74954756 # occ.  0.00000000

ion      s     py     pz     px    dxy    dyz    dz2    dxz  x2-y2    tot
    1  0.030  0.021  0.019  0.041  0.000  0.000  0.000  0.000  0.000  0.110
    2  0.031  0.020  0.019  0.042  0.000  0.000  0.000  0.000  0.000  0.111
tot    0.061  0.041  0.038  0.083  0.000  0.000  0.000  0.000  0.000  0.222

band     6 # energy    8.74954757 # occ.  0.00000000

ion      s     py     pz     px    dxy    dyz    dz2    dxz  x2-y2    tot
    1  0.031  0.020  0.019  0.042  0.000  0.000  0.000  0.000  0.000  0.111
    2  0.030  0.021  0.019  0.041  0.000  0.000  0.000  0.000  0.000  0.110
tot    0.061  0.041  0.038  0.083  0.000  0.000  0.000  0.000  0.000  0.222

band     7 # energy   11.81964662 # occ.  0.00000000

ion      s     py     pz     px    dxy    dyz    dz2    dxz  x2-y2    tot
    1  0.028  0.037  0.035  0.040  0.000  0.000  0.000  0.000  0.000  0.140
    2  0.034  0.031  0.029  0.048  0.000  0.000  0.000  0.000  0.000  0.142
tot    0.062  0.068  0.064  0.088  0.000  0.000  0.000  0.000  0.000  0.282

band     8 # energy   11.81964699 # occ.  0.00000000

ion      s     py     pz     px    dxy    dyz    dz2    dxz  x2-y2    tot
    1  0.034  0.031  0.029  0.048  0.000  0.000  0.000  0.000  0.000  0.142
    2  0.028  0.037  0.035  0.040  0.000  0.000  0.000  0.000  0.000  0.140
tot    0.062  0.068  0.064  0.088  0.000  0.000  0.000  0.000  0.000  0.282


 k-point    71 :    0.50000000 0.19230769 0.69230769     weight = 0.00416667

band     1 # energy   -1.99893481 # occ.  2.00000000

ion      s     py     pz     px    dxy    dyz    dz2    dxz  x2-y2    tot
    1  0.203  0.029  0.012  0.000  0.000  0.000  0.000  0.000  0.000  0.244
    2  0.203  0.029  0.012  0.000  0.000  0.000  0.000  0.000  0.000  0.244
tot    0.405  0.059  0.024  0.000  0.000  0.000  0.000  0.000  0.000  0.488

band     2 # energy   -1.99893479 # occ.  2.00000000

ion      s     py     pz     px    dxy    dyz    dz2    dxz  x2-y2    tot
    1  0.203  0.029  0.012  0.000  0.000  0.000  0.000  0.000  0.000  0.244
    2  0.203  0.029  0.012  0.000  0.000  0.000  0.000  0.000  0.000  0.244
tot    0.405  0.059  0.024  0.000  0.000  0.000  0.000  0.000  0.000  0.488

band     3 # energy    1.95232017 # occ.  2.00000000

ion      s     py     pz     px    dxy    dyz    dz2    dxz  x2-y2    tot
    1  0.001  0.031  0.060  0.071  0.000  0.000  0.000  0.000  0.000  0.163
    2  0.001  0.031  0.060  0.071  0.000  0.000  0.000  0.000  0.000  0.163
tot    0.002  0.063  0.119  0.142  0.000  0.000  0.000  0.000  0.000  0.325

band     4 # energy    1.95232021 # occ.  2.00000000

ion      s     py     pz     px    dxy    dyz    dz2    dxz  x2-y2    tot
    1  0.001  0.031  0.060  0.071  0.000  0.000  0.000  0.000  0.000  0.163
    2  0.001  0.031  0.060  0.071  0.000  0.000  0.000  0.000  0.000  0.163
tot    0.002  0.063  0.119  0.142  0.000  0.000  0.000  0.000  0.000  0.325

band     5 # energy    8.88061620 # occ.  0.00000000

ion      s     py     pz     px    dxy    dyz    dz2    dxz  x2-y2    tot
    1  0.029  0.020  0.019  0.043  0.000  0.000  0.000  0.000  0.000  0.111
    2  0.029  0.020  0.019  0.043  0.000  0.000  0.000  0.000  0.000  0.111
tot    0.058  0.039  0.038  0.087  0.000  0.000  0.000  0.000  0.000  0.222

band     6 # energy    8.88061621 # occ.  0.00000000

ion      s     py     pz     px    dxy    dyz    dz2    dxz  x2-y2    tot
    1  0.029  0.020  0.019  0.043  0.000  0.000  0.000  0.000  0.000  0.111
    2  0.029  0.020  0.019  0.043  0.000  0.000  0.000  0.000  0.000  0.111
tot    0.058  0.039  0.038  0.087  0.000  0.000  0.000  0.000  0.000  0.222

band     7 # energy   11.66187685 # occ.  0.00000000

ion      s     py     pz     px    dxy    dyz    dz2    dxz  x2-y2    tot
    1  0.021  0.047  0.044  0.027  0.000  0.000  0.000  0.000  0.000  0.139
    2  0.044  0.022  0.021  0.057  0.000  0.000  0.000  0.000  0.000  0.144
tot    0.065  0.070  0.065  0.084  0.000  0.000  0.000  0.000  0.000  0.283

band     8 # energy   11.66187710 # occ.  0.00000000

ion      s     py     pz     px    dxy    dyz    dz2    dxz  x2-y2    tot
    1  0.044  0.022  0.021  0.057  0.000  0.000  0.000  0.000  0.000  0.144
    2  0.021  0.047  0.044  0.027  0.000  0.000  0.000  0.000  0.000  0.139
tot    0.065  0.070  0.065  0.084  0.000  0.000  0.000  0.000  0.000  0.283


 k-point    72 :    0.50000000 0.19871795 0.69871795     weight = 0.00416667

band     1 # energy   -1.99470654 # occ.  2.00000000

ion      s     py     pz     px    dxy    dyz    dz2    dxz  x2-y2    tot
    1  0.203  0.029  0.013  0.000  0.000  0.000  0.000  0.000  0.000  0.244
    2  0.203  0.029  0.013  0.000  0.000  0.000  0.000  0.000  0.000  0.244
tot    0.406  0.057  0.025  0.000  0.000  0.000  0.000  0.000  0.000  0.488

band     2 # energy   -1.99470651 # occ.  2.00000000

ion      s     py     pz     px    dxy    dyz    dz2    dxz  x2-y2    tot
    1  0.203  0.029  0.013  0.000  0.000  0.000  0.000  0.000  0.000  0.244
    2  0.203  0.029  0.013  0.000  0.000  0.000  0.000  0.000  0.000  0.244
tot    0.406  0.057  0.025  0.000  0.000  0.000  0.000  0.000  0.000  0.488

band     3 # energy    1.93194294 # occ.  2.00000000

ion      s     py     pz     px    dxy    dyz    dz2    dxz  x2-y2    tot
    1  0.001  0.033  0.058  0.070  0.000  0.000  0.000  0.000  0.000  0.162
    2  0.001  0.033  0.058  0.070  0.000  0.000  0.000  0.000  0.000  0.162
tot    0.002  0.066  0.116  0.141  0.000  0.000  0.000  0.000  0.000  0.324

band     4 # energy    1.93194298 # occ.  2.00000000

ion      s     py     pz     px    dxy    dyz    dz2    dxz  x2-y2    tot
    1  0.001  0.033  0.058  0.070  0.000  0.000  0.000  0.000  0.000  0.162
    2  0.001  0.033  0.058  0.070  0.000  0.000  0.000  0.000  0.000  0.162
tot    0.002  0.066  0.116  0.141  0.000  0.000  0.000  0.000  0.000  0.324

band     5 # energy    9.01277730 # occ.  0.00000000

ion      s     py     pz     px    dxy    dyz    dz2    dxz  x2-y2    tot
    1  0.027  0.019  0.019  0.046  0.000  0.000  0.000  0.000  0.000  0.110
    2  0.028  0.019  0.018  0.046  0.000  0.000  0.000  0.000  0.000  0.111
tot    0.055  0.037  0.037  0.092  0.000  0.000  0.000  0.000  0.000  0.221

band     6 # energy    9.01277731 # occ.  0.00000000

ion      s     py     pz     px    dxy    dyz    dz2    dxz  x2-y2    tot
    1  0.028  0.019  0.018  0.046  0.000  0.000  0.000  0.000  0.000  0.111
    2  0.027  0.019  0.019  0.046  0.000  0.000  0.000  0.000  0.000  0.110
tot    0.055  0.037  0.037  0.092  0.000  0.000  0.000  0.000  0.000  0.221

band     7 # energy   11.50593607 # occ.  0.00000000

ion      s     py     pz     px    dxy    dyz    dz2    dxz  x2-y2    tot
    1  0.058  0.010  0.010  0.068  0.000  0.000  0.000  0.000  0.000  0.146
    2  0.010  0.061  0.056  0.012  0.000  0.000  0.000  0.000  0.000  0.138
tot    0.068  0.071  0.065  0.079  0.000  0.000  0.000  0.000  0.000  0.284

band     8 # energy   11.50593613 # occ.  0.00000000

ion      s     py     pz     px    dxy    dyz    dz2    dxz  x2-y2    tot
    1  0.010  0.061  0.056  0.012  0.000  0.000  0.000  0.000  0.000  0.138
    2  0.058  0.010  0.010  0.068  0.000  0.000  0.000  0.000  0.000  0.146
tot    0.068  0.071  0.065  0.079  0.000  0.000  0.000  0.000  0.000  0.284


 k-point    73 :    0.50000000 0.20512821 0.70512821     weight = 0.00416667

band     1 # energy   -1.99089335 # occ.  2.00000000

ion      s     py     pz     px    dxy    dyz    dz2    dxz  x2-y2    tot
    1  0.203  0.028  0.014  0.000  0.000  0.000  0.000  0.000  0.000  0.244
    2  0.203  0.028  0.014  0.000  0.000  0.000  0.000  0.000  0.000  0.244
tot    0.406  0.055  0.027  0.000  0.000  0.000  0.000  0.000  0.000  0.489

band     2 # energy   -1.99089332 # occ.  2.00000000

ion      s     py     pz     px    dxy    dyz    dz2    dxz  x2-y2    tot
    1  0.203  0.028  0.014  0.000  0.000  0.000  0.000  0.000  0.000  0.244
    2  0.203  0.028  0.014  0.000  0.000  0.000  0.000  0.000  0.000  0.244
tot    0.406  0.055  0.027  0.000  0.000  0.000  0.000  0.000  0.000  0.489

band     3 # energy    1.91377941 # occ.  2.00000000

ion      s     py     pz     px    dxy    dyz    dz2    dxz  x2-y2    tot
    1  0.001  0.034  0.057  0.070  0.000  0.000  0.000  0.000  0.000  0.162
    2  0.001  0.034  0.057  0.070  0.000  0.000  0.000  0.000  0.000  0.162
tot    0.001  0.069  0.113  0.140  0.000  0.000  0.000  0.000  0.000  0.323

band     4 # energy    1.91377945 # occ.  2.00000000

ion      s     py     pz     px    dxy    dyz    dz2    dxz  x2-y2    tot
    1  0.001  0.034  0.057  0.070  0.000  0.000  0.000  0.000  0.000  0.162
    2  0.001  0.034  0.057  0.070  0.000  0.000  0.000  0.000  0.000  0.162
tot    0.001  0.069  0.113  0.140  0.000  0.000  0.000  0.000  0.000  0.323

band     5 # energy    9.14549331 # occ.  0.00000000

ion      s     py     pz     px    dxy    dyz    dz2    dxz  x2-y2    tot
    1  0.026  0.017  0.018  0.049  0.000  0.000  0.000  0.000  0.000  0.110
    2  0.026  0.018  0.018  0.048  0.000  0.000  0.000  0.000  0.000  0.110
tot    0.052  0.035  0.036  0.097  0.000  0.000  0.000  0.000  0.000  0.220

band     6 # energy    9.14549332 # occ.  0.00000000

ion      s     py     pz     px    dxy    dyz    dz2    dxz  x2-y2    tot
    1  0.026  0.018  0.018  0.048  0.000  0.000  0.000  0.000  0.000  0.110
    2  0.026  0.017  0.018  0.049  0.000  0.000  0.000  0.000  0.000  0.110
tot    0.052  0.035  0.036  0.097  0.000  0.000  0.000  0.000  0.000  0.220

band     7 # energy   11.35218876 # occ.  0.00000000

ion      s     py     pz     px    dxy    dyz    dz2    dxz  x2-y2    tot
    1  0.032  0.041  0.037  0.033  0.000  0.000  0.000  0.000  0.000  0.142
    2  0.040  0.032  0.030  0.041  0.000  0.000  0.000  0.000  0.000  0.143
tot    0.072  0.073  0.067  0.074  0.000  0.000  0.000  0.000  0.000  0.285

band     8 # energy   11.35218878 # occ.  0.00000000

ion      s     py     pz     px    dxy    dyz    dz2    dxz  x2-y2    tot
    1  0.040  0.032  0.030  0.041  0.000  0.000  0.000  0.000  0.000  0.143
    2  0.032  0.041  0.037  0.033  0.000  0.000  0.000  0.000  0.000  0.142
tot    0.072  0.073  0.067  0.074  0.000  0.000  0.000  0.000  0.000  0.285


 k-point    74 :    0.50000000 0.21153846 0.71153846     weight = 0.00416667

band     1 # energy   -1.98752460 # occ.  2.00000000

ion      s     py     pz     px    dxy    dyz    dz2    dxz  x2-y2    tot
    1  0.204  0.027  0.015  0.000  0.000  0.000  0.000  0.000  0.000  0.245
    2  0.204  0.027  0.015  0.000  0.000  0.000  0.000  0.000  0.000  0.245
tot    0.407  0.053  0.029  0.000  0.000  0.000  0.000  0.000  0.000  0.489

band     2 # energy   -1.98752458 # occ.  2.00000000

ion      s     py     pz     px    dxy    dyz    dz2    dxz  x2-y2    tot
    1  0.204  0.027  0.015  0.000  0.000  0.000  0.000  0.000  0.000  0.245
    2  0.204  0.027  0.015  0.000  0.000  0.000  0.000  0.000  0.000  0.245
tot    0.407  0.053  0.029  0.000  0.000  0.000  0.000  0.000  0.000  0.489

band     3 # energy    1.89789689 # occ.  2.00000000

ion      s     py     pz     px    dxy    dyz    dz2    dxz  x2-y2    tot
    1  0.000  0.036  0.055  0.070  0.000  0.000  0.000  0.000  0.000  0.161
    2  0.000  0.036  0.055  0.070  0.000  0.000  0.000  0.000  0.000  0.161
tot    0.001  0.072  0.110  0.140  0.000  0.000  0.000  0.000  0.000  0.322

band     4 # energy    1.89789694 # occ.  2.00000000

ion      s     py     pz     px    dxy    dyz    dz2    dxz  x2-y2    tot
    1  0.000  0.036  0.055  0.070  0.000  0.000  0.000  0.000  0.000  0.161
    2  0.000  0.036  0.055  0.070  0.000  0.000  0.000  0.000  0.000  0.161
tot    0.001  0.072  0.110  0.140  0.000  0.000  0.000  0.000  0.000  0.322

band     5 # energy    9.27814391 # occ.  0.00000000

ion      s     py     pz     px    dxy    dyz    dz2    dxz  x2-y2    tot
    1  0.024  0.016  0.017  0.051  0.000  0.000  0.000  0.000  0.000  0.109
    2  0.024  0.016  0.017  0.052  0.000  0.000  0.000  0.000  0.000  0.109
tot    0.048  0.033  0.034  0.103  0.000  0.000  0.000  0.000  0.000  0.218

band     6 # energy    9.27814392 # occ.  0.00000000

ion      s     py     pz     px    dxy    dyz    dz2    dxz  x2-y2    tot
    1  0.024  0.016  0.017  0.052  0.000  0.000  0.000  0.000  0.000  0.109
    2  0.024  0.016  0.017  0.051  0.000  0.000  0.000  0.000  0.000  0.109
tot    0.048  0.033  0.034  0.103  0.000  0.000  0.000  0.000  0.000  0.218

band     7 # energy   11.20131219 # occ.  0.00000000

ion      s     py     pz     px    dxy    dyz    dz2    dxz  x2-y2    tot
    1  0.030  0.045  0.041  0.027  0.000  0.000  0.000  0.000  0.000  0.144
    2  0.045  0.030  0.028  0.041  0.000  0.000  0.000  0.000  0.000  0.144
tot    0.076  0.075  0.069  0.068  0.000  0.000  0.000  0.000  0.000  0.287

band     8 # energy   11.20131224 # occ.  0.00000000

ion      s     py     pz     px    dxy    dyz    dz2    dxz  x2-y2    tot
    1  0.045  0.030  0.028  0.041  0.000  0.000  0.000  0.000  0.000  0.144
    2  0.030  0.045  0.041  0.027  0.000  0.000  0.000  0.000  0.000  0.144
tot    0.076  0.075  0.069  0.068  0.000  0.000  0.000  0.000  0.000  0.287


 k-point    75 :    0.50000000 0.21794872 0.71794872     weight = 0.00416667

band     1 # energy   -1.98462512 # occ.  2.00000000

ion      s     py     pz     px    dxy    dyz    dz2    dxz  x2-y2    tot
    1  0.204  0.026  0.015  0.000  0.000  0.000  0.000  0.000  0.000  0.245
    2  0.204  0.026  0.015  0.000  0.000  0.000  0.000  0.000  0.000  0.245
tot    0.407  0.051  0.031  0.000  0.000  0.000  0.000  0.000  0.000  0.489

band     2 # energy   -1.98462510 # occ.  2.00000000

ion      s     py     pz     px    dxy    dyz    dz2    dxz  x2-y2    tot
    1  0.204  0.026  0.015  0.000  0.000  0.000  0.000  0.000  0.000  0.245
    2  0.204  0.026  0.015  0.000  0.000  0.000  0.000  0.000  0.000  0.245
tot    0.407  0.051  0.031  0.000  0.000  0.000  0.000  0.000  0.000  0.489

band     3 # energy    1.88435641 # occ.  2.00000000

ion      s     py     pz     px    dxy    dyz    dz2    dxz  x2-y2    tot
    1  0.000  0.037  0.053  0.070  0.000  0.000  0.000  0.000  0.000  0.161
    2  0.000  0.037  0.053  0.070  0.000  0.000  0.000  0.000  0.000  0.161
tot    0.001  0.075  0.107  0.139  0.000  0.000  0.000  0.000  0.000  0.321

band     4 # energy    1.88435645 # occ.  2.00000000

ion      s     py     pz     px    dxy    dyz    dz2    dxz  x2-y2    tot
    1  0.000  0.037  0.053  0.070  0.000  0.000  0.000  0.000  0.000  0.161
    2  0.000  0.037  0.053  0.070  0.000  0.000  0.000  0.000  0.000  0.161
tot    0.001  0.075  0.107  0.139  0.000  0.000  0.000  0.000  0.000  0.321

band     5 # energy    9.40970880 # occ.  0.00000000

ion      s     py     pz     px    dxy    dyz    dz2    dxz  x2-y2    tot
    1  0.021  0.015  0.016  0.054  0.000  0.000  0.000  0.000  0.000  0.106
    2  0.022  0.014  0.016  0.056  0.000  0.000  0.000  0.000  0.000  0.108
tot    0.043  0.029  0.032  0.110  0.000  0.000  0.000  0.000  0.000  0.214

band     6 # energy    9.40970881 # occ.  0.00000000

ion      s     py     pz     px    dxy    dyz    dz2    dxz  x2-y2    tot
    1  0.022  0.014  0.016  0.056  0.000  0.000  0.000  0.000  0.000  0.108
    2  0.021  0.015  0.016  0.054  0.000  0.000  0.000  0.000  0.000  0.106
tot    0.043  0.029  0.032  0.110  0.000  0.000  0.000  0.000  0.000  0.214

band     7 # energy   11.05433611 # occ.  0.00000000

ion      s     py     pz     px    dxy    dyz    dz2    dxz  x2-y2    tot
    1  0.049  0.030  0.028  0.037  0.000  0.000  0.000  0.000  0.000  0.145
    2  0.031  0.048  0.044  0.023  0.000  0.000  0.000  0.000  0.000  0.146
tot    0.081  0.078  0.072  0.061  0.000  0.000  0.000  0.000  0.000  0.291

band     8 # energy   11.05433613 # occ.  0.00000000

ion      s     py     pz     px    dxy    dyz    dz2    dxz  x2-y2    tot
    1  0.031  0.048  0.044  0.023  0.000  0.000  0.000  0.000  0.000  0.146
    2  0.049  0.030  0.028  0.037  0.000  0.000  0.000  0.000  0.000  0.144
tot    0.081  0.078  0.072  0.061  0.000  0.000  0.000  0.000  0.000  0.291


 k-point    76 :    0.50000000 0.22435897 0.72435897     weight = 0.00416667

band     1 # energy   -1.98221999 # occ.  2.00000000

ion      s     py     pz     px    dxy    dyz    dz2    dxz  x2-y2    tot
    1  0.204  0.025  0.016  0.000  0.000  0.000  0.000  0.000  0.000  0.245
    2  0.204  0.025  0.016  0.000  0.000  0.000  0.000  0.000  0.000  0.245
tot    0.408  0.049  0.033  0.000  0.000  0.000  0.000  0.000  0.000  0.490

band     2 # energy   -1.98221997 # occ.  2.00000000

ion      s     py     pz     px    dxy    dyz    dz2    dxz  x2-y2    tot
    1  0.204  0.025  0.016  0.000  0.000  0.000  0.000  0.000  0.000  0.245
    2  0.204  0.025  0.016  0.000  0.000  0.000  0.000  0.000  0.000  0.245
tot    0.408  0.049  0.033  0.000  0.000  0.000  0.000  0.000  0.000  0.490

band     3 # energy    1.87320590 # occ.  2.00000000

ion      s     py     pz     px    dxy    dyz    dz2    dxz  x2-y2    tot
    1  0.000  0.039  0.052  0.069  0.000  0.000  0.000  0.000  0.000  0.160
    2  0.000  0.039  0.052  0.069  0.000  0.000  0.000  0.000  0.000  0.160
tot    0.000  0.078  0.104  0.139  0.000  0.000  0.000  0.000  0.000  0.321

band     4 # energy    1.87320594 # occ.  2.00000000

ion      s     py     pz     px    dxy    dyz    dz2    dxz  x2-y2    tot
    1  0.000  0.039  0.052  0.069  0.000  0.000  0.000  0.000  0.000  0.160
    2  0.000  0.039  0.052  0.069  0.000  0.000  0.000  0.000  0.000  0.160
tot    0.000  0.078  0.104  0.139  0.000  0.000  0.000  0.000  0.000  0.321

band     5 # energy    9.53838522 # occ.  0.00000000

ion      s     py     pz     px    dxy    dyz    dz2    dxz  x2-y2    tot
    1  0.018  0.013  0.014  0.059  0.000  0.000  0.000  0.000  0.000  0.104
    2  0.018  0.012  0.014  0.060  0.000  0.000  0.000  0.000  0.000  0.105
tot    0.036  0.025  0.028  0.119  0.000  0.000  0.000  0.000  0.000  0.209

band     6 # energy    9.53838524 # occ.  0.00000000

ion      s     py     pz     px    dxy    dyz    dz2    dxz  x2-y2    tot
    1  0.018  0.012  0.014  0.060  0.000  0.000  0.000  0.000  0.000  0.105
    2  0.018  0.013  0.014  0.059  0.000  0.000  0.000  0.000  0.000  0.104
tot    0.036  0.025  0.028  0.119  0.000  0.000  0.000  0.000  0.000  0.209

band     7 # energy   10.91304353 # occ.  0.00000000

ion      s     py     pz     px    dxy    dyz    dz2    dxz  x2-y2    tot
    1  0.063  0.023  0.021  0.037  0.000  0.000  0.000  0.000  0.000  0.144
    2  0.024  0.059  0.054  0.014  0.000  0.000  0.000  0.000  0.000  0.152
tot    0.087  0.082  0.076  0.052  0.000  0.000  0.000  0.000  0.000  0.296

band     8 # energy   10.91304355 # occ.  0.00000000

ion      s     py     pz     px    dxy    dyz    dz2    dxz  x2-y2    tot
    1  0.024  0.059  0.054  0.014  0.000  0.000  0.000  0.000  0.000  0.152
    2  0.063  0.023  0.021  0.037  0.000  0.000  0.000  0.000  0.000  0.144
tot    0.087  0.082  0.076  0.052  0.000  0.000  0.000  0.000  0.000  0.296


 k-point    77 :    0.50000000 0.23076923 0.73076923     weight = 0.00416667

band     1 # energy   -1.98032703 # occ.  2.00000000

ion      s     py     pz     px    dxy    dyz    dz2    dxz  x2-y2    tot
    1  0.204  0.024  0.017  0.000  0.000  0.000  0.000  0.000  0.000  0.245
    2  0.204  0.024  0.017  0.000  0.000  0.000  0.000  0.000  0.000  0.245
tot    0.408  0.047  0.035  0.000  0.000  0.000  0.000  0.000  0.000  0.490

band     2 # energy   -1.98032701 # occ.  2.00000000

ion      s     py     pz     px    dxy    dyz    dz2    dxz  x2-y2    tot
    1  0.204  0.024  0.017  0.000  0.000  0.000  0.000  0.000  0.000  0.245
    2  0.204  0.024  0.017  0.000  0.000  0.000  0.000  0.000  0.000  0.245
tot    0.408  0.047  0.035  0.000  0.000  0.000  0.000  0.000  0.000  0.490

band     3 # energy    1.86449220 # occ.  2.00000000

ion      s     py     pz     px    dxy    dyz    dz2    dxz  x2-y2    tot
    1  0.000  0.041  0.050  0.069  0.000  0.000  0.000  0.000  0.000  0.160
    2  0.000  0.041  0.050  0.069  0.000  0.000  0.000  0.000  0.000  0.160
tot    0.000  0.081  0.100  0.138  0.000  0.000  0.000  0.000  0.000  0.320

band     4 # energy    1.86449224 # occ.  2.00000000

ion      s     py     pz     px    dxy    dyz    dz2    dxz  x2-y2    tot
    1  0.000  0.041  0.050  0.069  0.000  0.000  0.000  0.000  0.000  0.160
    2  0.000  0.041  0.050  0.069  0.000  0.000  0.000  0.000  0.000  0.160
tot    0.000  0.081  0.100  0.138  0.000  0.000  0.000  0.000  0.000  0.320

band     5 # energy    9.66080365 # occ.  0.00000000

ion      s     py     pz     px    dxy    dyz    dz2    dxz  x2-y2    tot
    1  0.014  0.010  0.012  0.065  0.000  0.000  0.000  0.000  0.000  0.100
    2  0.014  0.010  0.011  0.066  0.000  0.000  0.000  0.000  0.000  0.102
tot    0.028  0.019  0.023  0.131  0.000  0.000  0.000  0.000  0.000  0.202

band     6 # energy    9.66080367 # occ.  0.00000000

ion      s     py     pz     px    dxy    dyz    dz2    dxz  x2-y2    tot
    1  0.014  0.010  0.011  0.066  0.000  0.000  0.000  0.000  0.000  0.102
    2  0.014  0.010  0.012  0.065  0.000  0.000  0.000  0.000  0.000  0.100
tot    0.028  0.019  0.023  0.131  0.000  0.000  0.000  0.000  0.000  0.202

band     7 # energy   10.78082893 # occ.  0.00000000

ion      s     py     pz     px    dxy    dyz    dz2    dxz  x2-y2    tot
    1  0.056  0.036  0.033  0.024  0.000  0.000  0.000  0.000  0.000  0.149
    2  0.039  0.052  0.048  0.016  0.000  0.000  0.000  0.000  0.000  0.155
tot    0.095  0.087  0.081  0.040  0.000  0.000  0.000  0.000  0.000  0.304

band     8 # energy   10.78082895 # occ.  0.00000000

ion      s     py     pz     px    dxy    dyz    dz2    dxz  x2-y2    tot
    1  0.039  0.052  0.048  0.016  0.000  0.000  0.000  0.000  0.000  0.155
    2  0.056  0.036  0.033  0.024  0.000  0.000  0.000  0.000  0.000  0.149
tot    0.095  0.087  0.081  0.040  0.000  0.000  0.000  0.000  0.000  0.304


 k-point    78 :    0.50000000 0.23717949 0.73717949     weight = 0.00416667

band     1 # energy   -1.97896667 # occ.  2.00000000

ion      s     py     pz     px    dxy    dyz    dz2    dxz  x2-y2    tot
    1  0.204  0.022  0.018  0.000  0.000  0.000  0.000  0.000  0.000  0.245
    2  0.204  0.022  0.018  0.000  0.000  0.000  0.000  0.000  0.000  0.245
tot    0.408  0.045  0.037  0.000  0.000  0.000  0.000  0.000  0.000  0.490

band     2 # energy   -1.97896665 # occ.  2.00000000

ion      s     py     pz     px    dxy    dyz    dz2    dxz  x2-y2    tot
    1  0.204  0.022  0.018  0.000  0.000  0.000  0.000  0.000  0.000  0.245
    2  0.204  0.022  0.018  0.000  0.000  0.000  0.000  0.000  0.000  0.245
tot    0.408  0.045  0.037  0.000  0.000  0.000  0.000  0.000  0.000  0.490

band     3 # energy    1.85824307 # occ.  2.00000000

ion      s     py     pz     px    dxy    dyz    dz2    dxz  x2-y2    tot
    1  0.000  0.042  0.049  0.069  0.000  0.000  0.000  0.000  0.000  0.160
    2  0.000  0.042  0.049  0.069  0.000  0.000  0.000  0.000  0.000  0.160
tot    0.000  0.084  0.097  0.138  0.000  0.000  0.000  0.000  0.000  0.320

band     4 # energy    1.85824312 # occ.  2.00000000

ion      s     py     pz     px    dxy    dyz    dz2    dxz  x2-y2    tot
    1  0.000  0.042  0.049  0.069  0.000  0.000  0.000  0.000  0.000  0.160
    2  0.000  0.042  0.049  0.069  0.000  0.000  0.000  0.000  0.000  0.160
tot    0.000  0.084  0.097  0.138  0.000  0.000  0.000  0.000  0.000  0.320

band     5 # energy    9.77009275 # occ.  0.00000000

ion      s     py     pz     px    dxy    dyz    dz2    dxz  x2-y2    tot
    1  0.009  0.006  0.008  0.072  0.000  0.000  0.000  0.000  0.000  0.095
    2  0.009  0.006  0.008  0.074  0.000  0.000  0.000  0.000  0.000  0.096
tot    0.018  0.012  0.015  0.146  0.000  0.000  0.000  0.000  0.000  0.191

band     6 # energy    9.77009278 # occ.  0.00000000

ion      s     py     pz     px    dxy    dyz    dz2    dxz  x2-y2    tot
    1  0.009  0.006  0.008  0.074  0.000  0.000  0.000  0.000  0.000  0.096
    2  0.009  0.006  0.008  0.072  0.000  0.000  0.000  0.000  0.000  0.095
tot    0.018  0.012  0.015  0.146  0.000  0.000  0.000  0.000  0.000  0.191

band     7 # energy   10.66453294 # occ.  0.00000000

ion      s     py     pz     px    dxy    dyz    dz2    dxz  x2-y2    tot
    1  0.017  0.079  0.075  0.004  0.000  0.000  0.000  0.000  0.000  0.175
    2  0.089  0.015  0.014  0.021  0.000  0.000  0.000  0.000  0.000  0.139
tot    0.105  0.094  0.090  0.025  0.000  0.000  0.000  0.000  0.000  0.315

band     8 # energy   10.66453296 # occ.  0.00000000

ion      s     py     pz     px    dxy    dyz    dz2    dxz  x2-y2    tot
    1  0.089  0.015  0.014  0.021  0.000  0.000  0.000  0.000  0.000  0.139
    2  0.017  0.079  0.075  0.004  0.000  0.000  0.000  0.000  0.000  0.175
tot    0.105  0.094  0.090  0.025  0.000  0.000  0.000  0.000  0.000  0.315


 k-point    79 :    0.50000000 0.24358974 0.74358974     weight = 0.00416667

band     1 # energy   -1.97814798 # occ.  2.00000000

ion      s     py     pz     px    dxy    dyz    dz2    dxz  x2-y2    tot
    1  0.204  0.021  0.019  0.000  0.000  0.000  0.000  0.000  0.000  0.245
    2  0.204  0.021  0.019  0.000  0.000  0.000  0.000  0.000  0.000  0.245
tot    0.409  0.043  0.039  0.000  0.000  0.000  0.000  0.000  0.000  0.490

band     2 # energy   -1.97814796 # occ.  2.00000000

ion      s     py     pz     px    dxy    dyz    dz2    dxz  x2-y2    tot
    1  0.204  0.021  0.019  0.000  0.000  0.000  0.000  0.000  0.000  0.245
    2  0.204  0.021  0.019  0.000  0.000  0.000  0.000  0.000  0.000  0.245
tot    0.409  0.043  0.039  0.000  0.000  0.000  0.000  0.000  0.000  0.490

band     3 # energy    1.85448489 # occ.  2.00000000

ion      s     py     pz     px    dxy    dyz    dz2    dxz  x2-y2    tot
    1  0.000  0.044  0.047  0.069  0.000  0.000  0.000  0.000  0.000  0.160
    2  0.000  0.044  0.047  0.069  0.000  0.000  0.000  0.000  0.000  0.160
tot    0.000  0.088  0.094  0.138  0.000  0.000  0.000  0.000  0.000  0.320

band     4 # energy    1.85448493 # occ.  2.00000000

ion      s     py     pz     px    dxy    dyz    dz2    dxz  x2-y2    tot
    1  0.000  0.044  0.047  0.069  0.000  0.000  0.000  0.000  0.000  0.160
    2  0.000  0.044  0.047  0.069  0.000  0.000  0.000  0.000  0.000  0.160
tot    0.000  0.088  0.094  0.138  0.000  0.000  0.000  0.000  0.000  0.320

band     5 # energy    9.85217678 # occ.  0.00000000

ion      s     py     pz     px    dxy    dyz    dz2    dxz  x2-y2    tot
    1  0.003  0.002  0.003  0.082  0.000  0.000  0.000  0.000  0.000  0.090
    2  0.003  0.002  0.003  0.081  0.000  0.000  0.000  0.000  0.000  0.088
tot    0.006  0.004  0.006  0.162  0.000  0.000  0.000  0.000  0.000  0.178

band     6 # energy    9.85217681 # occ.  0.00000000

ion      s     py     pz     px    dxy    dyz    dz2    dxz  x2-y2    tot
    1  0.003  0.002  0.003  0.081  0.000  0.000  0.000  0.000  0.000  0.088
    2  0.003  0.002  0.003  0.082  0.000  0.000  0.000  0.000  0.000  0.090
tot    0.006  0.004  0.006  0.162  0.000  0.000  0.000  0.000  0.000  0.178

band     7 # energy   10.57814551 # occ.  0.00000000

ion      s     py     pz     px    dxy    dyz    dz2    dxz  x2-y2    tot
    1  0.074  0.038  0.037  0.005  0.000  0.000  0.000  0.000  0.000  0.154
    2  0.043  0.065  0.063  0.003  0.000  0.000  0.000  0.000  0.000  0.174
tot    0.117  0.102  0.099  0.009  0.000  0.000  0.000  0.000  0.000  0.327

band     8 # energy   10.57814553 # occ.  0.00000000

ion      s     py     pz     px    dxy    dyz    dz2    dxz  x2-y2    tot
    1  0.043  0.065  0.063  0.003  0.000  0.000  0.000  0.000  0.000  0.174
    2  0.074  0.038  0.037  0.005  0.000  0.000  0.000  0.000  0.000  0.154
tot    0.117  0.102  0.099  0.009  0.000  0.000  0.000  0.000  0.000  0.327


 k-point    80 :    0.50000000 0.25000000 0.75000000     weight = 0.00416667

band     1 # energy   -1.97787296 # occ.  2.00000000

ion      s     py     pz     px    dxy    dyz    dz2    dxz  x2-y2    tot
    1  0.204  0.020  0.020  0.000  0.000  0.000  0.000  0.000  0.000  0.245
    2  0.204  0.020  0.020  0.000  0.000  0.000  0.000  0.000  0.000  0.245
tot    0.409  0.041  0.041  0.000  0.000  0.000  0.000  0.000  0.000  0.490

band     2 # energy   -1.97787293 # occ.  2.00000000

ion      s     py     pz     px    dxy    dyz    dz2    dxz  x2-y2    tot
    1  0.204  0.020  0.020  0.000  0.000  0.000  0.000  0.000  0.000  0.245
    2  0.204  0.020  0.020  0.000  0.000  0.000  0.000  0.000  0.000  0.245
tot    0.409  0.041  0.041  0.000  0.000  0.000  0.000  0.000  0.000  0.490

band     3 # energy    1.85323082 # occ.  2.00000000

ion      s     py     pz     px    dxy    dyz    dz2    dxz  x2-y2    tot
    1  0.000  0.045  0.045  0.069  0.000  0.000  0.000  0.000  0.000  0.160
    2  0.000  0.045  0.045  0.069  0.000  0.000  0.000  0.000  0.000  0.160
tot    0.000  0.091  0.091  0.138  0.000  0.000  0.000  0.000  0.000  0.320

band     4 # energy    1.85323086 # occ.  2.00000000

ion      s     py     pz     px    dxy    dyz    dz2    dxz  x2-y2    tot
    1  0.000  0.045  0.045  0.069  0.000  0.000  0.000  0.000  0.000  0.160
    2  0.000  0.045  0.045  0.069  0.000  0.000  0.000  0.000  0.000  0.160
tot    0.000  0.091  0.091  0.138  0.000  0.000  0.000  0.000  0.000  0.320

band     5 # energy    9.88429883 # occ.  0.00000000

ion      s     py     pz     px    dxy    dyz    dz2    dxz  x2-y2    tot
    1  0.000  0.000  0.000  0.066  0.000  0.000  0.000  0.000  0.000  0.066
    2  0.000  0.000  0.000  0.105  0.000  0.000  0.000  0.000  0.000  0.105
tot    0.000  0.000  0.000  0.171  0.000  0.000  0.000  0.000  0.000  0.171

band     6 # energy    9.88429886 # occ.  0.00000000

ion      s     py     pz     px    dxy    dyz    dz2    dxz  x2-y2    tot
    1  0.000  0.000  0.000  0.105  0.000  0.000  0.000  0.000  0.000  0.105
    2  0.000  0.000  0.000  0.066  0.000  0.000  0.000  0.000  0.000  0.066
tot    0.000  0.000  0.000  0.171  0.000  0.000  0.000  0.000  0.000  0.171

band     7 # energy   10.54462509 # occ.  0.00000000

ion      s     py     pz     px    dxy    dyz    dz2    dxz  x2-y2    tot
    1  0.069  0.047  0.047  0.000  0.000  0.000  0.000  0.000  0.000  0.162
    2  0.055  0.059  0.059  0.000  0.000  0.000  0.000  0.000  0.000  0.172
tot    0.123  0.105  0.105  0.000  0.000  0.000  0.000  0.000  0.000  0.334

band     8 # energy   10.54462512 # occ.  0.00000000

ion      s     py     pz     px    dxy    dyz    dz2    dxz  x2-y2    tot
    1  0.055  0.059  0.059  0.000  0.000  0.000  0.000  0.000  0.000  0.172
    2  0.069  0.047  0.047  0.000  0.000  0.000  0.000  0.000  0.000  0.162
tot    0.123  0.105  0.105  0.000  0.000  0.000  0.000  0.000  0.000  0.334


 k-point    81 :    0.50000000 0.25000000 0.75000000     weight = 0.00416667

band     1 # energy   -1.97787296 # occ.  2.00000000

ion      s     py     pz     px    dxy    dyz    dz2    dxz  x2-y2    tot
    1  0.204  0.020  0.020  0.000  0.000  0.000  0.000  0.000  0.000  0.245
    2  0.204  0.020  0.020  0.000  0.000  0.000  0.000  0.000  0.000  0.245
tot    0.409  0.041  0.041  0.000  0.000  0.000  0.000  0.000  0.000  0.490

band     2 # energy   -1.97787293 # occ.  2.00000000

ion      s     py     pz     px    dxy    dyz    dz2    dxz  x2-y2    tot
    1  0.204  0.020  0.020  0.000  0.000  0.000  0.000  0.000  0.000  0.245
    2  0.204  0.020  0.020  0.000  0.000  0.000  0.000  0.000  0.000  0.245
tot    0.409  0.041  0.041  0.000  0.000  0.000  0.000  0.000  0.000  0.490

band     3 # energy    1.85323082 # occ.  2.00000000

ion      s     py     pz     px    dxy    dyz    dz2    dxz  x2-y2    tot
    1  0.000  0.045  0.045  0.069  0.000  0.000  0.000  0.000  0.000  0.160
    2  0.000  0.045  0.045  0.069  0.000  0.000  0.000  0.000  0.000  0.160
tot    0.000  0.091  0.091  0.138  0.000  0.000  0.000  0.000  0.000  0.320

band     4 # energy    1.85323086 # occ.  2.00000000

ion      s     py     pz     px    dxy    dyz    dz2    dxz  x2-y2    tot
    1  0.000  0.045  0.045  0.069  0.000  0.000  0.000  0.000  0.000  0.160
    2  0.000  0.045  0.045  0.069  0.000  0.000  0.000  0.000  0.000  0.160
tot    0.000  0.091  0.091  0.138  0.000  0.000  0.000  0.000  0.000  0.320

band     5 # energy    9.88429882 # occ.  0.00000000

ion      s     py     pz     px    dxy    dyz    dz2    dxz  x2-y2    tot
    1  0.000  0.000  0.000  0.086  0.000  0.000  0.000  0.000  0.000  0.086
    2  0.000  0.000  0.000  0.086  0.000  0.000  0.000  0.000  0.000  0.086
tot    0.000  0.000  0.000  0.171  0.000  0.000  0.000  0.000  0.000  0.171

band     6 # energy    9.88429886 # occ.  0.00000000

ion      s     py     pz     px    dxy    dyz    dz2    dxz  x2-y2    tot
    1  0.000  0.000  0.000  0.086  0.000  0.000  0.000  0.000  0.000  0.086
    2  0.000  0.000  0.000  0.086  0.000  0.000  0.000  0.000  0.000  0.086
tot    0.000  0.000  0.000  0.171  0.000  0.000  0.000  0.000  0.000  0.171

band     7 # energy   10.54462507 # occ.  0.00000000

ion      s     py     pz     px    dxy    dyz    dz2    dxz  x2-y2    tot
    1  0.061  0.053  0.053  0.000  0.000  0.000  0.000  0.000  0.000  0.168
    2  0.062  0.052  0.052  0.000  0.000  0.000  0.000  0.000  0.000  0.167
tot    0.123  0.105  0.105  0.000  0.000  0.000  0.000  0.000  0.000  0.334

band     8 # energy   10.54462510 # occ.  0.00000000

ion      s     py     pz     px    dxy    dyz    dz2    dxz  x2-y2    tot
    1  0.062  0.052  0.052  0.000  0.000  0.000  0.000  0.000  0.000  0.167
    2  0.061  0.053  0.053  0.000  0.000  0.000  0.000  0.000  0.000  0.168
tot    0.123  0.105  0.105  0.000  0.000  0.000  0.000  0.000  0.000  0.334


 k-point    82 :    0.50000000 0.25641026 0.74358974     weight = 0.00416667

band     1 # energy   -2.06029887 # occ.  2.00000000

ion      s     py     pz     px    dxy    dyz    dz2    dxz  x2-y2    tot
    1  0.205  0.020  0.020  0.000  0.000  0.000  0.000  0.000  0.000  0.245
    2  0.205  0.020  0.020  0.000  0.000  0.000  0.000  0.000  0.000  0.245
tot    0.411  0.040  0.040  0.000  0.000  0.000  0.000  0.000  0.000  0.490

band     2 # energy   -1.89616996 # occ.  2.00000000

ion      s     py     pz     px    dxy    dyz    dz2    dxz  x2-y2    tot
    1  0.203  0.021  0.021  0.000  0.000  0.000  0.000  0.000  0.000  0.245
    2  0.203  0.021  0.021  0.000  0.000  0.000  0.000  0.000  0.000  0.245
tot    0.406  0.042  0.042  0.000  0.000  0.000  0.000  0.000  0.000  0.490

band     3 # energy    1.79452183 # occ.  2.00000000

ion      s     py     pz     px    dxy    dyz    dz2    dxz  x2-y2    tot
    1  0.000  0.046  0.046  0.068  0.000  0.000  0.000  0.000  0.000  0.159
    2  0.000  0.046  0.046  0.068  0.000  0.000  0.000  0.000  0.000  0.159
tot    0.000  0.091  0.091  0.135  0.000  0.000  0.000  0.000  0.000  0.318

band     4 # energy    1.91691774 # occ.  2.00000000

ion      s     py     pz     px    dxy    dyz    dz2    dxz  x2-y2    tot
    1  0.000  0.045  0.045  0.070  0.000  0.000  0.000  0.000  0.000  0.161
    2  0.000  0.045  0.045  0.070  0.000  0.000  0.000  0.000  0.000  0.161
tot    0.000  0.090  0.090  0.140  0.000  0.000  0.000  0.000  0.000  0.321

band     5 # energy    9.81579908 # occ.  0.00000000

ion      s     py     pz     px    dxy    dyz    dz2    dxz  x2-y2    tot
    1  0.001  0.001  0.001  0.084  0.000  0.000  0.000  0.000  0.000  0.086
    2  0.001  0.001  0.001  0.084  0.000  0.000  0.000  0.000  0.000  0.086
tot    0.001  0.001  0.001  0.168  0.000  0.000  0.000  0.000  0.000  0.172

band     6 # energy    9.93367199 # occ.  0.00000000

ion      s     py     pz     px    dxy    dyz    dz2    dxz  x2-y2    tot
    1  0.002  0.001  0.001  0.084  0.000  0.000  0.000  0.000  0.000  0.088
    2  0.002  0.001  0.001  0.084  0.000  0.000  0.000  0.000  0.000  0.088
tot    0.003  0.003  0.003  0.167  0.000  0.000  0.000  0.000  0.000  0.176

band     7 # energy   10.49013219 # occ.  0.00000000

ion      s     py     pz     px    dxy    dyz    dz2    dxz  x2-y2    tot
    1  0.061  0.051  0.051  0.002  0.000  0.000  0.000  0.000  0.000  0.165
    2  0.061  0.051  0.051  0.002  0.000  0.000  0.000  0.000  0.000  0.165
tot    0.123  0.101  0.101  0.004  0.000  0.000  0.000  0.000  0.000  0.330

band     8 # energy   10.62408464 # occ.  0.00000000

ion      s     py     pz     px    dxy    dyz    dz2    dxz  x2-y2    tot
    1  0.059  0.053  0.053  0.001  0.000  0.000  0.000  0.000  0.000  0.166
    2  0.059  0.053  0.053  0.001  0.000  0.000  0.000  0.000  0.000  0.166
tot    0.119  0.106  0.106  0.002  0.000  0.000  0.000  0.000  0.000  0.333


 k-point    83 :    0.50000000 0.26282051 0.73717949     weight = 0.00416667

band     1 # energy   -2.14303754 # occ.  2.00000000

ion      s     py     pz     px    dxy    dyz    dz2    dxz  x2-y2    tot
    1  0.206  0.019  0.019  0.000  0.000  0.000  0.000  0.000  0.000  0.245
    2  0.206  0.019  0.019  0.000  0.000  0.000  0.000  0.000  0.000  0.245
tot    0.413  0.038  0.038  0.000  0.000  0.000  0.000  0.000  0.000  0.489

band     2 # energy   -1.81563394 # occ.  2.00000000

ion      s     py     pz     px    dxy    dyz    dz2    dxz  x2-y2    tot
    1  0.202  0.022  0.022  0.000  0.000  0.000  0.000  0.000  0.000  0.245
    2  0.202  0.022  0.022  0.000  0.000  0.000  0.000  0.000  0.000  0.245
tot    0.403  0.043  0.043  0.000  0.000  0.000  0.000  0.000  0.000  0.490

band     3 # energy    1.74132011 # occ.  2.00000000

ion      s     py     pz     px    dxy    dyz    dz2    dxz  x2-y2    tot
    1  0.000  0.046  0.046  0.066  0.000  0.000  0.000  0.000  0.000  0.158
    2  0.000  0.046  0.046  0.066  0.000  0.000  0.000  0.000  0.000  0.158
tot    0.000  0.092  0.092  0.133  0.000  0.000  0.000  0.000  0.000  0.317

band     4 # energy    1.98509595 # occ.  2.00000000

ion      s     py     pz     px    dxy    dyz    dz2    dxz  x2-y2    tot
    1  0.000  0.045  0.045  0.071  0.000  0.000  0.000  0.000  0.000  0.162
    2  0.000  0.045  0.045  0.071  0.000  0.000  0.000  0.000  0.000  0.162
tot    0.000  0.090  0.090  0.143  0.000  0.000  0.000  0.000  0.000  0.323

band     5 # energy    9.73856746 # occ.  0.00000000

ion      s     py     pz     px    dxy    dyz    dz2    dxz  x2-y2    tot
    1  0.002  0.002  0.002  0.082  0.000  0.000  0.000  0.000  0.000  0.088
    2  0.002  0.002  0.002  0.082  0.000  0.000  0.000  0.000  0.000  0.088
tot    0.004  0.004  0.004  0.164  0.000  0.000  0.000  0.000  0.000  0.175

band     6 # energy    9.94964505 # occ.  0.00000000

ion      s     py     pz     px    dxy    dyz    dz2    dxz  x2-y2    tot
    1  0.008  0.007  0.007  0.075  0.000  0.000  0.000  0.000  0.000  0.097
    2  0.008  0.007  0.007  0.075  0.000  0.000  0.000  0.000  0.000  0.097
tot    0.017  0.013  0.013  0.151  0.000  0.000  0.000  0.000  0.000  0.193

band     7 # energy   10.47492991 # occ.  0.00000000

ion      s     py     pz     px    dxy    dyz    dz2    dxz  x2-y2    tot
    1  0.056  0.045  0.045  0.011  0.000  0.000  0.000  0.000  0.000  0.156
    2  0.056  0.045  0.045  0.011  0.000  0.000  0.000  0.000  0.000  0.156
tot    0.112  0.089  0.089  0.022  0.000  0.000  0.000  0.000  0.000  0.313

band     8 # energy   10.71820593 # occ.  0.00000000

ion      s     py     pz     px    dxy    dyz    dz2    dxz  x2-y2    tot
    1  0.057  0.053  0.053  0.003  0.000  0.000  0.000  0.000  0.000  0.165
    2  0.057  0.053  0.053  0.003  0.000  0.000  0.000  0.000  0.000  0.165
tot    0.114  0.105  0.105  0.006  0.000  0.000  0.000  0.000  0.000  0.330


 k-point    84 :    0.50000000 0.26923077 0.73076923     weight = 0.00416667

band     1 # energy   -2.22572910 # occ.  2.00000000

ion      s     py     pz     px    dxy    dyz    dz2    dxz  x2-y2    tot
    1  0.207  0.018  0.018  0.000  0.000  0.000  0.000  0.000  0.000  0.244
    2  0.207  0.018  0.018  0.000  0.000  0.000  0.000  0.000  0.000  0.244
tot    0.415  0.037  0.037  0.000  0.000  0.000  0.000  0.000  0.000  0.489

band     2 # energy   -1.73678450 # occ.  2.00000000

ion      s     py     pz     px    dxy    dyz    dz2    dxz  x2-y2    tot
    1  0.200  0.022  0.022  0.000  0.000  0.000  0.000  0.000  0.000  0.245
    2  0.200  0.022  0.022  0.000  0.000  0.000  0.000  0.000  0.000  0.245
tot    0.400  0.045  0.045  0.001  0.000  0.000  0.000  0.000  0.000  0.490

band     3 # energy    1.69419128 # occ.  2.00000000

ion      s     py     pz     px    dxy    dyz    dz2    dxz  x2-y2    tot
    1  0.000  0.046  0.046  0.065  0.000  0.000  0.000  0.000  0.000  0.158
    2  0.000  0.046  0.046  0.065  0.000  0.000  0.000  0.000  0.000  0.158
tot    0.001  0.092  0.092  0.130  0.000  0.000  0.000  0.000  0.000  0.316

band     4 # energy    2.05730066 # occ.  2.00000000

ion      s     py     pz     px    dxy    dyz    dz2    dxz  x2-y2    tot
    1  0.000  0.045  0.045  0.073  0.000  0.000  0.000  0.000  0.000  0.163
    2  0.000  0.045  0.045  0.073  0.000  0.000  0.000  0.000  0.000  0.163
tot    0.000  0.090  0.090  0.145  0.000  0.000  0.000  0.000  0.000  0.326

band     5 # energy    9.65818972 # occ.  0.00000000

ion      s     py     pz     px    dxy    dyz    dz2    dxz  x2-y2    tot
    1  0.003  0.003  0.003  0.080  0.000  0.000  0.000  0.000  0.000  0.089
    2  0.003  0.003  0.003  0.079  0.000  0.000  0.000  0.000  0.000  0.089
tot    0.007  0.006  0.006  0.159  0.000  0.000  0.000  0.000  0.000  0.178

band     6 # energy    9.92544602 # occ.  0.00000000

ion      s     py     pz     px    dxy    dyz    dz2    dxz  x2-y2    tot
    1  0.019  0.014  0.014  0.062  0.000  0.000  0.000  0.000  0.000  0.109
    2  0.019  0.014  0.014  0.062  0.000  0.000  0.000  0.000  0.000  0.109
tot    0.038  0.029  0.029  0.124  0.000  0.000  0.000  0.000  0.000  0.219

band     7 # energy   10.50565677 # occ.  0.00000000

ion      s     py     pz     px    dxy    dyz    dz2    dxz  x2-y2    tot
    1  0.047  0.036  0.036  0.024  0.000  0.000  0.000  0.000  0.000  0.144
    2  0.047  0.036  0.036  0.024  0.000  0.000  0.000  0.000  0.000  0.144
tot    0.094  0.072  0.072  0.048  0.000  0.000  0.000  0.000  0.000  0.287

band     8 # energy   10.82136933 # occ.  0.00000000

ion      s     py     pz     px    dxy    dyz    dz2    dxz  x2-y2    tot
    1  0.054  0.052  0.052  0.005  0.000  0.000  0.000  0.000  0.000  0.163
    2  0.054  0.052  0.052  0.005  0.000  0.000  0.000  0.000  0.000  0.163
tot    0.108  0.105  0.105  0.009  0.000  0.000  0.000  0.000  0.000  0.327


 k-point    85 :    0.50000000 0.27564103 0.72435897     weight = 0.00416667

band     1 # energy   -2.30805121 # occ.  2.00000000

ion      s     py     pz     px    dxy    dyz    dz2    dxz  x2-y2    tot
    1  0.208  0.018  0.018  0.000  0.000  0.000  0.000  0.000  0.000  0.244
    2  0.208  0.018  0.018  0.000  0.000  0.000  0.000  0.000  0.000  0.244
tot    0.416  0.036  0.036  0.001  0.000  0.000  0.000  0.000  0.000  0.488

band     2 # energy   -1.66016807 # occ.  2.00000000

ion      s     py     pz     px    dxy    dyz    dz2    dxz  x2-y2    tot
    1  0.198  0.023  0.023  0.001  0.000  0.000  0.000  0.000  0.000  0.245
    2  0.198  0.023  0.023  0.001  0.000  0.000  0.000  0.000  0.000  0.245
tot    0.397  0.046  0.046  0.001  0.000  0.000  0.000  0.000  0.000  0.490

band     3 # energy    1.65373494 # occ.  2.00000000

ion      s     py     pz     px    dxy    dyz    dz2    dxz  x2-y2    tot
    1  0.001  0.046  0.046  0.064  0.000  0.000  0.000  0.000  0.000  0.158
    2  0.001  0.046  0.046  0.064  0.000  0.000  0.000  0.000  0.000  0.158
tot    0.002  0.093  0.093  0.127  0.000  0.000  0.000  0.000  0.000  0.315

band     4 # energy    2.13310965 # occ.  2.00000000

ion      s     py     pz     px    dxy    dyz    dz2    dxz  x2-y2    tot
    1  0.000  0.045  0.045  0.074  0.000  0.000  0.000  0.000  0.000  0.164
    2  0.000  0.045  0.045  0.074  0.000  0.000  0.000  0.000  0.000  0.164
tot    0.001  0.090  0.090  0.148  0.000  0.000  0.000  0.000  0.000  0.328

band     5 # energy    9.57753982 # occ.  0.00000000

ion      s     py     pz     px    dxy    dyz    dz2    dxz  x2-y2    tot
    1  0.004  0.004  0.004  0.077  0.000  0.000  0.000  0.000  0.000  0.090
    2  0.004  0.004  0.004  0.077  0.000  0.000  0.000  0.000  0.000  0.090
tot    0.009  0.008  0.008  0.155  0.000  0.000  0.000  0.000  0.000  0.180

band     6 # energy    9.87049368 # occ.  0.00000000

ion      s     py     pz     px    dxy    dyz    dz2    dxz  x2-y2    tot
    1  0.029  0.021  0.021  0.050  0.000  0.000  0.000  0.000  0.000  0.121
    2  0.029  0.021  0.021  0.050  0.000  0.000  0.000  0.000  0.000  0.121
tot    0.057  0.042  0.042  0.101  0.000  0.000  0.000  0.000  0.000  0.242

band     7 # energy   10.57280375 # occ.  0.00000000

ion      s     py     pz     px    dxy    dyz    dz2    dxz  x2-y2    tot
    1  0.039  0.029  0.029  0.036  0.000  0.000  0.000  0.000  0.000  0.132
    2  0.039  0.029  0.029  0.036  0.000  0.000  0.000  0.000  0.000  0.132
tot    0.077  0.058  0.058  0.072  0.000  0.000  0.000  0.000  0.000  0.265

band     8 # energy   10.93063774 # occ.  0.00000000

ion      s     py     pz     px    dxy    dyz    dz2    dxz  x2-y2    tot
    1  0.052  0.052  0.052  0.006  0.000  0.000  0.000  0.000  0.000  0.162
    2  0.052  0.052  0.052  0.006  0.000  0.000  0.000  0.000  0.000  0.162
tot    0.103  0.104  0.104  0.012  0.000  0.000  0.000  0.000  0.000  0.324


 k-point    86 :    0.50000000 0.28205128 0.71794872     weight = 0.00416667

band     1 # energy   -2.38971834 # occ.  2.00000000

ion      s     py     pz     px    dxy    dyz    dz2    dxz  x2-y2    tot
    1  0.209  0.017  0.017  0.000  0.000  0.000  0.000  0.000  0.000  0.244
    2  0.209  0.017  0.017  0.000  0.000  0.000  0.000  0.000  0.000  0.244
tot    0.418  0.034  0.034  0.001  0.000  0.000  0.000  0.000  0.000  0.488

band     2 # energy   -1.58636640 # occ.  2.00000000

ion      s     py     pz     px    dxy    dyz    dz2    dxz  x2-y2    tot
    1  0.196  0.024  0.024  0.001  0.000  0.000  0.000  0.000  0.000  0.244
    2  0.196  0.024  0.024  0.001  0.000  0.000  0.000  0.000  0.000  0.244
tot    0.393  0.047  0.047  0.002  0.000  0.000  0.000  0.000  0.000  0.489

band     3 # energy    1.62058676 # occ.  2.00000000

ion      s     py     pz     px    dxy    dyz    dz2    dxz  x2-y2    tot
    1  0.002  0.047  0.047  0.062  0.000  0.000  0.000  0.000  0.000  0.157
    2  0.002  0.047  0.047  0.062  0.000  0.000  0.000  0.000  0.000  0.157
tot    0.003  0.094  0.094  0.124  0.000  0.000  0.000  0.000  0.000  0.315

band     4 # energy    2.21212401 # occ.  2.00000000

ion      s     py     pz     px    dxy    dyz    dz2    dxz  x2-y2    tot
    1  0.001  0.045  0.045  0.075  0.000  0.000  0.000  0.000  0.000  0.165
    2  0.001  0.045  0.045  0.075  0.000  0.000  0.000  0.000  0.000  0.165
tot    0.001  0.089  0.089  0.151  0.000  0.000  0.000  0.000  0.000  0.331

band     5 # energy    9.49822594 # occ.  0.00000000

ion      s     py     pz     px    dxy    dyz    dz2    dxz  x2-y2    tot
    1  0.005  0.005  0.005  0.075  0.000  0.000  0.000  0.000  0.000  0.091
    2  0.005  0.005  0.005  0.075  0.000  0.000  0.000  0.000  0.000  0.091
tot    0.010  0.011  0.011  0.150  0.000  0.000  0.000  0.000  0.000  0.182

band     6 # energy    9.79839170 # occ.  0.00000000

ion      s     py     pz     px    dxy    dyz    dz2    dxz  x2-y2    tot
    1  0.036  0.026  0.026  0.042  0.000  0.000  0.000  0.000  0.000  0.129
    2  0.036  0.026  0.026  0.042  0.000  0.000  0.000  0.000  0.000  0.129
tot    0.072  0.051  0.051  0.084  0.000  0.000  0.000  0.000  0.000  0.258

band     7 # energy   10.66280792 # occ.  0.00000000

ion      s     py     pz     px    dxy    dyz    dz2    dxz  x2-y2    tot
    1  0.033  0.024  0.024  0.045  0.000  0.000  0.000  0.000  0.000  0.124
    2  0.033  0.024  0.024  0.045  0.000  0.000  0.000  0.000  0.000  0.124
tot    0.065  0.047  0.047  0.089  0.000  0.000  0.000  0.000  0.000  0.249

band     8 # energy   11.04449815 # occ.  0.00000000

ion      s     py     pz     px    dxy    dyz    dz2    dxz  x2-y2    tot
    1  0.049  0.052  0.052  0.007  0.000  0.000  0.000  0.000  0.000  0.161
    2  0.049  0.052  0.052  0.007  0.000  0.000  0.000  0.000  0.000  0.161
tot    0.098  0.104  0.104  0.015  0.000  0.000  0.000  0.000  0.000  0.322


 k-point    87 :    0.50000000 0.28846154 0.71153846     weight = 0.00416667

band     1 # energy   -2.47047968 # occ.  2.00000000

ion      s     py     pz     px    dxy    dyz    dz2    dxz  x2-y2    tot
    1  0.210  0.017  0.017  0.001  0.000  0.000  0.000  0.000  0.000  0.243
    2  0.210  0.017  0.017  0.001  0.000  0.000  0.000  0.000  0.000  0.243
tot    0.420  0.033  0.033  0.001  0.000  0.000  0.000  0.000  0.000  0.487

band     2 # energy   -1.51599341 # occ.  2.00000000

ion      s     py     pz     px    dxy    dyz    dz2    dxz  x2-y2    tot
    1  0.194  0.024  0.024  0.002  0.000  0.000  0.000  0.000  0.000  0.244
    2  0.194  0.024  0.024  0.002  0.000  0.000  0.000  0.000  0.000  0.244
tot    0.388  0.048  0.048  0.003  0.000  0.000  0.000  0.000  0.000  0.487

band     3 # energy    1.59539836 # occ.  2.00000000

ion      s     py     pz     px    dxy    dyz    dz2    dxz  x2-y2    tot
    1  0.003  0.047  0.047  0.061  0.000  0.000  0.000  0.000  0.000  0.158
    2  0.003  0.047  0.047  0.061  0.000  0.000  0.000  0.000  0.000  0.158
tot    0.005  0.094  0.094  0.121  0.000  0.000  0.000  0.000  0.000  0.315

band     4 # energy    2.29396591 # occ.  2.00000000

ion      s     py     pz     px    dxy    dyz    dz2    dxz  x2-y2    tot
    1  0.001  0.045  0.045  0.077  0.000  0.000  0.000  0.000  0.000  0.167
    2  0.001  0.045  0.045  0.077  0.000  0.000  0.000  0.000  0.000  0.167
tot    0.001  0.089  0.089  0.154  0.000  0.000  0.000  0.000  0.000  0.334

band     5 # energy    9.42118040 # occ.  0.00000000

ion      s     py     pz     px    dxy    dyz    dz2    dxz  x2-y2    tot
    1  0.006  0.006  0.006  0.073  0.000  0.000  0.000  0.000  0.000  0.092
    2  0.006  0.006  0.006  0.073  0.000  0.000  0.000  0.000  0.000  0.092
tot    0.012  0.012  0.012  0.146  0.000  0.000  0.000  0.000  0.000  0.183

band     6 # energy    9.71797762 # occ.  0.00000000

ion      s     py     pz     px    dxy    dyz    dz2    dxz  x2-y2    tot
    1  0.042  0.028  0.028  0.036  0.000  0.000  0.000  0.000  0.000  0.135
    2  0.042  0.028  0.028  0.036  0.000  0.000  0.000  0.000  0.000  0.135
tot    0.083  0.057  0.057  0.072  0.000  0.000  0.000  0.000  0.000  0.269

band     7 # energy   10.76677475 # occ.  0.00000000

ion      s     py     pz     px    dxy    dyz    dz2    dxz  x2-y2    tot
    1  0.028  0.020  0.020  0.050  0.000  0.000  0.000  0.000  0.000  0.119
    2  0.028  0.020  0.020  0.050  0.000  0.000  0.000  0.000  0.000  0.119
tot    0.057  0.040  0.040  0.101  0.000  0.000  0.000  0.000  0.000  0.238

band     8 # energy   11.16202453 # occ.  0.00000000

ion      s     py     pz     px    dxy    dyz    dz2    dxz  x2-y2    tot
    1  0.047  0.052  0.052  0.009  0.000  0.000  0.000  0.000  0.000  0.160
    2  0.047  0.052  0.052  0.009  0.000  0.000  0.000  0.000  0.000  0.160
tot    0.094  0.104  0.104  0.017  0.000  0.000  0.000  0.000  0.000  0.320


 k-point    88 :    0.50000000 0.29487179 0.70512821     weight = 0.00416667

band     1 # energy   -2.55011488 # occ.  2.00000000

ion      s     py     pz     px    dxy    dyz    dz2    dxz  x2-y2    tot
    1  0.211  0.016  0.016  0.001  0.000  0.000  0.000  0.000  0.000  0.243
    2  0.211  0.016  0.016  0.001  0.000  0.000  0.000  0.000  0.000  0.243
tot    0.421  0.032  0.032  0.002  0.000  0.000  0.000  0.000  0.000  0.486

band     2 # energy   -1.44967346 # occ.  2.00000000

ion      s     py     pz     px    dxy    dyz    dz2    dxz  x2-y2    tot
    1  0.191  0.025  0.025  0.002  0.000  0.000  0.000  0.000  0.000  0.243
    2  0.191  0.025  0.025  0.002  0.000  0.000  0.000  0.000  0.000  0.243
tot    0.382  0.049  0.049  0.005  0.000  0.000  0.000  0.000  0.000  0.486

band     3 # energy    1.57882212 # occ.  2.00000000

ion      s     py     pz     px    dxy    dyz    dz2    dxz  x2-y2    tot
    1  0.004  0.048  0.048  0.059  0.000  0.000  0.000  0.000  0.000  0.158
    2  0.004  0.048  0.048  0.059  0.000  0.000  0.000  0.000  0.000  0.158
tot    0.008  0.095  0.095  0.118  0.000  0.000  0.000  0.000  0.000  0.316

band     4 # energy    2.37827516 # occ.  2.00000000

ion      s     py     pz     px    dxy    dyz    dz2    dxz  x2-y2    tot
    1  0.001  0.045  0.045  0.078  0.000  0.000  0.000  0.000  0.000  0.168
    2  0.001  0.045  0.045  0.078  0.000  0.000  0.000  0.000  0.000  0.168
tot    0.002  0.089  0.089  0.157  0.000  0.000  0.000  0.000  0.000  0.337

band     5 # energy    9.34694396 # occ.  0.00000000

ion      s     py     pz     px    dxy    dyz    dz2    dxz  x2-y2    tot
    1  0.006  0.007  0.007  0.071  0.000  0.000  0.000  0.000  0.000  0.092
    2  0.006  0.007  0.007  0.071  0.000  0.000  0.000  0.000  0.000  0.092
tot    0.013  0.014  0.014  0.143  0.000  0.000  0.000  0.000  0.000  0.184

band     6 # energy    9.63387649 # occ.  0.00000000

ion      s     py     pz     px    dxy    dyz    dz2    dxz  x2-y2    tot
    1  0.046  0.030  0.030  0.032  0.000  0.000  0.000  0.000  0.000  0.139
    2  0.046  0.030  0.030  0.032  0.000  0.000  0.000  0.000  0.000  0.139
tot    0.092  0.061  0.061  0.064  0.000  0.000  0.000  0.000  0.000  0.277

band     7 # energy   10.88001171 # occ.  0.00000000

ion      s     py     pz     px    dxy    dyz    dz2    dxz  x2-y2    tot
    1  0.026  0.018  0.018  0.054  0.000  0.000  0.000  0.000  0.000  0.115
    2  0.026  0.018  0.018  0.054  0.000  0.000  0.000  0.000  0.000  0.115
tot    0.051  0.035  0.035  0.109  0.000  0.000  0.000  0.000  0.000  0.230

band     8 # energy   11.28261585 # occ.  0.00000000

ion      s     py     pz     px    dxy    dyz    dz2    dxz  x2-y2    tot
    1  0.045  0.052  0.052  0.009  0.000  0.000  0.000  0.000  0.000  0.159
    2  0.045  0.052  0.052  0.009  0.000  0.000  0.000  0.000  0.000  0.159
tot    0.090  0.105  0.105  0.019  0.000  0.000  0.000  0.000  0.000  0.318


 k-point    89 :    0.50000000 0.30128205 0.69871795     weight = 0.00416667

band     1 # energy   -2.62843061 # occ.  2.00000000

ion      s     py     pz     px    dxy    dyz    dz2    dxz  x2-y2    tot
    1  0.211  0.015  0.015  0.001  0.000  0.000  0.000  0.000  0.000  0.243
    2  0.211  0.015  0.015  0.001  0.000  0.000  0.000  0.000  0.000  0.243
tot    0.423  0.030  0.030  0.002  0.000  0.000  0.000  0.000  0.000  0.486

band     2 # energy   -1.38801742 # occ.  2.00000000

ion      s     py     pz     px    dxy    dyz    dz2    dxz  x2-y2    tot
    1  0.188  0.025  0.025  0.003  0.000  0.000  0.000  0.000  0.000  0.242
    2  0.188  0.025  0.025  0.003  0.000  0.000  0.000  0.000  0.000  0.242
tot    0.376  0.050  0.050  0.006  0.000  0.000  0.000  0.000  0.000  0.483

band     3 # energy    1.57148114 # occ.  2.00000000

ion      s     py     pz     px    dxy    dyz    dz2    dxz  x2-y2    tot
    1  0.005  0.048  0.048  0.057  0.000  0.000  0.000  0.000  0.000  0.159
    2  0.005  0.048  0.048  0.057  0.000  0.000  0.000  0.000  0.000  0.159
tot    0.011  0.096  0.096  0.114  0.000  0.000  0.000  0.000  0.000  0.318

band     4 # energy    2.46470167 # occ.  2.00000000

ion      s     py     pz     px    dxy    dyz    dz2    dxz  x2-y2    tot
    1  0.001  0.044  0.044  0.080  0.000  0.000  0.000  0.000  0.000  0.170
    2  0.001  0.044  0.044  0.080  0.000  0.000  0.000  0.000  0.000  0.170
tot    0.002  0.089  0.089  0.160  0.000  0.000  0.000  0.000  0.000  0.340

band     5 # energy    9.27601651 # occ.  0.00000000

ion      s     py     pz     px    dxy    dyz    dz2    dxz  x2-y2    tot
    1  0.007  0.008  0.008  0.069  0.000  0.000  0.000  0.000  0.000  0.093
    2  0.007  0.008  0.008  0.069  0.000  0.000  0.000  0.000  0.000  0.093
tot    0.014  0.016  0.016  0.139  0.000  0.000  0.000  0.000  0.000  0.185

band     6 # energy    9.54845872 # occ.  0.00000000

ion      s     py     pz     px    dxy    dyz    dz2    dxz  x2-y2    tot
    1  0.050  0.032  0.032  0.029  0.000  0.000  0.000  0.000  0.000  0.141
    2  0.050  0.032  0.032  0.029  0.000  0.000  0.000  0.000  0.000  0.141
tot    0.099  0.063  0.063  0.058  0.000  0.000  0.000  0.000  0.000  0.283

band     7 # energy   11.00008147 # occ.  0.00000000

ion      s     py     pz     px    dxy    dyz    dz2    dxz  x2-y2    tot
    1  0.024  0.016  0.016  0.057  0.000  0.000  0.000  0.000  0.000  0.112
    2  0.024  0.016  0.016  0.057  0.000  0.000  0.000  0.000  0.000  0.112
tot    0.047  0.032  0.032  0.114  0.000  0.000  0.000  0.000  0.000  0.225

band     8 # energy   11.40587920 # occ.  0.00000000

ion      s     py     pz     px    dxy    dyz    dz2    dxz  x2-y2    tot
    1  0.043  0.053  0.053  0.010  0.000  0.000  0.000  0.000  0.000  0.158
    2  0.043  0.053  0.053  0.010  0.000  0.000  0.000  0.000  0.000  0.158
tot    0.086  0.105  0.105  0.021  0.000  0.000  0.000  0.000  0.000  0.317


 k-point    90 :    0.50000000 0.30769231 0.69230769     weight = 0.00416667

band     1 # energy   -2.70525680 # occ.  2.00000000

ion      s     py     pz     px    dxy    dyz    dz2    dxz  x2-y2    tot
    1  0.212  0.015  0.015  0.001  0.000  0.000  0.000  0.000  0.000  0.242
    2  0.212  0.015  0.015  0.001  0.000  0.000  0.000  0.000  0.000  0.242
tot    0.424  0.029  0.029  0.002  0.000  0.000  0.000  0.000  0.000  0.485

band     2 # energy   -1.33158925 # occ.  2.00000000

ion      s     py     pz     px    dxy    dyz    dz2    dxz  x2-y2    tot
    1  0.185  0.026  0.026  0.004  0.000  0.000  0.000  0.000  0.000  0.240
    2  0.185  0.026  0.026  0.004  0.000  0.000  0.000  0.000  0.000  0.240
tot    0.369  0.051  0.051  0.008  0.000  0.000  0.000  0.000  0.000  0.480

band     3 # energy    1.57395968 # occ.  2.00000000

ion      s     py     pz     px    dxy    dyz    dz2    dxz  x2-y2    tot
    1  0.007  0.049  0.049  0.055  0.000  0.000  0.000  0.000  0.000  0.160
    2  0.007  0.049  0.049  0.055  0.000  0.000  0.000  0.000  0.000  0.160
tot    0.015  0.098  0.098  0.110  0.000  0.000  0.000  0.000  0.000  0.320

band     4 # energy    2.55291044 # occ.  2.00000000

ion      s     py     pz     px    dxy    dyz    dz2    dxz  x2-y2    tot
    1  0.001  0.044  0.044  0.082  0.000  0.000  0.000  0.000  0.000  0.171
    2  0.001  0.044  0.044  0.082  0.000  0.000  0.000  0.000  0.000  0.171
tot    0.002  0.089  0.089  0.163  0.000  0.000  0.000  0.000  0.000  0.343

band     5 # energy    9.20866927 # occ.  0.00000000

ion      s     py     pz     px    dxy    dyz    dz2    dxz  x2-y2    tot
    1  0.007  0.009  0.009  0.068  0.000  0.000  0.000  0.000  0.000  0.093
    2  0.007  0.009  0.009  0.068  0.000  0.000  0.000  0.000  0.000  0.093
tot    0.015  0.018  0.018  0.135  0.000  0.000  0.000  0.000  0.000  0.185

band     6 # energy    9.46303155 # occ.  0.00000000

ion      s     py     pz     px    dxy    dyz    dz2    dxz  x2-y2    tot
    1  0.053  0.032  0.032  0.027  0.000  0.000  0.000  0.000  0.000  0.144
    2  0.053  0.032  0.032  0.027  0.000  0.000  0.000  0.000  0.000  0.144
tot    0.105  0.065  0.065  0.053  0.000  0.000  0.000  0.000  0.000  0.288

band     7 # energy   11.12573666 # occ.  0.00000000

ion      s     py     pz     px    dxy    dyz    dz2    dxz  x2-y2    tot
    1  0.022  0.014  0.014  0.059  0.000  0.000  0.000  0.000  0.000  0.110
    2  0.022  0.014  0.014  0.059  0.000  0.000  0.000  0.000  0.000  0.110
tot    0.044  0.029  0.029  0.119  0.000  0.000  0.000  0.000  0.000  0.221

band     8 # energy   11.53149753 # occ.  0.00000000

ion      s     py     pz     px    dxy    dyz    dz2    dxz  x2-y2    tot
    1  0.041  0.053  0.053  0.011  0.000  0.000  0.000  0.000  0.000  0.158
    2  0.041  0.053  0.053  0.011  0.000  0.000  0.000  0.000  0.000  0.158
tot    0.082  0.106  0.106  0.022  0.000  0.000  0.000  0.000  0.000  0.315


 k-point    91 :    0.50000000 0.31410256 0.68589744     weight = 0.00416667

band     1 # energy   -2.78043449 # occ.  2.00000000

ion      s     py     pz     px    dxy    dyz    dz2    dxz  x2-y2    tot
    1  0.213  0.014  0.014  0.001  0.000  0.000  0.000  0.000  0.000  0.242
    2  0.213  0.014  0.014  0.001  0.000  0.000  0.000  0.000  0.000  0.242
tot    0.425  0.028  0.028  0.003  0.000  0.000  0.000  0.000  0.000  0.484

band     2 # energy   -1.28086519 # occ.  2.00000000

ion      s     py     pz     px    dxy    dyz    dz2    dxz  x2-y2    tot
    1  0.181  0.026  0.026  0.005  0.000  0.000  0.000  0.000  0.000  0.238
    2  0.181  0.026  0.026  0.005  0.000  0.000  0.000  0.000  0.000  0.238
tot    0.361  0.052  0.052  0.011  0.000  0.000  0.000  0.000  0.000  0.477

band     3 # energy    1.58674079 # occ.  2.00000000

ion      s     py     pz     px    dxy    dyz    dz2    dxz  x2-y2    tot
    1  0.010  0.049  0.049  0.053  0.000  0.000  0.000  0.000  0.000  0.162
    2  0.010  0.049  0.049  0.053  0.000  0.000  0.000  0.000  0.000  0.162
tot    0.019  0.099  0.099  0.106  0.000  0.000  0.000  0.000  0.000  0.323

band     4 # energy    2.64257620 # occ.  2.00000000

ion      s     py     pz     px    dxy    dyz    dz2    dxz  x2-y2    tot
    1  0.001  0.044  0.044  0.083  0.000  0.000  0.000  0.000  0.000  0.173
    2  0.001  0.044  0.044  0.083  0.000  0.000  0.000  0.000  0.000  0.173
tot    0.002  0.089  0.089  0.167  0.000  0.000  0.000  0.000  0.000  0.346

band     5 # energy    9.14516142 # occ.  0.00000000

ion      s     py     pz     px    dxy    dyz    dz2    dxz  x2-y2    tot
    1  0.008  0.010  0.010  0.066  0.000  0.000  0.000  0.000  0.000  0.093
    2  0.008  0.010  0.010  0.066  0.000  0.000  0.000  0.000  0.000  0.093
tot    0.015  0.020  0.020  0.131  0.000  0.000  0.000  0.000  0.000  0.186

band     6 # energy    9.37827711 # occ.  0.00000000

ion      s     py     pz     px    dxy    dyz    dz2    dxz  x2-y2    tot
    1  0.055  0.033  0.033  0.025  0.000  0.000  0.000  0.000  0.000  0.146
    2  0.055  0.033  0.033  0.025  0.000  0.000  0.000  0.000  0.000  0.146
tot    0.111  0.066  0.066  0.049  0.000  0.000  0.000  0.000  0.000  0.292

band     7 # energy   11.25601352 # occ.  0.00000000

ion      s     py     pz     px    dxy    dyz    dz2    dxz  x2-y2    tot
    1  0.021  0.013  0.013  0.061  0.000  0.000  0.000  0.000  0.000  0.109
    2  0.021  0.013  0.013  0.061  0.000  0.000  0.000  0.000  0.000  0.109
tot    0.042  0.027  0.027  0.122  0.000  0.000  0.000  0.000  0.000  0.217

band     8 # energy   11.65918301 # occ.  0.00000000

ion      s     py     pz     px    dxy    dyz    dz2    dxz  x2-y2    tot
    1  0.039  0.053  0.053  0.012  0.000  0.000  0.000  0.000  0.000  0.157
    2  0.039  0.053  0.053  0.012  0.000  0.000  0.000  0.000  0.000  0.157
tot    0.078  0.107  0.106  0.023  0.000  0.000  0.000  0.000  0.000  0.314


 k-point    92 :    0.50000000 0.32051282 0.67948718     weight = 0.00416667

band     1 # energy   -2.85383437 # occ.  2.00000000

ion      s     py     pz     px    dxy    dyz    dz2    dxz  x2-y2    tot
    1  0.213  0.013  0.013  0.002  0.000  0.000  0.000  0.000  0.000  0.242
    2  0.213  0.013  0.013  0.002  0.000  0.000  0.000  0.000  0.000  0.242
tot    0.427  0.027  0.027  0.003  0.000  0.000  0.000  0.000  0.000  0.483

band     2 # energy   -1.23621204 # occ.  2.00000000

ion      s     py     pz     px    dxy    dyz    dz2    dxz  x2-y2    tot
    1  0.176  0.027  0.027  0.007  0.000  0.000  0.000  0.000  0.000  0.236
    2  0.176  0.027  0.027  0.007  0.000  0.000  0.000  0.000  0.000  0.236
tot    0.353  0.053  0.053  0.013  0.000  0.000  0.000  0.000  0.000  0.472

band     3 # energy    1.61018784 # occ.  2.00000000

ion      s     py     pz     px    dxy    dyz    dz2    dxz  x2-y2    tot
    1  0.012  0.050  0.050  0.051  0.000  0.000  0.000  0.000  0.000  0.163
    2  0.012  0.050  0.050  0.051  0.000  0.000  0.000  0.000  0.000  0.163
tot    0.025  0.100  0.100  0.102  0.000  0.000  0.000  0.000  0.000  0.327

band     4 # energy    2.73335769 # occ.  2.00000000

ion      s     py     pz     px    dxy    dyz    dz2    dxz  x2-y2    tot
    1  0.001  0.044  0.044  0.085  0.000  0.000  0.000  0.000  0.000  0.175
    2  0.001  0.044  0.044  0.085  0.000  0.000  0.000  0.000  0.000  0.175
tot    0.002  0.088  0.088  0.170  0.000  0.000  0.000  0.000  0.000  0.349

band     5 # energy    9.08561585 # occ.  0.00000000

ion      s     py     pz     px    dxy    dyz    dz2    dxz  x2-y2    tot
    1  0.008  0.011  0.011  0.064  0.000  0.000  0.000  0.000  0.000  0.093
    2  0.008  0.011  0.011  0.064  0.000  0.000  0.000  0.000  0.000  0.093
tot    0.016  0.021  0.021  0.127  0.000  0.000  0.000  0.000  0.000  0.186

band     6 # energy    9.29462047 # occ.  0.00000000

ion      s     py     pz     px    dxy    dyz    dz2    dxz  x2-y2    tot
    1  0.058  0.033  0.033  0.023  0.000  0.000  0.000  0.000  0.000  0.148
    2  0.058  0.033  0.033  0.023  0.000  0.000  0.000  0.000  0.000  0.148
tot    0.116  0.067  0.067  0.046  0.000  0.000  0.000  0.000  0.000  0.295

band     7 # energy   11.39049861 # occ.  0.00000000

ion      s     py     pz     px    dxy    dyz    dz2    dxz  x2-y2    tot
    1  0.020  0.012  0.012  0.062  0.000  0.000  0.000  0.000  0.000  0.108
    2  0.020  0.012  0.012  0.062  0.000  0.000  0.000  0.000  0.000  0.108
tot    0.040  0.025  0.025  0.125  0.000  0.000  0.000  0.000  0.000  0.215

band     8 # energy   11.78871751 # occ.  0.00000000

ion      s     py     pz     px    dxy    dyz    dz2    dxz  x2-y2    tot
    1  0.037  0.054  0.054  0.012  0.000  0.000  0.000  0.000  0.000  0.157
    2  0.037  0.054  0.054  0.012  0.000  0.000  0.000  0.000  0.000  0.157
tot    0.074  0.107  0.107  0.024  0.000  0.000  0.000  0.000  0.000  0.313


 k-point    93 :    0.50000000 0.32692308 0.67307692     weight = 0.00416667

band     1 # energy   -2.92533451 # occ.  2.00000000

ion      s     py     pz     px    dxy    dyz    dz2    dxz  x2-y2    tot
    1  0.214  0.013  0.013  0.002  0.000  0.000  0.000  0.000  0.000  0.241
    2  0.214  0.013  0.013  0.002  0.000  0.000  0.000  0.000  0.000  0.241
tot    0.428  0.026  0.026  0.004  0.000  0.000  0.000  0.000  0.000  0.483

band     2 # energy   -1.19785429 # occ.  2.00000000

ion      s     py     pz     px    dxy    dyz    dz2    dxz  x2-y2    tot
    1  0.172  0.027  0.027  0.008  0.000  0.000  0.000  0.000  0.000  0.234
    2  0.172  0.027  0.027  0.008  0.000  0.000  0.000  0.000  0.000  0.234
tot    0.344  0.054  0.054  0.016  0.000  0.000  0.000  0.000  0.000  0.468

band     3 # energy    1.64451110 # occ.  2.00000000

ion      s     py     pz     px    dxy    dyz    dz2    dxz  x2-y2    tot
    1  0.015  0.051  0.051  0.048  0.000  0.000  0.000  0.000  0.000  0.165
    2  0.015  0.051  0.051  0.048  0.000  0.000  0.000  0.000  0.000  0.165
tot    0.030  0.102  0.102  0.097  0.000  0.000  0.000  0.000  0.000  0.331

band     4 # energy    2.82493407 # occ.  2.00000000

ion      s     py     pz     px    dxy    dyz    dz2    dxz  x2-y2    tot
    1  0.001  0.044  0.044  0.087  0.000  0.000  0.000  0.000  0.000  0.176
    2  0.001  0.044  0.044  0.087  0.000  0.000  0.000  0.000  0.000  0.176
tot    0.002  0.088  0.088  0.174  0.000  0.000  0.000  0.000  0.000  0.353

band     5 # energy    9.03023858 # occ.  0.00000000

ion      s     py     pz     px    dxy    dyz    dz2    dxz  x2-y2    tot
    1  0.008  0.012  0.012  0.062  0.000  0.000  0.000  0.000  0.000  0.093
    2  0.008  0.012  0.012  0.062  0.000  0.000  0.000  0.000  0.000  0.093
tot    0.016  0.023  0.023  0.123  0.000  0.000  0.000  0.000  0.000  0.185

band     6 # energy    9.21228278 # occ.  0.00000000

ion      s     py     pz     px    dxy    dyz    dz2    dxz  x2-y2    tot
    1  0.060  0.034  0.034  0.022  0.000  0.000  0.000  0.000  0.000  0.149
    2  0.060  0.034  0.034  0.022  0.000  0.000  0.000  0.000  0.000  0.149
tot    0.121  0.067  0.067  0.043  0.000  0.000  0.000  0.000  0.000  0.298

band     7 # energy   11.52882673 # occ.  0.00000000

ion      s     py     pz     px    dxy    dyz    dz2    dxz  x2-y2    tot
    1  0.019  0.012  0.012  0.064  0.000  0.000  0.000  0.000  0.000  0.107
    2  0.019  0.012  0.012  0.064  0.000  0.000  0.000  0.000  0.000  0.107
tot    0.039  0.024  0.024  0.127  0.000  0.000  0.000  0.000  0.000  0.214

band     8 # energy   11.91985133 # occ.  0.00000000

ion      s     py     pz     px    dxy    dyz    dz2    dxz  x2-y2    tot
    1  0.035  0.054  0.054  0.013  0.000  0.000  0.000  0.000  0.000  0.156
    2  0.035  0.054  0.054  0.013  0.000  0.000  0.000  0.000  0.000  0.156
tot    0.070  0.108  0.108  0.025  0.000  0.000  0.000  0.000  0.000  0.313


 k-point    94 :    0.50000000 0.33333333 0.66666667     weight = 0.00416667

band     1 # energy   -2.99482689 # occ.  2.00000000

ion      s     py     pz     px    dxy    dyz    dz2    dxz  x2-y2    tot
    1  0.215  0.012  0.012  0.002  0.000  0.000  0.000  0.000  0.000  0.241
    2  0.215  0.012  0.012  0.002  0.000  0.000  0.000  0.000  0.000  0.241
tot    0.429  0.024  0.024  0.004  0.000  0.000  0.000  0.000  0.000  0.482

band     2 # energy   -1.16585409 # occ.  2.00000000

ion      s     py     pz     px    dxy    dyz    dz2    dxz  x2-y2    tot
    1  0.167  0.027  0.027  0.010  0.000  0.000  0.000  0.000  0.000  0.231
    2  0.167  0.027  0.027  0.010  0.000  0.000  0.000  0.000  0.000  0.231
tot    0.334  0.055  0.055  0.020  0.000  0.000  0.000  0.000  0.000  0.463

band     3 # energy    1.68975530 # occ.  2.00000000

ion      s     py     pz     px    dxy    dyz    dz2    dxz  x2-y2    tot
    1  0.018  0.052  0.052  0.046  0.000  0.000  0.000  0.000  0.000  0.168
    2  0.018  0.052  0.052  0.046  0.000  0.000  0.000  0.000  0.000  0.168
tot    0.037  0.103  0.103  0.092  0.000  0.000  0.000  0.000  0.000  0.335

band     4 # energy    2.91697528 # occ.  2.00000000

ion      s     py     pz     px    dxy    dyz    dz2    dxz  x2-y2    tot
    1  0.001  0.044  0.044  0.089  0.000  0.000  0.000  0.000  0.000  0.178
    2  0.001  0.044  0.044  0.089  0.000  0.000  0.000  0.000  0.000  0.178
tot    0.002  0.088  0.088  0.178  0.000  0.000  0.000  0.000  0.000  0.357

band     5 # energy    8.97919998 # occ.  0.00000000

ion      s     py     pz     px    dxy    dyz    dz2    dxz  x2-y2    tot
    1  0.008  0.013  0.013  0.059  0.000  0.000  0.000  0.000  0.000  0.093
    2  0.008  0.013  0.013  0.059  0.000  0.000  0.000  0.000  0.000  0.093
tot    0.016  0.025  0.025  0.119  0.000  0.000  0.000  0.000  0.000  0.185

band     6 # energy    9.13138057 # occ.  0.00000000

ion      s     py     pz     px    dxy    dyz    dz2    dxz  x2-y2    tot
    1  0.063  0.034  0.034  0.020  0.000  0.000  0.000  0.000  0.000  0.151
    2  0.063  0.034  0.034  0.020  0.000  0.000  0.000  0.000  0.000  0.151
tot    0.126  0.067  0.067  0.041  0.000  0.000  0.000  0.000  0.000  0.301

band     7 # energy   11.67070958 # occ.  0.00000000

ion      s     py     pz     px    dxy    dyz    dz2    dxz  x2-y2    tot
    1  0.019  0.011  0.011  0.065  0.000  0.000  0.000  0.000  0.000  0.106
    2  0.019  0.011  0.011  0.065  0.000  0.000  0.000  0.000  0.000  0.106
tot    0.038  0.022  0.022  0.130  0.000  0.000  0.000  0.000  0.000  0.213

band     8 # energy   12.05246611 # occ.  0.00000000

ion      s     py     pz     px    dxy    dyz    dz2    dxz  x2-y2    tot
    1  0.033  0.055  0.055  0.013  0.000  0.000  0.000  0.000  0.000  0.156
    2  0.033  0.055  0.055  0.013  0.000  0.000  0.000  0.000  0.000  0.156
tot    0.066  0.109  0.109  0.026  0.000  0.000  0.000  0.000  0.000  0.312


 k-point    95 :    0.50000000 0.33974359 0.66025641     weight = 0.00416667

band     1 # energy   -3.06223044 # occ.  2.00000000

ion      s     py     pz     px    dxy    dyz    dz2    dxz  x2-y2    tot
    1  0.215  0.012  0.012  0.002  0.000  0.000  0.000  0.000  0.000  0.241
    2  0.215  0.012  0.012  0.002  0.000  0.000  0.000  0.000  0.000  0.241
tot    0.430  0.023  0.023  0.004  0.000  0.000  0.000  0.000  0.000  0.481

band     2 # energy   -1.14011102 # occ.  2.00000000

ion      s     py     pz     px    dxy    dyz    dz2    dxz  x2-y2    tot
    1  0.162  0.028  0.028  0.011  0.000  0.000  0.000  0.000  0.000  0.229
    2  0.162  0.028  0.028  0.011  0.000  0.000  0.000  0.000  0.000  0.229
tot    0.324  0.055  0.055  0.023  0.000  0.000  0.000  0.000  0.000  0.457

band     3 # energy    1.74576570 # occ.  2.00000000

ion      s     py     pz     px    dxy    dyz    dz2    dxz  x2-y2    tot
    1  0.022  0.053  0.053  0.043  0.000  0.000  0.000  0.000  0.000  0.170
    2  0.022  0.053  0.053  0.043  0.000  0.000  0.000  0.000  0.000  0.170
tot    0.043  0.105  0.105  0.087  0.000  0.000  0.000  0.000  0.000  0.340

band     4 # energy    3.00914418 # occ.  2.00000000

ion      s     py     pz     px    dxy    dyz    dz2    dxz  x2-y2    tot
    1  0.001  0.044  0.044  0.091  0.000  0.000  0.000  0.000  0.000  0.180
    2  0.001  0.044  0.044  0.091  0.000  0.000  0.000  0.000  0.000  0.180
tot    0.002  0.088  0.088  0.183  0.000  0.000  0.000  0.000  0.000  0.360

band     5 # energy    8.93259200 # occ.  0.00000000

ion      s     py     pz     px    dxy    dyz    dz2    dxz  x2-y2    tot
    1  0.008  0.013  0.013  0.057  0.000  0.000  0.000  0.000  0.000  0.092
    2  0.008  0.013  0.013  0.057  0.000  0.000  0.000  0.000  0.000  0.092
tot    0.016  0.027  0.027  0.114  0.000  0.000  0.000  0.000  0.000  0.185

band     6 # energy    9.05193169 # occ.  0.00000000

ion      s     py     pz     px    dxy    dyz    dz2    dxz  x2-y2    tot
    1  0.065  0.034  0.034  0.019  0.000  0.000  0.000  0.000  0.000  0.152
    2  0.065  0.034  0.034  0.019  0.000  0.000  0.000  0.000  0.000  0.152
tot    0.131  0.068  0.068  0.038  0.000  0.000  0.000  0.000  0.000  0.305

band     7 # energy   11.81579658 # occ.  0.00000000

ion      s     py     pz     px    dxy    dyz    dz2    dxz  x2-y2    tot
    1  0.019  0.011  0.011  0.067  0.000  0.000  0.000  0.000  0.000  0.107
    2  0.019  0.011  0.011  0.067  0.000  0.000  0.000  0.000  0.000  0.107
tot    0.038  0.021  0.021  0.133  0.000  0.000  0.000  0.000  0.000  0.214

band     8 # energy   12.18594172 # occ.  0.00000000

ion      s     py     pz     px    dxy    dyz    dz2    dxz  x2-y2    tot
    1  0.031  0.055  0.055  0.014  0.000  0.000  0.000  0.000  0.000  0.156
    2  0.031  0.055  0.055  0.014  0.000  0.000  0.000  0.000  0.000  0.155
tot    0.063  0.110  0.111  0.027  0.000  0.000  0.000  0.000  0.000  0.311


 k-point    96 :    0.50000000 0.34615385 0.65384615     weight = 0.00416667

band     1 # energy   -3.12744264 # occ.  2.00000000

ion      s     py     pz     px    dxy    dyz    dz2    dxz  x2-y2    tot
    1  0.216  0.011  0.011  0.002  0.000  0.000  0.000  0.000  0.000  0.240
    2  0.216  0.011  0.011  0.002  0.000  0.000  0.000  0.000  0.000  0.240
tot    0.432  0.022  0.022  0.005  0.000  0.000  0.000  0.000  0.000  0.481

band     2 # energy   -1.12036253 # occ.  2.00000000

ion      s     py     pz     px    dxy    dyz    dz2    dxz  x2-y2    tot
    1  0.157  0.028  0.028  0.013  0.000  0.000  0.000  0.000  0.000  0.226
    2  0.157  0.028  0.028  0.013  0.000  0.000  0.000  0.000  0.000  0.226
tot    0.314  0.056  0.056  0.026  0.000  0.000  0.000  0.000  0.000  0.452

band     3 # energy    1.81224877 # occ.  2.00000000

ion      s     py     pz     px    dxy    dyz    dz2    dxz  x2-y2    tot
    1  0.025  0.054  0.054  0.041  0.000  0.000  0.000  0.000  0.000  0.173
    2  0.025  0.054  0.054  0.041  0.000  0.000  0.000  0.000  0.000  0.173
tot    0.049  0.107  0.107  0.082  0.000  0.000  0.000  0.000  0.000  0.346

band     4 # energy    3.10111356 # occ.  2.00000000

ion      s     py     pz     px    dxy    dyz    dz2    dxz  x2-y2    tot
    1  0.001  0.044  0.044  0.094  0.000  0.000  0.000  0.000  0.000  0.182
    2  0.001  0.044  0.044  0.094  0.000  0.000  0.000  0.000  0.000  0.182
tot    0.002  0.087  0.087  0.187  0.000  0.000  0.000  0.000  0.000  0.364

band     5 # energy    8.89061141 # occ.  0.00000000

ion      s     py     pz     px    dxy    dyz    dz2    dxz  x2-y2    tot
    1  0.008  0.014  0.014  0.055  0.000  0.000  0.000  0.000  0.000  0.092
    2  0.008  0.014  0.014  0.055  0.000  0.000  0.000  0.000  0.000  0.092
tot    0.017  0.029  0.029  0.110  0.000  0.000  0.000  0.000  0.000  0.184

band     6 # energy    8.97392803 # occ.  0.00000000

ion      s     py     pz     px    dxy    dyz    dz2    dxz  x2-y2    tot
    1  0.068  0.034  0.034  0.018  0.000  0.000  0.000  0.000  0.000  0.154
    2  0.068  0.034  0.034  0.018  0.000  0.000  0.000  0.000  0.000  0.154
tot    0.136  0.068  0.068  0.036  0.000  0.000  0.000  0.000  0.000  0.308

band     7 # energy   11.96347648 # occ.  0.00000000

ion      s     py     pz     px    dxy    dyz    dz2    dxz  x2-y2    tot
    1  0.019  0.011  0.010  0.069  0.000  0.000  0.000  0.000  0.000  0.110
    2  0.019  0.010  0.010  0.070  0.000  0.000  0.000  0.000  0.000  0.110
tot    0.039  0.021  0.021  0.139  0.000  0.000  0.000  0.000  0.000  0.220

band     8 # energy   12.32035534 # occ.  0.00000000

ion      s     py     pz     px    dxy    dyz    dz2    dxz  x2-y2    tot
    1  0.030  0.055  0.055  0.013  0.000  0.000  0.000  0.000  0.000  0.154
    2  0.029  0.057  0.057  0.015  0.000  0.000  0.000  0.000  0.000  0.157
tot    0.059  0.112  0.112  0.028  0.000  0.000  0.000  0.000  0.000  0.311


 k-point    97 :    0.50000000 0.35256410 0.64743590     weight = 0.00416667

band     1 # energy   -3.19039968 # occ.  2.00000000

ion      s     py     pz     px    dxy    dyz    dz2    dxz  x2-y2    tot
    1  0.216  0.011  0.011  0.003  0.000  0.000  0.000  0.000  0.000  0.240
    2  0.216  0.011  0.011  0.003  0.000  0.000  0.000  0.000  0.000  0.240
tot    0.433  0.021  0.021  0.005  0.000  0.000  0.000  0.000  0.000  0.480

band     2 # energy   -1.10621814 # occ.  2.00000000

ion      s     py     pz     px    dxy    dyz    dz2    dxz  x2-y2    tot
    1  0.152  0.028  0.028  0.015  0.000  0.000  0.000  0.000  0.000  0.223
    2  0.152  0.028  0.028  0.015  0.000  0.000  0.000  0.000  0.000  0.223
tot    0.303  0.057  0.057  0.030  0.000  0.000  0.000  0.000  0.000  0.446

band     3 # energy    1.88875050 # occ.  2.00000000

ion      s     py     pz     px    dxy    dyz    dz2    dxz  x2-y2    tot
    1  0.028  0.055  0.055  0.038  0.000  0.000  0.000  0.000  0.000  0.176
    2  0.028  0.055  0.055  0.038  0.000  0.000  0.000  0.000  0.000  0.176
tot    0.056  0.109  0.109  0.077  0.000  0.000  0.000  0.000  0.000  0.351

band     4 # energy    3.19253054 # occ.  2.00000000

ion      s     py     pz     px    dxy    dyz    dz2    dxz  x2-y2    tot
    1  0.001  0.043  0.043  0.096  0.000  0.000  0.000  0.000  0.000  0.184
    2  0.001  0.043  0.043  0.096  0.000  0.000  0.000  0.000  0.000  0.184
tot    0.002  0.087  0.087  0.192  0.000  0.000  0.000  0.000  0.000  0.368

band     5 # energy    8.85326981 # occ.  0.00000000

ion      s     py     pz     px    dxy    dyz    dz2    dxz  x2-y2    tot
    1  0.008  0.016  0.016  0.052  0.000  0.000  0.000  0.000  0.000  0.092
    2  0.008  0.016  0.016  0.052  0.000  0.000  0.000  0.000  0.000  0.092
tot    0.016  0.031  0.031  0.105  0.000  0.000  0.000  0.000  0.000  0.184

band     6 # energy    8.89727139 # occ.  0.00000000

ion      s     py     pz     px    dxy    dyz    dz2    dxz  x2-y2    tot
    1  0.070  0.034  0.034  0.017  0.000  0.000  0.000  0.000  0.000  0.155
    2  0.070  0.034  0.034  0.017  0.000  0.000  0.000  0.000  0.000  0.155
tot    0.141  0.068  0.068  0.034  0.000  0.000  0.000  0.000  0.000  0.311

band     7 # energy   12.10853868 # occ.  0.00000000

ion      s     py     pz     px    dxy    dyz    dz2    dxz  x2-y2    tot
    1  0.024  0.012  0.012  0.084  0.000  0.000  0.000  0.000  0.000  0.133
    2  0.025  0.011  0.011  0.082  0.000  0.000  0.000  0.000  0.000  0.130
tot    0.049  0.023  0.023  0.167  0.000  0.000  0.000  0.000  0.000  0.263

band     8 # energy   12.32940876 # occ.  0.00000000

ion      s     py     pz     px    dxy    dyz    dz2    dxz  x2-y2    tot
    1  0.013  0.045  0.033  0.018  0.000  0.000  0.000  0.000  0.000  0.109
    2  0.011  0.047  0.035  0.020  0.000  0.000  0.000  0.000  0.000  0.113
tot    0.024  0.092  0.068  0.038  0.000  0.000  0.000  0.000  0.000  0.222


 k-point    98 :    0.50000000 0.35897436 0.64102564     weight = 0.00416667

band     1 # energy   -3.25103512 # occ.  2.00000000

ion      s     py     pz     px    dxy    dyz    dz2    dxz  x2-y2    tot
    1  0.217  0.010  0.010  0.003  0.000  0.000  0.000  0.000  0.000  0.240
    2  0.217  0.010  0.010  0.003  0.000  0.000  0.000  0.000  0.000  0.240
tot    0.434  0.020  0.020  0.005  0.000  0.000  0.000  0.000  0.000  0.480

band     2 # energy   -1.09718824 # occ.  2.00000000

ion      s     py     pz     px    dxy    dyz    dz2    dxz  x2-y2    tot
    1  0.147  0.029  0.029  0.016  0.000  0.000  0.000  0.000  0.000  0.220
    2  0.147  0.029  0.029  0.016  0.000  0.000  0.000  0.000  0.000  0.220
tot    0.293  0.057  0.057  0.033  0.000  0.000  0.000  0.000  0.000  0.440

band     3 # energy    1.97470156 # occ.  2.00000000

ion      s     py     pz     px    dxy    dyz    dz2    dxz  x2-y2    tot
    1  0.031  0.056  0.056  0.036  0.000  0.000  0.000  0.000  0.000  0.178
    2  0.031  0.056  0.056  0.036  0.000  0.000  0.000  0.000  0.000  0.178
tot    0.062  0.112  0.112  0.072  0.000  0.000  0.000  0.000  0.000  0.357

band     4 # energy    3.28304935 # occ.  2.00000000

ion      s     py     pz     px    dxy    dyz    dz2    dxz  x2-y2    tot
    1  0.001  0.043  0.043  0.098  0.000  0.000  0.000  0.000  0.000  0.186
    2  0.001  0.043  0.043  0.098  0.000  0.000  0.000  0.000  0.000  0.186
tot    0.002  0.087  0.087  0.197  0.000  0.000  0.000  0.000  0.000  0.372

band     5 # energy    8.82054590 # occ.  0.00000000

ion      s     py     pz     px    dxy    dyz    dz2    dxz  x2-y2    tot
    1  0.008  0.017  0.017  0.050  0.000  0.000  0.000  0.000  0.000  0.091
    2  0.008  0.017  0.017  0.050  0.000  0.000  0.000  0.000  0.000  0.091
tot    0.016  0.033  0.033  0.100  0.000  0.000  0.000  0.000  0.000  0.183

band     6 # energy    8.82180157 # occ.  0.00000000

ion      s     py     pz     px    dxy    dyz    dz2    dxz  x2-y2    tot
    1  0.073  0.034  0.034  0.016  0.000  0.000  0.000  0.000  0.000  0.157
    2  0.073  0.034  0.034  0.016  0.000  0.000  0.000  0.000  0.000  0.157
tot    0.146  0.068  0.068  0.032  0.000  0.000  0.000  0.000  0.000  0.314

band     7 # energy   12.05735220 # occ.  0.00000000

ion      s     py     pz     px    dxy    dyz    dz2    dxz  x2-y2    tot
    1  0.029  0.039  0.039  0.063  0.000  0.000  0.000  0.000  0.000  0.170
    2  0.028  0.040  0.039  0.064  0.000  0.000  0.000  0.000  0.000  0.171
tot    0.057  0.079  0.078  0.126  0.000  0.000  0.000  0.000  0.000  0.341

band     8 # energy   12.28739465 # occ.  0.00000000

ion      s     py     pz     px    dxy    dyz    dz2    dxz  x2-y2    tot
    1  0.009  0.009  0.012  0.039  0.000  0.000  0.000  0.000  0.000  0.069
    2  0.008  0.010  0.013  0.041  0.000  0.000  0.000  0.000  0.000  0.071
tot    0.017  0.019  0.025  0.079  0.000  0.000  0.000  0.000  0.000  0.140


 k-point    99 :    0.50000000 0.36538462 0.63461538     weight = 0.00416667

band     1 # energy   -3.30928823 # occ.  2.00000000

ion      s     py     pz     px    dxy    dyz    dz2    dxz  x2-y2    tot
    1  0.218  0.010  0.010  0.003  0.000  0.000  0.000  0.000  0.000  0.240
    2  0.218  0.010  0.010  0.003  0.000  0.000  0.000  0.000  0.000  0.240
tot    0.435  0.019  0.019  0.006  0.000  0.000  0.000  0.000  0.000  0.479

band     2 # energy   -1.09270736 # occ.  2.00000000

ion      s     py     pz     px    dxy    dyz    dz2    dxz  x2-y2    tot
    1  0.142  0.029  0.029  0.018  0.000  0.000  0.000  0.000  0.000  0.217
    2  0.142  0.029  0.029  0.018  0.000  0.000  0.000  0.000  0.000  0.217
tot    0.284  0.058  0.058  0.036  0.000  0.000  0.000  0.000  0.000  0.435

band     3 # energy    2.06945026 # occ.  2.00000000

ion      s     py     pz     px    dxy    dyz    dz2    dxz  x2-y2    tot
    1  0.034  0.057  0.057  0.034  0.000  0.000  0.000  0.000  0.000  0.181
    2  0.034  0.057  0.057  0.034  0.000  0.000  0.000  0.000  0.000  0.181
tot    0.067  0.114  0.114  0.067  0.000  0.000  0.000  0.000  0.000  0.362

band     4 # energy    3.37231737 # occ.  2.00000000

ion      s     py     pz     px    dxy    dyz    dz2    dxz  x2-y2    tot
    1  0.001  0.043  0.043  0.101  0.000  0.000  0.000  0.000  0.000  0.188
    2  0.001  0.043  0.043  0.101  0.000  0.000  0.000  0.000  0.000  0.188
tot    0.002  0.086  0.086  0.202  0.000  0.000  0.000  0.000  0.000  0.376

band     5 # energy    8.74737839 # occ.  0.00000000

ion      s     py     pz     px    dxy    dyz    dz2    dxz  x2-y2    tot
    1  0.076  0.034  0.034  0.015  0.000  0.000  0.000  0.000  0.000  0.159
    2  0.076  0.034  0.034  0.015  0.000  0.000  0.000  0.000  0.000  0.159
tot    0.152  0.068  0.068  0.029  0.000  0.000  0.000  0.000  0.000  0.318

band     6 # energy    8.79283426 # occ.  0.00000000

ion      s     py     pz     px    dxy    dyz    dz2    dxz  x2-y2    tot
    1  0.008  0.018  0.018  0.047  0.000  0.000  0.000  0.000  0.000  0.091
    2  0.008  0.018  0.018  0.047  0.000  0.000  0.000  0.000  0.000  0.091
tot    0.016  0.036  0.036  0.095  0.000  0.000  0.000  0.000  0.000  0.182

band     7 # energy   11.81872956 # occ.  0.00000000

ion      s     py     pz     px    dxy    dyz    dz2    dxz  x2-y2    tot
    1  0.024  0.039  0.039  0.050  0.000  0.000  0.000  0.000  0.000  0.153
    2  0.024  0.039  0.039  0.050  0.000  0.000  0.000  0.000  0.000  0.153
tot    0.048  0.078  0.079  0.100  0.000  0.000  0.000  0.000  0.000  0.305

band     8 # energy   12.43819041 # occ.  0.00000000

ion      s     py     pz     px    dxy    dyz    dz2    dxz  x2-y2    tot
    1  0.013  0.009  0.009  0.054  0.000  0.000  0.000  0.000  0.000  0.085
    2  0.013  0.009  0.009  0.054  0.000  0.000  0.000  0.000  0.000  0.085
tot    0.026  0.019  0.018  0.108  0.000  0.000  0.000  0.000  0.000  0.170


 k-point   100 :    0.50000000 0.37179487 0.62820513     weight = 0.00416667

band     1 # energy   -3.36510022 # occ.  2.00000000

ion      s     py     pz     px    dxy    dyz    dz2    dxz  x2-y2    tot
    1  0.218  0.009  0.009  0.003  0.000  0.000  0.000  0.000  0.000  0.239
    2  0.218  0.009  0.009  0.003  0.000  0.000  0.000  0.000  0.000  0.239
tot    0.436  0.018  0.018  0.006  0.000  0.000  0.000  0.000  0.000  0.479

band     2 # energy   -1.09218507 # occ.  2.00000000

ion      s     py     pz     px    dxy    dyz    dz2    dxz  x2-y2    tot
    1  0.137  0.029  0.029  0.019  0.000  0.000  0.000  0.000  0.000  0.215
    2  0.137  0.029  0.029  0.019  0.000  0.000  0.000  0.000  0.000  0.215
tot    0.274  0.058  0.058  0.039  0.000  0.000  0.000  0.000  0.000  0.430

band     3 # energy    2.17229718 # occ.  2.00000000

ion      s     py     pz     px    dxy    dyz    dz2    dxz  x2-y2    tot
    1  0.036  0.058  0.058  0.031  0.000  0.000  0.000  0.000  0.000  0.184
    2  0.036  0.058  0.058  0.031  0.000  0.000  0.000  0.000  0.000  0.184
tot    0.072  0.117  0.117  0.062  0.000  0.000  0.000  0.000  0.000  0.367

band     4 # energy    3.45999253 # occ.  2.00000000

ion      s     py     pz     px    dxy    dyz    dz2    dxz  x2-y2    tot
    1  0.001  0.043  0.043  0.104  0.000  0.000  0.000  0.000  0.000  0.190
    2  0.001  0.043  0.043  0.104  0.000  0.000  0.000  0.000  0.000  0.190
tot    0.002  0.086  0.086  0.207  0.000  0.000  0.000  0.000  0.000  0.380

band     5 # energy    8.67372522 # occ.  0.00000000

ion      s     py     pz     px    dxy    dyz    dz2    dxz  x2-y2    tot
    1  0.079  0.034  0.034  0.013  0.000  0.000  0.000  0.000  0.000  0.161
    2  0.079  0.034  0.034  0.013  0.000  0.000  0.000  0.000  0.000  0.161
tot    0.158  0.068  0.068  0.027  0.000  0.000  0.000  0.000  0.000  0.322

band     6 # energy    8.77007128 # occ.  0.00000000

ion      s     py     pz     px    dxy    dyz    dz2    dxz  x2-y2    tot
    1  0.008  0.019  0.019  0.045  0.000  0.000  0.000  0.000  0.000  0.091
    2  0.008  0.019  0.019  0.045  0.000  0.000  0.000  0.000  0.000  0.091
tot    0.016  0.038  0.038  0.089  0.000  0.000  0.000  0.000  0.000  0.182

band     7 # energy   11.57890604 # occ.  0.00000000

ion      s     py     pz     px    dxy    dyz    dz2    dxz  x2-y2    tot
    1  0.023  0.038  0.038  0.048  0.000  0.000  0.000  0.000  0.000  0.147
    2  0.023  0.038  0.038  0.048  0.000  0.000  0.000  0.000  0.000  0.147
tot    0.047  0.076  0.076  0.096  0.000  0.000  0.000  0.000  0.000  0.294

band     8 # energy   12.59877003 # occ.  0.00000000

ion      s     py     pz     px    dxy    dyz    dz2    dxz  x2-y2    tot
    1  0.013  0.010  0.010  0.059  0.000  0.000  0.000  0.000  0.000  0.091
    2  0.015  0.008  0.008  0.055  0.000  0.000  0.000  0.000  0.000  0.085
tot    0.027  0.017  0.018  0.114  0.000  0.000  0.000  0.000  0.000  0.176


 k-point   101 :    0.50000000 0.37820513 0.62179487     weight = 0.00416667

band     1 # energy   -3.41842990 # occ.  2.00000000

ion      s     py     pz     px    dxy    dyz    dz2    dxz  x2-y2    tot
    1  0.219  0.009  0.009  0.003  0.000  0.000  0.000  0.000  0.000  0.239
    2  0.219  0.009  0.009  0.003  0.000  0.000  0.000  0.000  0.000  0.239
tot    0.437  0.017  0.017  0.006  0.000  0.000  0.000  0.000  0.000  0.478

band     2 # energy   -1.09502580 # occ.  2.00000000

ion      s     py     pz     px    dxy    dyz    dz2    dxz  x2-y2    tot
    1  0.133  0.029  0.029  0.021  0.000  0.000  0.000  0.000  0.000  0.212
    2  0.133  0.029  0.029  0.021  0.000  0.000  0.000  0.000  0.000  0.212
tot    0.266  0.059  0.059  0.042  0.000  0.000  0.000  0.000  0.000  0.425

band     3 # energy    2.28249269 # occ.  2.00000000

ion      s     py     pz     px    dxy    dyz    dz2    dxz  x2-y2    tot
    1  0.038  0.060  0.060  0.029  0.000  0.000  0.000  0.000  0.000  0.186
    2  0.038  0.060  0.060  0.029  0.000  0.000  0.000  0.000  0.000  0.186
tot    0.076  0.119  0.119  0.058  0.000  0.000  0.000  0.000  0.000  0.373

band     4 # energy    3.54570899 # occ.  2.00000000

ion      s     py     pz     px    dxy    dyz    dz2    dxz  x2-y2    tot
    1  0.001  0.043  0.043  0.106  0.000  0.000  0.000  0.000  0.000  0.192
    2  0.001  0.043  0.043  0.106  0.000  0.000  0.000  0.000  0.000  0.192
tot    0.002  0.085  0.085  0.212  0.000  0.000  0.000  0.000  0.000  0.384

band     5 # energy    8.60051717 # occ.  0.00000000

ion      s     py     pz     px    dxy    dyz    dz2    dxz  x2-y2    tot
    1  0.083  0.034  0.034  0.012  0.000  0.000  0.000  0.000  0.000  0.163
    2  0.083  0.034  0.034  0.012  0.000  0.000  0.000  0.000  0.000  0.163
tot    0.165  0.068  0.068  0.024  0.000  0.000  0.000  0.000  0.000  0.327

band     6 # energy    8.75224078 # occ.  0.00000000

ion      s     py     pz     px    dxy    dyz    dz2    dxz  x2-y2    tot
    1  0.008  0.020  0.020  0.042  0.000  0.000  0.000  0.000  0.000  0.090
    2  0.008  0.020  0.020  0.042  0.000  0.000  0.000  0.000  0.000  0.090
tot    0.015  0.041  0.041  0.084  0.000  0.000  0.000  0.000  0.000  0.181

band     7 # energy   11.34314317 # occ.  0.00000000

ion      s     py     pz     px    dxy    dyz    dz2    dxz  x2-y2    tot
    1  0.023  0.037  0.037  0.048  0.000  0.000  0.000  0.000  0.000  0.144
    2  0.023  0.037  0.037  0.048  0.000  0.000  0.000  0.000  0.000  0.144
tot    0.046  0.073  0.073  0.096  0.000  0.000  0.000  0.000  0.000  0.288

band     8 # energy   12.76369607 # occ.  0.00000000

ion      s     py     pz     px    dxy    dyz    dz2    dxz  x2-y2    tot
    1  0.013  0.009  0.007  0.058  0.000  0.000  0.000  0.000  0.000  0.088
    2  0.014  0.009  0.007  0.058  0.000  0.000  0.000  0.000  0.000  0.088
tot    0.027  0.019  0.014  0.116  0.000  0.000  0.000  0.000  0.000  0.176


 k-point   102 :    0.50000000 0.38461538 0.61538462     weight = 0.00416667

band     1 # energy   -3.46923405 # occ.  2.00000000

ion      s     py     pz     px    dxy    dyz    dz2    dxz  x2-y2    tot
    1  0.219  0.008  0.008  0.003  0.000  0.000  0.000  0.000  0.000  0.239
    2  0.219  0.008  0.008  0.003  0.000  0.000  0.000  0.000  0.000  0.239
tot    0.438  0.017  0.017  0.006  0.000  0.000  0.000  0.000  0.000  0.478

band     2 # energy   -1.10065348 # occ.  2.00000000

ion      s     py     pz     px    dxy    dyz    dz2    dxz  x2-y2    tot
    1  0.129  0.029  0.029  0.022  0.000  0.000  0.000  0.000  0.000  0.210
    2  0.129  0.029  0.029  0.022  0.000  0.000  0.000  0.000  0.000  0.210
tot    0.258  0.059  0.059  0.044  0.000  0.000  0.000  0.000  0.000  0.420

band     3 # energy    2.39929134 # occ.  2.00000000

ion      s     py     pz     px    dxy    dyz    dz2    dxz  x2-y2    tot
    1  0.039  0.061  0.061  0.027  0.000  0.000  0.000  0.000  0.000  0.189
    2  0.039  0.061  0.061  0.027  0.000  0.000  0.000  0.000  0.000  0.189
tot    0.079  0.122  0.122  0.054  0.000  0.000  0.000  0.000  0.000  0.378

band     4 # energy    3.62911103 # occ.  2.00000000

ion      s     py     pz     px    dxy    dyz    dz2    dxz  x2-y2    tot
    1  0.001  0.042  0.042  0.109  0.000  0.000  0.000  0.000  0.000  0.194
    2  0.001  0.042  0.042  0.109  0.000  0.000  0.000  0.000  0.000  0.194
tot    0.001  0.084  0.084  0.218  0.000  0.000  0.000  0.000  0.000  0.388

band     5 # energy    8.52733567 # occ.  0.00000000

ion      s     py     pz     px    dxy    dyz    dz2    dxz  x2-y2    tot
    1  0.086  0.034  0.034  0.011  0.000  0.000  0.000  0.000  0.000  0.166
    2  0.086  0.034  0.034  0.011  0.000  0.000  0.000  0.000  0.000  0.166
tot    0.172  0.069  0.069  0.022  0.000  0.000  0.000  0.000  0.000  0.332

band     6 # energy    8.73931914 # occ.  0.00000000

ion      s     py     pz     px    dxy    dyz    dz2    dxz  x2-y2    tot
    1  0.008  0.022  0.022  0.039  0.000  0.000  0.000  0.000  0.000  0.090
    2  0.008  0.022  0.022  0.039  0.000  0.000  0.000  0.000  0.000  0.090
tot    0.015  0.044  0.044  0.078  0.000  0.000  0.000  0.000  0.000  0.180

band     7 # energy   11.11262616 # occ.  0.00000000

ion      s     py     pz     px    dxy    dyz    dz2    dxz  x2-y2    tot
    1  0.022  0.035  0.035  0.049  0.000  0.000  0.000  0.000  0.000  0.141
    2  0.022  0.035  0.035  0.049  0.000  0.000  0.000  0.000  0.000  0.141
tot    0.045  0.070  0.070  0.097  0.000  0.000  0.000  0.000  0.000  0.282

band     8 # energy   12.93282655 # occ.  0.00000000

ion      s     py     pz     px    dxy    dyz    dz2    dxz  x2-y2    tot
    1  0.013  0.012  0.007  0.059  0.000  0.000  0.000  0.000  0.000  0.090
    2  0.014  0.010  0.005  0.057  0.000  0.000  0.000  0.000  0.000  0.086
tot    0.027  0.022  0.012  0.116  0.000  0.000  0.000  0.000  0.000  0.177


 k-point   103 :    0.50000000 0.39102564 0.60897436     weight = 0.00416667

band     1 # energy   -3.51746554 # occ.  2.00000000

ion      s     py     pz     px    dxy    dyz    dz2    dxz  x2-y2    tot
    1  0.220  0.008  0.008  0.003  0.000  0.000  0.000  0.000  0.000  0.239
    2  0.220  0.008  0.008  0.003  0.000  0.000  0.000  0.000  0.000  0.239
tot    0.439  0.016  0.016  0.007  0.000  0.000  0.000  0.000  0.000  0.477

band     2 # energy   -1.10851108 # occ.  2.00000000

ion      s     py     pz     px    dxy    dyz    dz2    dxz  x2-y2    tot
    1  0.125  0.030  0.030  0.023  0.000  0.000  0.000  0.000  0.000  0.208
    2  0.125  0.030  0.030  0.023  0.000  0.000  0.000  0.000  0.000  0.208
tot    0.250  0.059  0.059  0.046  0.000  0.000  0.000  0.000  0.000  0.415

band     3 # energy    2.52195218 # occ.  2.00000000

ion      s     py     pz     px    dxy    dyz    dz2    dxz  x2-y2    tot
    1  0.041  0.063  0.063  0.025  0.000  0.000  0.000  0.000  0.000  0.191
    2  0.041  0.063  0.063  0.025  0.000  0.000  0.000  0.000  0.000  0.191
tot    0.081  0.126  0.126  0.050  0.000  0.000  0.000  0.000  0.000  0.382

band     4 # energy    3.70987658 # occ.  2.00000000

ion      s     py     pz     px    dxy    dyz    dz2    dxz  x2-y2    tot
    1  0.001  0.042  0.042  0.112  0.000  0.000  0.000  0.000  0.000  0.196
    2  0.001  0.042  0.042  0.112  0.000  0.000  0.000  0.000  0.000  0.196
tot    0.001  0.084  0.084  0.224  0.000  0.000  0.000  0.000  0.000  0.392

band     5 # energy    8.45373903 # occ.  0.00000000

ion      s     py     pz     px    dxy    dyz    dz2    dxz  x2-y2    tot
    1  0.090  0.034  0.034  0.010  0.000  0.000  0.000  0.000  0.000  0.169
    2  0.090  0.034  0.034  0.010  0.000  0.000  0.000  0.000  0.000  0.169
tot    0.181  0.069  0.069  0.019  0.000  0.000  0.000  0.000  0.000  0.337

band     6 # energy    8.73133022 # occ.  0.00000000

ion      s     py     pz     px    dxy    dyz    dz2    dxz  x2-y2    tot
    1  0.007  0.023  0.023  0.036  0.000  0.000  0.000  0.000  0.000  0.090
    2  0.007  0.023  0.023  0.036  0.000  0.000  0.000  0.000  0.000  0.090
tot    0.014  0.047  0.047  0.072  0.000  0.000  0.000  0.000  0.000  0.180

band     7 # energy   10.88865432 # occ.  0.00000000

ion      s     py     pz     px    dxy    dyz    dz2    dxz  x2-y2    tot
    1  0.022  0.033  0.033  0.050  0.000  0.000  0.000  0.000  0.000  0.138
    2  0.022  0.033  0.033  0.050  0.000  0.000  0.000  0.000  0.000  0.138
tot    0.043  0.067  0.067  0.099  0.000  0.000  0.000  0.000  0.000  0.276

band     8 # energy   13.10101427 # occ.  0.00000000

ion      s     py     pz     px    dxy    dyz    dz2    dxz  x2-y2    tot
    1  0.013  0.009  0.007  0.059  0.000  0.000  0.000  0.000  0.000  0.089
    2  0.014  0.009  0.007  0.058  0.000  0.000  0.000  0.000  0.000  0.087
tot    0.027  0.018  0.014  0.117  0.000  0.000  0.000  0.000  0.000  0.176


 k-point   104 :    0.50000000 0.39743590 0.60256410     weight = 0.00416667

band     1 # energy   -3.56310093 # occ.  2.00000000

ion      s     py     pz     px    dxy    dyz    dz2    dxz  x2-y2    tot
    1  0.220  0.007  0.007  0.003  0.000  0.000  0.000  0.000  0.000  0.238
    2  0.220  0.007  0.007  0.003  0.000  0.000  0.000  0.000  0.000  0.238
tot    0.440  0.015  0.015  0.007  0.000  0.000  0.000  0.000  0.000  0.477

band     2 # energy   -1.11809450 # occ.  2.00000000

ion      s     py     pz     px    dxy    dyz    dz2    dxz  x2-y2    tot
    1  0.122  0.030  0.030  0.024  0.000  0.000  0.000  0.000  0.000  0.206
    2  0.122  0.030  0.030  0.024  0.000  0.000  0.000  0.000  0.000  0.206
tot    0.244  0.060  0.060  0.048  0.000  0.000  0.000  0.000  0.000  0.411

band     3 # energy    2.64971341 # occ.  2.00000000

ion      s     py     pz     px    dxy    dyz    dz2    dxz  x2-y2    tot
    1  0.041  0.065  0.065  0.023  0.000  0.000  0.000  0.000  0.000  0.193
    2  0.041  0.065  0.065  0.023  0.000  0.000  0.000  0.000  0.000  0.193
tot    0.083  0.129  0.129  0.046  0.000  0.000  0.000  0.000  0.000  0.387

band     4 # energy    3.78762994 # occ.  2.00000000

ion      s     py     pz     px    dxy    dyz    dz2    dxz  x2-y2    tot
    1  0.001  0.041  0.041  0.115  0.000  0.000  0.000  0.000  0.000  0.198
    2  0.001  0.041  0.041  0.115  0.000  0.000  0.000  0.000  0.000  0.198
tot    0.001  0.083  0.083  0.229  0.000  0.000  0.000  0.000  0.000  0.396

band     5 # energy    8.37912448 # occ.  0.00000000

ion      s     py     pz     px    dxy    dyz    dz2    dxz  x2-y2    tot
    1  0.095  0.034  0.034  0.008  0.000  0.000  0.000  0.000  0.000  0.172
    2  0.095  0.034  0.034  0.008  0.000  0.000  0.000  0.000  0.000  0.172
tot    0.190  0.069  0.069  0.016  0.000  0.000  0.000  0.000  0.000  0.343

band     6 # energy    8.72813686 # occ.  0.00000000

ion      s     py     pz     px    dxy    dyz    dz2    dxz  x2-y2    tot
    1  0.007  0.025  0.025  0.033  0.000  0.000  0.000  0.000  0.000  0.090
    2  0.007  0.025  0.025  0.033  0.000  0.000  0.000  0.000  0.000  0.090
tot    0.014  0.050  0.050  0.066  0.000  0.000  0.000  0.000  0.000  0.179

band     7 # energy   10.67210518 # occ.  0.00000000

ion      s     py     pz     px    dxy    dyz    dz2    dxz  x2-y2    tot
    1  0.021  0.032  0.032  0.051  0.000  0.000  0.000  0.000  0.000  0.135
    2  0.021  0.032  0.032  0.051  0.000  0.000  0.000  0.000  0.000  0.135
tot    0.041  0.063  0.063  0.102  0.000  0.000  0.000  0.000  0.000  0.269

band     8 # energy   13.28088460 # occ.  0.00000000

ion      s     py     pz     px    dxy    dyz    dz2    dxz  x2-y2    tot
    1  0.020  0.005  0.001  0.038  0.000  0.000  0.000  0.000  0.000  0.065
    2  0.007  0.023  0.019  0.072  0.000  0.000  0.000  0.000  0.000  0.121
tot    0.027  0.028  0.020  0.111  0.000  0.000  0.000  0.000  0.000  0.185


 k-point   105 :    0.50000000 0.40384615 0.59615385     weight = 0.00416667

band     1 # energy   -3.60610526 # occ.  2.00000000

ion      s     py     pz     px    dxy    dyz    dz2    dxz  x2-y2    tot
    1  0.220  0.007  0.007  0.004  0.000  0.000  0.000  0.000  0.000  0.238
    2  0.220  0.007  0.007  0.004  0.000  0.000  0.000  0.000  0.000  0.238
tot    0.441  0.014  0.014  0.007  0.000  0.000  0.000  0.000  0.000  0.477

band     2 # energy   -1.12894277 # occ.  2.00000000

ion      s     py     pz     px    dxy    dyz    dz2    dxz  x2-y2    tot
    1  0.119  0.030  0.030  0.025  0.000  0.000  0.000  0.000  0.000  0.204
    2  0.119  0.030  0.030  0.025  0.000  0.000  0.000  0.000  0.000  0.204
tot    0.238  0.060  0.060  0.050  0.000  0.000  0.000  0.000  0.000  0.408

band     3 # energy    2.78182550 # occ.  2.00000000

ion      s     py     pz     px    dxy    dyz    dz2    dxz  x2-y2    tot
    1  0.041  0.066  0.066  0.021  0.000  0.000  0.000  0.000  0.000  0.195
    2  0.041  0.066  0.066  0.021  0.000  0.000  0.000  0.000  0.000  0.195
tot    0.083  0.133  0.133  0.042  0.000  0.000  0.000  0.000  0.000  0.391

band     4 # energy    3.86206222 # occ.  2.00000000

ion      s     py     pz     px    dxy    dyz    dz2    dxz  x2-y2    tot
    1  0.000  0.041  0.041  0.117  0.000  0.000  0.000  0.000  0.000  0.200
    2  0.000  0.041  0.041  0.117  0.000  0.000  0.000  0.000  0.000  0.200
tot    0.001  0.082  0.082  0.235  0.000  0.000  0.000  0.000  0.000  0.400

band     5 # energy    8.30281936 # occ.  0.00000000

ion      s     py     pz     px    dxy    dyz    dz2    dxz  x2-y2    tot
    1  0.100  0.034  0.034  0.007  0.000  0.000  0.000  0.000  0.000  0.175
    2  0.100  0.034  0.034  0.007  0.000  0.000  0.000  0.000  0.000  0.175
tot    0.199  0.069  0.069  0.013  0.000  0.000  0.000  0.000  0.000  0.350

band     6 # energy    8.72958164 # occ.  0.00000000

ion      s     py     pz     px    dxy    dyz    dz2    dxz  x2-y2    tot
    1  0.007  0.026  0.026  0.030  0.000  0.000  0.000  0.000  0.000  0.090
    2  0.007  0.026  0.026  0.030  0.000  0.000  0.000  0.000  0.000  0.090
tot    0.013  0.053  0.053  0.060  0.000  0.000  0.000  0.000  0.000  0.179

band     7 # energy   10.46398370 # occ.  0.00000000

ion      s     py     pz     px    dxy    dyz    dz2    dxz  x2-y2    tot
    1  0.019  0.030  0.030  0.053  0.000  0.000  0.000  0.000  0.000  0.131
    2  0.019  0.030  0.030  0.053  0.000  0.000  0.000  0.000  0.000  0.131
tot    0.039  0.059  0.059  0.105  0.000  0.000  0.000  0.000  0.000  0.263

band     8 # energy   13.44860934 # occ.  0.00000000

ion      s     py     pz     px    dxy    dyz    dz2    dxz  x2-y2    tot
    1  0.022  0.020  0.016  0.006  0.000  0.000  0.000  0.000  0.000  0.064
    2  0.000  0.052  0.048  0.070  0.000  0.000  0.000  0.000  0.000  0.171
tot    0.022  0.072  0.064  0.076  0.000  0.000  0.000  0.000  0.000  0.235


 k-point   106 :    0.50000000 0.41025641 0.58974359     weight = 0.00416667

band     1 # energy   -3.64644895 # occ.  2.00000000

ion      s     py     pz     px    dxy    dyz    dz2    dxz  x2-y2    tot
    1  0.221  0.007  0.007  0.004  0.000  0.000  0.000  0.000  0.000  0.238
    2  0.221  0.007  0.007  0.004  0.000  0.000  0.000  0.000  0.000  0.238
tot    0.442  0.014  0.014  0.007  0.000  0.000  0.000  0.000  0.000  0.476

band     2 # energy   -1.14064539 # occ.  2.00000000

ion      s     py     pz     px    dxy    dyz    dz2    dxz  x2-y2    tot
    1  0.116  0.030  0.030  0.026  0.000  0.000  0.000  0.000  0.000  0.202
    2  0.116  0.030  0.030  0.026  0.000  0.000  0.000  0.000  0.000  0.202
tot    0.232  0.060  0.060  0.052  0.000  0.000  0.000  0.000  0.000  0.404

band     3 # energy    2.91751157 # occ.  2.00000000

ion      s     py     pz     px    dxy    dyz    dz2    dxz  x2-y2    tot
    1  0.041  0.068  0.068  0.019  0.000  0.000  0.000  0.000  0.000  0.197
    2  0.041  0.068  0.068  0.019  0.000  0.000  0.000  0.000  0.000  0.197
tot    0.082  0.137  0.137  0.038  0.000  0.000  0.000  0.000  0.000  0.395

band     4 # energy    3.93287115 # occ.  2.00000000

ion      s     py     pz     px    dxy    dyz    dz2    dxz  x2-y2    tot
    1  0.000  0.041  0.041  0.120  0.000  0.000  0.000  0.000  0.000  0.202
    2  0.000  0.041  0.041  0.120  0.000  0.000  0.000  0.000  0.000  0.202
tot    0.001  0.081  0.081  0.240  0.000  0.000  0.000  0.000  0.000  0.404

band     5 # energy    8.22407372 # occ.  0.00000000

ion      s     py     pz     px    dxy    dyz    dz2    dxz  x2-y2    tot
    1  0.105  0.034  0.034  0.005  0.000  0.000  0.000  0.000  0.000  0.179
    2  0.105  0.034  0.034  0.005  0.000  0.000  0.000  0.000  0.000  0.179
tot    0.210  0.068  0.068  0.010  0.000  0.000  0.000  0.000  0.000  0.357

band     6 # energy    8.73544160 # occ.  0.00000000

ion      s     py     pz     px    dxy    dyz    dz2    dxz  x2-y2    tot
    1  0.006  0.028  0.028  0.027  0.000  0.000  0.000  0.000  0.000  0.090
    2  0.006  0.028  0.028  0.027  0.000  0.000  0.000  0.000  0.000  0.090
tot    0.012  0.056  0.056  0.054  0.000  0.000  0.000  0.000  0.000  0.179

band     7 # energy   10.26573463 # occ.  0.00000000

ion      s     py     pz     px    dxy    dyz    dz2    dxz  x2-y2    tot
    1  0.018  0.028  0.028  0.054  0.000  0.000  0.000  0.000  0.000  0.128
    2  0.018  0.028  0.028  0.054  0.000  0.000  0.000  0.000  0.000  0.128
tot    0.035  0.056  0.056  0.109  0.000  0.000  0.000  0.000  0.000  0.255

band     8 # energy   13.53970037 # occ.  0.00000000

ion      s     py     pz     px    dxy    dyz    dz2    dxz  x2-y2    tot
    1  0.011  0.053  0.050  0.007  0.000  0.000  0.000  0.000  0.000  0.121
    2  0.003  0.065  0.062  0.034  0.000  0.000  0.000  0.000  0.000  0.164
tot    0.014  0.118  0.112  0.041  0.000  0.000  0.000  0.000  0.000  0.285


 k-point   107 :    0.50000000 0.41666667 0.58333333     weight = 0.00416667

band     1 # energy   -3.68411126 # occ.  2.00000000

ion      s     py     pz     px    dxy    dyz    dz2    dxz  x2-y2    tot
    1  0.221  0.006  0.006  0.004  0.000  0.000  0.000  0.000  0.000  0.238
    2  0.221  0.006  0.006  0.004  0.000  0.000  0.000  0.000  0.000  0.238
tot    0.442  0.013  0.013  0.008  0.000  0.000  0.000  0.000  0.000  0.476

band     2 # energy   -1.15283097 # occ.  2.00000000

ion      s     py     pz     px    dxy    dyz    dz2    dxz  x2-y2    tot
    1  0.113  0.030  0.030  0.027  0.000  0.000  0.000  0.000  0.000  0.201
    2  0.113  0.030  0.030  0.027  0.000  0.000  0.000  0.000  0.000  0.201
tot    0.227  0.060  0.060  0.053  0.000  0.000  0.000  0.000  0.000  0.401

band     3 # energy    3.05596476 # occ.  2.00000000

ion      s     py     pz     px    dxy    dyz    dz2    dxz  x2-y2    tot
    1  0.041  0.071  0.071  0.018  0.000  0.000  0.000  0.000  0.000  0.199
    2  0.041  0.071  0.071  0.018  0.000  0.000  0.000  0.000  0.000  0.199
tot    0.081  0.141  0.141  0.035  0.000  0.000  0.000  0.000  0.000  0.398

band     4 # energy    3.99976991 # occ.  2.00000000

ion      s     py     pz     px    dxy    dyz    dz2    dxz  x2-y2    tot
    1  0.000  0.040  0.040  0.123  0.000  0.000  0.000  0.000  0.000  0.204
    2  0.000  0.040  0.040  0.123  0.000  0.000  0.000  0.000  0.000  0.204
tot    0.001  0.080  0.080  0.246  0.000  0.000  0.000  0.000  0.000  0.407

band     5 # energy    8.14210335 # occ.  0.00000000

ion      s     py     pz     px    dxy    dyz    dz2    dxz  x2-y2    tot
    1  0.111  0.034  0.034  0.004  0.000  0.000  0.000  0.000  0.000  0.182
    2  0.111  0.034  0.034  0.004  0.000  0.000  0.000  0.000  0.000  0.182
tot    0.222  0.068  0.068  0.007  0.000  0.000  0.000  0.000  0.000  0.365

band     6 # energy    8.74539885 # occ.  0.00000000

ion      s     py     pz     px    dxy    dyz    dz2    dxz  x2-y2    tot
    1  0.006  0.030  0.030  0.024  0.000  0.000  0.000  0.000  0.000  0.090
    2  0.006  0.030  0.030  0.024  0.000  0.000  0.000  0.000  0.000  0.090
tot    0.011  0.060  0.060  0.048  0.000  0.000  0.000  0.000  0.000  0.179

band     7 # energy   10.07865599 # occ.  0.00000000

ion      s     py     pz     px    dxy    dyz    dz2    dxz  x2-y2    tot
    1  0.016  0.026  0.026  0.056  0.000  0.000  0.000  0.000  0.000  0.124
    2  0.016  0.026  0.026  0.056  0.000  0.000  0.000  0.000  0.000  0.124
tot    0.031  0.052  0.052  0.113  0.000  0.000  0.000  0.000  0.000  0.247

band     8 # energy   13.60759680 # occ.  0.00000000

ion      s     py     pz     px    dxy    dyz    dz2    dxz  x2-y2    tot
    1  0.005  0.057  0.052  0.015  0.000  0.000  0.000  0.000  0.000  0.130
    2  0.003  0.062  0.059  0.025  0.000  0.000  0.000  0.000  0.000  0.149
tot    0.009  0.120  0.111  0.039  0.000  0.000  0.000  0.000  0.000  0.279


 k-point   108 :    0.50000000 0.42307692 0.57692308     weight = 0.00416667

band     1 # energy   -3.71905959 # occ.  2.00000000

ion      s     py     pz     px    dxy    dyz    dz2    dxz  x2-y2    tot
    1  0.222  0.006  0.006  0.004  0.000  0.000  0.000  0.000  0.000  0.238
    2  0.222  0.006  0.006  0.004  0.000  0.000  0.000  0.000  0.000  0.238
tot    0.443  0.012  0.012  0.008  0.000  0.000  0.000  0.000  0.000  0.476

band     2 # energy   -1.16517872 # occ.  2.00000000

ion      s     py     pz     px    dxy    dyz    dz2    dxz  x2-y2    tot
    1  0.111  0.030  0.030  0.027  0.000  0.000  0.000  0.000  0.000  0.199
    2  0.111  0.030  0.030  0.027  0.000  0.000  0.000  0.000  0.000  0.199
tot    0.222  0.060  0.060  0.055  0.000  0.000  0.000  0.000  0.000  0.398

band     3 # energy    3.19634051 # occ.  2.00000000

ion      s     py     pz     px    dxy    dyz    dz2    dxz  x2-y2    tot
    1  0.039  0.073  0.073  0.016  0.000  0.000  0.000  0.000  0.000  0.201
    2  0.039  0.073  0.073  0.016  0.000  0.000  0.000  0.000  0.000  0.201
tot    0.079  0.146  0.146  0.032  0.000  0.000  0.000  0.000  0.000  0.402

band     4 # energy    4.06250695 # occ.  2.00000000

ion      s     py     pz     px    dxy    dyz    dz2    dxz  x2-y2    tot
    1  0.000  0.040  0.040  0.126  0.000  0.000  0.000  0.000  0.000  0.205
    2  0.000  0.040  0.040  0.126  0.000  0.000  0.000  0.000  0.000  0.205
tot    0.000  0.079  0.079  0.251  0.000  0.000  0.000  0.000  0.000  0.410

band     5 # energy    8.05618406 # occ.  0.00000000

ion      s     py     pz     px    dxy    dyz    dz2    dxz  x2-y2    tot
    1  0.117  0.033  0.033  0.002  0.000  0.000  0.000  0.000  0.000  0.186
    2  0.117  0.033  0.033  0.002  0.000  0.000  0.000  0.000  0.000  0.186
tot    0.235  0.067  0.067  0.005  0.000  0.000  0.000  0.000  0.000  0.373

band     6 # energy    8.75919721 # occ.  0.00000000

ion      s     py     pz     px    dxy    dyz    dz2    dxz  x2-y2    tot
    1  0.005  0.032  0.032  0.021  0.000  0.000  0.000  0.000  0.000  0.090
    2  0.005  0.032  0.032  0.021  0.000  0.000  0.000  0.000  0.000  0.090
tot    0.010  0.063  0.063  0.042  0.000  0.000  0.000  0.000  0.000  0.179

band     7 # energy    9.90410561 # occ.  0.00000000

ion      s     py     pz     px    dxy    dyz    dz2    dxz  x2-y2    tot
    1  0.013  0.024  0.024  0.058  0.000  0.000  0.000  0.000  0.000  0.120
    2  0.013  0.024  0.024  0.058  0.000  0.000  0.000  0.000  0.000  0.120
tot    0.026  0.048  0.048  0.116  0.000  0.000  0.000  0.000  0.000  0.239

band     8 # energy   13.65907475 # occ.  0.00000000

ion      s     py     pz     px    dxy    dyz    dz2    dxz  x2-y2    tot
    1  0.002  0.056  0.059  0.024  0.000  0.000  0.000  0.000  0.000  0.140
    2  0.003  0.052  0.057  0.016  0.000  0.000  0.000  0.000  0.000  0.128
tot    0.005  0.108  0.115  0.040  0.000  0.000  0.000  0.000  0.000  0.268


 k-point   109 :    0.50000000 0.42948718 0.57051282     weight = 0.00416667

band     1 # energy   -3.75128103 # occ.  2.00000000

ion      s     py     pz     px    dxy    dyz    dz2    dxz  x2-y2    tot
    1  0.222  0.006  0.006  0.004  0.000  0.000  0.000  0.000  0.000  0.238
    2  0.222  0.006  0.006  0.004  0.000  0.000  0.000  0.000  0.000  0.238
tot    0.444  0.012  0.012  0.008  0.000  0.000  0.000  0.000  0.000  0.475

band     2 # energy   -1.17740818 # occ.  2.00000000

ion      s     py     pz     px    dxy    dyz    dz2    dxz  x2-y2    tot
    1  0.109  0.030  0.030  0.028  0.000  0.000  0.000  0.000  0.000  0.198
    2  0.109  0.030  0.030  0.028  0.000  0.000  0.000  0.000  0.000  0.198
tot    0.218  0.061  0.061  0.056  0.000  0.000  0.000  0.000  0.000  0.396

band     3 # energy    3.33764690 # occ.  2.00000000

ion      s     py     pz     px    dxy    dyz    dz2    dxz  x2-y2    tot
    1  0.038  0.075  0.075  0.014  0.000  0.000  0.000  0.000  0.000  0.203
    2  0.038  0.075  0.075  0.014  0.000  0.000  0.000  0.000  0.000  0.203
tot    0.075  0.151  0.151  0.028  0.000  0.000  0.000  0.000  0.000  0.405

band     4 # energy    4.12083491 # occ.  2.00000000

ion      s     py     pz     px    dxy    dyz    dz2    dxz  x2-y2    tot
    1  0.000  0.039  0.039  0.128  0.000  0.000  0.000  0.000  0.000  0.207
    2  0.000  0.039  0.039  0.128  0.000  0.000  0.000  0.000  0.000  0.207
tot    0.000  0.078  0.078  0.256  0.000  0.000  0.000  0.000  0.000  0.414

band     5 # energy    7.96570326 # occ.  0.00000000

ion      s     py     pz     px    dxy    dyz    dz2    dxz  x2-y2    tot
    1  0.124  0.033  0.033  0.001  0.000  0.000  0.000  0.000  0.000  0.190
    2  0.124  0.033  0.033  0.001  0.000  0.000  0.000  0.000  0.000  0.190
tot    0.248  0.065  0.065  0.002  0.000  0.000  0.000  0.000  0.000  0.381

band     6 # energy    8.77613756 # occ.  0.00000000

ion      s     py     pz     px    dxy    dyz    dz2    dxz  x2-y2    tot
    1  0.005  0.034  0.034  0.018  0.000  0.000  0.000  0.000  0.000  0.090
    2  0.005  0.034  0.034  0.018  0.000  0.000  0.000  0.000  0.000  0.090
tot    0.009  0.067  0.067  0.037  0.000  0.000  0.000  0.000  0.000  0.180

band     7 # energy    9.74338465 # occ.  0.00000000

ion      s     py     pz     px    dxy    dyz    dz2    dxz  x2-y2    tot
    1  0.011  0.022  0.022  0.060  0.000  0.000  0.000  0.000  0.000  0.115
    2  0.011  0.022  0.022  0.060  0.000  0.000  0.000  0.000  0.000  0.115
tot    0.022  0.045  0.045  0.120  0.000  0.000  0.000  0.000  0.000  0.231

band     8 # energy   13.67529940 # occ.  0.00000000

ion      s     py     pz     px    dxy    dyz    dz2    dxz  x2-y2    tot
    1  0.001  0.052  0.052  0.019  0.000  0.000  0.000  0.000  0.000  0.125
    2  0.001  0.053  0.053  0.021  0.000  0.000  0.000  0.000  0.000  0.127
tot    0.002  0.105  0.105  0.040  0.000  0.000  0.000  0.000  0.000  0.251


 k-point   110 :    0.50000000 0.43589744 0.56410256     weight = 0.00416667

band     1 # energy   -3.78075871 # occ.  2.00000000

ion      s     py     pz     px    dxy    dyz    dz2    dxz  x2-y2    tot
    1  0.222  0.006  0.006  0.004  0.000  0.000  0.000  0.000  0.000  0.237
    2  0.222  0.006  0.006  0.004  0.000  0.000  0.000  0.000  0.000  0.237
tot    0.444  0.011  0.011  0.008  0.000  0.000  0.000  0.000  0.000  0.475

band     2 # energy   -1.18927393 # occ.  2.00000000

ion      s     py     pz     px    dxy    dyz    dz2    dxz  x2-y2    tot
    1  0.107  0.030  0.030  0.028  0.000  0.000  0.000  0.000  0.000  0.197
    2  0.107  0.030  0.030  0.028  0.000  0.000  0.000  0.000  0.000  0.197
tot    0.215  0.061  0.061  0.057  0.000  0.000  0.000  0.000  0.000  0.393

band     3 # energy    3.47881201 # occ.  2.00000000

ion      s     py     pz     px    dxy    dyz    dz2    dxz  x2-y2    tot
    1  0.035  0.078  0.078  0.013  0.000  0.000  0.000  0.000  0.000  0.204
    2  0.035  0.078  0.078  0.013  0.000  0.000  0.000  0.000  0.000  0.204
tot    0.071  0.156  0.156  0.025  0.000  0.000  0.000  0.000  0.000  0.409

band     4 # energy    4.17456692 # occ.  2.00000000

ion      s     py     pz     px    dxy    dyz    dz2    dxz  x2-y2    tot
    1  0.000  0.039  0.039  0.131  0.000  0.000  0.000  0.000  0.000  0.208
    2  0.000  0.039  0.039  0.131  0.000  0.000  0.000  0.000  0.000  0.208
tot    0.000  0.078  0.078  0.261  0.000  0.000  0.000  0.000  0.000  0.417

band     5 # energy    7.87043789 # occ.  0.00000000

ion      s     py     pz     px    dxy    dyz    dz2    dxz  x2-y2    tot
    1  0.131  0.031  0.031  0.000  0.000  0.000  0.000  0.000  0.000  0.194
    2  0.131  0.031  0.031  0.000  0.000  0.000  0.000  0.000  0.000  0.194
tot    0.262  0.063  0.063  0.001  0.000  0.000  0.000  0.000  0.000  0.389

band     6 # energy    8.79577268 # occ.  0.00000000

ion      s     py     pz     px    dxy    dyz    dz2    dxz  x2-y2    tot
    1  0.004  0.035  0.035  0.015  0.000  0.000  0.000  0.000  0.000  0.090
    2  0.004  0.035  0.035  0.015  0.000  0.000  0.000  0.000  0.000  0.090
tot    0.008  0.071  0.071  0.031  0.000  0.000  0.000  0.000  0.000  0.181

band     7 # energy    9.59767557 # occ.  0.00000000

ion      s     py     pz     px    dxy    dyz    dz2    dxz  x2-y2    tot
    1  0.008  0.021  0.021  0.061  0.000  0.000  0.000  0.000  0.000  0.111
    2  0.008  0.021  0.021  0.061  0.000  0.000  0.000  0.000  0.000  0.111
tot    0.017  0.042  0.042  0.123  0.000  0.000  0.000  0.000  0.000  0.223

band     8 # energy   13.67368982 # occ.  0.00000000

ion      s     py     pz     px    dxy    dyz    dz2    dxz  x2-y2    tot
    1  0.000  0.048  0.048  0.020  0.000  0.000  0.000  0.000  0.000  0.116
    2  0.000  0.048  0.048  0.020  0.000  0.000  0.000  0.000  0.000  0.116
tot    0.000  0.096  0.096  0.040  0.000  0.000  0.000  0.000  0.000  0.232


 k-point   111 :    0.50000000 0.44230769 0.55769231     weight = 0.00416667

band     1 # energy   -3.80747663 # occ.  2.00000000

ion      s     py     pz     px    dxy    dyz    dz2    dxz  x2-y2    tot
    1  0.222  0.005  0.005  0.004  0.000  0.000  0.000  0.000  0.000  0.237
    2  0.222  0.005  0.005  0.004  0.000  0.000  0.000  0.000  0.000  0.237
tot    0.445  0.011  0.011  0.008  0.000  0.000  0.000  0.000  0.000  0.475

band     2 # energy   -1.20056489 # occ.  2.00000000

ion      s     py     pz     px    dxy    dyz    dz2    dxz  x2-y2    tot
    1  0.106  0.030  0.030  0.029  0.000  0.000  0.000  0.000  0.000  0.196
    2  0.106  0.030  0.030  0.029  0.000  0.000  0.000  0.000  0.000  0.196
tot    0.212  0.061  0.061  0.058  0.000  0.000  0.000  0.000  0.000  0.391

band     3 # energy    3.61855376 # occ.  2.00000000

ion      s     py     pz     px    dxy    dyz    dz2    dxz  x2-y2    tot
    1  0.033  0.081  0.081  0.011  0.000  0.000  0.000  0.000  0.000  0.206
    2  0.033  0.081  0.081  0.011  0.000  0.000  0.000  0.000  0.000  0.206
tot    0.065  0.162  0.162  0.022  0.000  0.000  0.000  0.000  0.000  0.412

band     4 # energy    4.22351197 # occ.  2.00000000

ion      s     py     pz     px    dxy    dyz    dz2    dxz  x2-y2    tot
    1  0.000  0.038  0.038  0.133  0.000  0.000  0.000  0.000  0.000  0.210
    2  0.000  0.038  0.038  0.133  0.000  0.000  0.000  0.000  0.000  0.210
tot    0.000  0.077  0.077  0.266  0.000  0.000  0.000  0.000  0.000  0.419

band     5 # energy    7.77068514 # occ.  0.00000000

ion      s     py     pz     px    dxy    dyz    dz2    dxz  x2-y2    tot
    1  0.138  0.030  0.030  0.000  0.000  0.000  0.000  0.000  0.000  0.198
    2  0.138  0.030  0.030  0.000  0.000  0.000  0.000  0.000  0.000  0.198
tot    0.276  0.060  0.060  0.000  0.000  0.000  0.000  0.000  0.000  0.395

band     6 # energy    8.81735946 # occ.  0.00000000

ion      s     py     pz     px    dxy    dyz    dz2    dxz  x2-y2    tot
    1  0.004  0.037  0.037  0.013  0.000  0.000  0.000  0.000  0.000  0.091
    2  0.004  0.037  0.037  0.013  0.000  0.000  0.000  0.000  0.000  0.091
tot    0.007  0.074  0.074  0.026  0.000  0.000  0.000  0.000  0.000  0.182

band     7 # energy    9.46774955 # occ.  0.00000000

ion      s     py     pz     px    dxy    dyz    dz2    dxz  x2-y2    tot
    1  0.006  0.019  0.019  0.063  0.000  0.000  0.000  0.000  0.000  0.108
    2  0.006  0.019  0.019  0.063  0.000  0.000  0.000  0.000  0.000  0.108
tot    0.012  0.039  0.039  0.125  0.000  0.000  0.000  0.000  0.000  0.215

band     8 # energy   13.65081281 # occ.  0.00000000

ion      s     py     pz     px    dxy    dyz    dz2    dxz  x2-y2    tot
    1  0.000  0.043  0.043  0.020  0.000  0.000  0.000  0.000  0.000  0.105
    2  0.000  0.043  0.043  0.020  0.000  0.000  0.000  0.000  0.000  0.106
tot    0.000  0.086  0.086  0.039  0.000  0.000  0.000  0.000  0.000  0.211


 k-point   112 :    0.50000000 0.44871795 0.55128205     weight = 0.00416667

band     1 # energy   -3.83141344 # occ.  2.00000000

ion      s     py     pz     px    dxy    dyz    dz2    dxz  x2-y2    tot
    1  0.223  0.005  0.005  0.004  0.000  0.000  0.000  0.000  0.000  0.237
    2  0.223  0.005  0.005  0.004  0.000  0.000  0.000  0.000  0.000  0.237
tot    0.445  0.010  0.010  0.008  0.000  0.000  0.000  0.000  0.000  0.475

band     2 # energy   -1.21109962 # occ.  2.00000000

ion      s     py     pz     px    dxy    dyz    dz2    dxz  x2-y2    tot
    1  0.105  0.031  0.031  0.029  0.000  0.000  0.000  0.000  0.000  0.195
    2  0.105  0.031  0.031  0.029  0.000  0.000  0.000  0.000  0.000  0.195
tot    0.209  0.061  0.061  0.059  0.000  0.000  0.000  0.000  0.000  0.390

band     3 # energy    3.75535923 # occ.  2.00000000

ion      s     py     pz     px    dxy    dyz    dz2    dxz  x2-y2    tot
    1  0.029  0.084  0.084  0.009  0.000  0.000  0.000  0.000  0.000  0.207
    2  0.029  0.084  0.084  0.009  0.000  0.000  0.000  0.000  0.000  0.207
tot    0.059  0.169  0.169  0.019  0.000  0.000  0.000  0.000  0.000  0.415

band     4 # energy    4.26755935 # occ.  2.00000000

ion      s     py     pz     px    dxy    dyz    dz2    dxz  x2-y2    tot
    1  0.000  0.038  0.038  0.135  0.000  0.000  0.000  0.000  0.000  0.211
    2  0.000  0.038  0.038  0.135  0.000  0.000  0.000  0.000  0.000  0.211
tot    0.000  0.076  0.076  0.270  0.000  0.000  0.000  0.000  0.000  0.422

band     5 # energy    7.66743812 # occ.  0.00000000

ion      s     py     pz     px    dxy    dyz    dz2    dxz  x2-y2    tot
    1  0.145  0.028  0.028  0.000  0.000  0.000  0.000  0.000  0.000  0.201
    2  0.145  0.028  0.028  0.000  0.000  0.000  0.000  0.000  0.000  0.201
tot    0.290  0.055  0.055  0.000  0.000  0.000  0.000  0.000  0.000  0.401

band     6 # energy    8.84016807 # occ.  0.00000000

ion      s     py     pz     px    dxy    dyz    dz2    dxz  x2-y2    tot
    1  0.003  0.039  0.039  0.010  0.000  0.000  0.000  0.000  0.000  0.091
    2  0.003  0.039  0.039  0.010  0.000  0.000  0.000  0.000  0.000  0.091
tot    0.006  0.078  0.078  0.021  0.000  0.000  0.000  0.000  0.000  0.183

band     7 # energy    9.35404594 # occ.  0.00000000

ion      s     py     pz     px    dxy    dyz    dz2    dxz  x2-y2    tot
    1  0.004  0.018  0.018  0.063  0.000  0.000  0.000  0.000  0.000  0.104
    2  0.004  0.018  0.018  0.063  0.000  0.000  0.000  0.000  0.000  0.104
tot    0.008  0.037  0.037  0.127  0.000  0.000  0.000  0.000  0.000  0.208

band     8 # energy   13.61198348 # occ.  0.00000000

ion      s     py     pz     px    dxy    dyz    dz2    dxz  x2-y2    tot
    1  0.000  0.038  0.038  0.019  0.000  0.000  0.000  0.000  0.000  0.096
    2  0.000  0.038  0.038  0.019  0.000  0.000  0.000  0.000  0.000  0.095
tot    0.001  0.076  0.076  0.038  0.000  0.000  0.000  0.000  0.000  0.191


 k-point   113 :    0.50000000 0.45512821 0.54487179     weight = 0.00416667

band     1 # energy   -3.85256067 # occ.  2.00000000

ion      s     py     pz     px    dxy    dyz    dz2    dxz  x2-y2    tot
    1  0.223  0.005  0.005  0.004  0.000  0.000  0.000  0.000  0.000  0.237
    2  0.223  0.005  0.005  0.004  0.000  0.000  0.000  0.000  0.000  0.237
tot    0.446  0.010  0.010  0.008  0.000  0.000  0.000  0.000  0.000  0.474

band     2 # energy   -1.22072397 # occ.  2.00000000

ion      s     py     pz     px    dxy    dyz    dz2    dxz  x2-y2    tot
    1  0.103  0.031  0.031  0.030  0.000  0.000  0.000  0.000  0.000  0.194
    2  0.103  0.031  0.031  0.030  0.000  0.000  0.000  0.000  0.000  0.194
tot    0.207  0.061  0.061  0.059  0.000  0.000  0.000  0.000  0.000  0.388

band     3 # energy    3.88739120 # occ.  2.00000000

ion      s     py     pz     px    dxy    dyz    dz2    dxz  x2-y2    tot
    1  0.026  0.088  0.088  0.008  0.000  0.000  0.000  0.000  0.000  0.209
    2  0.026  0.088  0.088  0.008  0.000  0.000  0.000  0.000  0.000  0.209
tot    0.051  0.176  0.176  0.015  0.000  0.000  0.000  0.000  0.000  0.418

band     4 # energy    4.30658919 # occ.  2.00000000

ion      s     py     pz     px    dxy    dyz    dz2    dxz  x2-y2    tot
    1  0.000  0.037  0.037  0.137  0.000  0.000  0.000  0.000  0.000  0.212
    2  0.000  0.037  0.037  0.137  0.000  0.000  0.000  0.000  0.000  0.212
tot    0.000  0.075  0.075  0.274  0.000  0.000  0.000  0.000  0.000  0.424

band     5 # energy    7.56249079 # occ.  0.00000000

ion      s     py     pz     px    dxy    dyz    dz2    dxz  x2-y2    tot
    1  0.152  0.025  0.025  0.001  0.000  0.000  0.000  0.000  0.000  0.203
    2  0.152  0.025  0.025  0.001  0.000  0.000  0.000  0.000  0.000  0.203
tot    0.304  0.050  0.050  0.001  0.000  0.000  0.000  0.000  0.000  0.406

band     6 # energy    8.86332544 # occ.  0.00000000

ion      s     py     pz     px    dxy    dyz    dz2    dxz  x2-y2    tot
    1  0.002  0.041  0.041  0.008  0.000  0.000  0.000  0.000  0.000  0.092
    2  0.002  0.041  0.041  0.008  0.000  0.000  0.000  0.000  0.000  0.092
tot    0.005  0.081  0.081  0.016  0.000  0.000  0.000  0.000  0.000  0.184

band     7 # energy    9.25642948 # occ.  0.00000000

ion      s     py     pz     px    dxy    dyz    dz2    dxz  x2-y2    tot
    1  0.003  0.017  0.017  0.064  0.000  0.000  0.000  0.000  0.000  0.101
    2  0.003  0.017  0.017  0.064  0.000  0.000  0.000  0.000  0.000  0.101
tot    0.005  0.035  0.035  0.128  0.000  0.000  0.000  0.000  0.000  0.203

band     8 # energy   13.56323875 # occ.  0.00000000

ion      s     py     pz     px    dxy    dyz    dz2    dxz  x2-y2    tot
    1  0.001  0.033  0.033  0.019  0.000  0.000  0.000  0.000  0.000  0.087
    2  0.001  0.033  0.033  0.019  0.000  0.000  0.000  0.000  0.000  0.087
tot    0.002  0.067  0.066  0.038  0.000  0.000  0.000  0.000  0.000  0.173


 k-point   114 :    0.50000000 0.46153846 0.53846154     weight = 0.00416667

band     1 # energy   -3.87091016 # occ.  2.00000000

ion      s     py     pz     px    dxy    dyz    dz2    dxz  x2-y2    tot
    1  0.223  0.005  0.005  0.004  0.000  0.000  0.000  0.000  0.000  0.237
    2  0.223  0.005  0.005  0.004  0.000  0.000  0.000  0.000  0.000  0.237
tot    0.446  0.010  0.010  0.009  0.000  0.000  0.000  0.000  0.000  0.474

band     2 # energy   -1.22930889 # occ.  2.00000000

ion      s     py     pz     px    dxy    dyz    dz2    dxz  x2-y2    tot
    1  0.102  0.031  0.031  0.030  0.000  0.000  0.000  0.000  0.000  0.193
    2  0.102  0.031  0.031  0.030  0.000  0.000  0.000  0.000  0.000  0.193
tot    0.205  0.061  0.061  0.060  0.000  0.000  0.000  0.000  0.000  0.387

band     3 # energy    4.01238470 # occ.  2.00000000

ion      s     py     pz     px    dxy    dyz    dz2    dxz  x2-y2    tot
    1  0.021  0.091  0.091  0.006  0.000  0.000  0.000  0.000  0.000  0.210
    2  0.021  0.091  0.091  0.006  0.000  0.000  0.000  0.000  0.000  0.210
tot    0.043  0.183  0.183  0.012  0.000  0.000  0.000  0.000  0.000  0.420

band     4 # energy    4.34051921 # occ.  2.00000000

ion      s     py     pz     px    dxy    dyz    dz2    dxz  x2-y2    tot
    1  0.000  0.037  0.037  0.139  0.000  0.000  0.000  0.000  0.000  0.213
    2  0.000  0.037  0.037  0.139  0.000  0.000  0.000  0.000  0.000  0.213
tot    0.000  0.074  0.074  0.277  0.000  0.000  0.000  0.000  0.000  0.426

band     5 # energy    7.45854355 # occ.  0.00000000

ion      s     py     pz     px    dxy    dyz    dz2    dxz  x2-y2    tot
    1  0.159  0.022  0.022  0.001  0.000  0.000  0.000  0.000  0.000  0.204
    2  0.159  0.022  0.022  0.001  0.000  0.000  0.000  0.000  0.000  0.204
tot    0.317  0.044  0.044  0.003  0.000  0.000  0.000  0.000  0.000  0.409

band     6 # energy    8.88600107 # occ.  0.00000000

ion      s     py     pz     px    dxy    dyz    dz2    dxz  x2-y2    tot
    1  0.002  0.042  0.042  0.006  0.000  0.000  0.000  0.000  0.000  0.093
    2  0.002  0.042  0.042  0.006  0.000  0.000  0.000  0.000  0.000  0.093
tot    0.004  0.085  0.085  0.012  0.000  0.000  0.000  0.000  0.000  0.185

band     7 # energy    9.17447136 # occ.  0.00000000

ion      s     py     pz     px    dxy    dyz    dz2    dxz  x2-y2    tot
    1  0.001  0.017  0.017  0.064  0.000  0.000  0.000  0.000  0.000  0.099
    2  0.001  0.017  0.017  0.064  0.000  0.000  0.000  0.000  0.000  0.099
tot    0.003  0.034  0.034  0.128  0.000  0.000  0.000  0.000  0.000  0.199

band     8 # energy   13.51037279 # occ.  0.00000000

ion      s     py     pz     px    dxy    dyz    dz2    dxz  x2-y2    tot
    1  0.002  0.029  0.029  0.019  0.000  0.000  0.000  0.000  0.000  0.079
    2  0.002  0.029  0.029  0.019  0.000  0.000  0.000  0.000  0.000  0.079
tot    0.004  0.058  0.058  0.037  0.000  0.000  0.000  0.000  0.000  0.158


 k-point   115 :    0.50000000 0.46794872 0.53205128     weight = 0.00416667

band     1 # energy   -3.88645292 # occ.  2.00000000

ion      s     py     pz     px    dxy    dyz    dz2    dxz  x2-y2    tot
    1  0.223  0.005  0.005  0.004  0.000  0.000  0.000  0.000  0.000  0.237
    2  0.223  0.005  0.005  0.004  0.000  0.000  0.000  0.000  0.000  0.237
tot    0.447  0.009  0.009  0.009  0.000  0.000  0.000  0.000  0.000  0.474

band     2 # energy   -1.23674733 # occ.  2.00000000

ion      s     py     pz     px    dxy    dyz    dz2    dxz  x2-y2    tot
    1  0.102  0.031  0.031  0.030  0.000  0.000  0.000  0.000  0.000  0.193
    2  0.102  0.031  0.031  0.030  0.000  0.000  0.000  0.000  0.000  0.193
tot    0.203  0.061  0.061  0.060  0.000  0.000  0.000  0.000  0.000  0.386

band     3 # energy    4.12761327 # occ.  2.00000000

ion      s     py     pz     px    dxy    dyz    dz2    dxz  x2-y2    tot
    1  0.017  0.095  0.095  0.005  0.000  0.000  0.000  0.000  0.000  0.212
    2  0.017  0.095  0.095  0.005  0.000  0.000  0.000  0.000  0.000  0.212
tot    0.033  0.190  0.190  0.009  0.000  0.000  0.000  0.000  0.000  0.423

band     4 # energy    4.36928862 # occ.  2.00000000

ion      s     py     pz     px    dxy    dyz    dz2    dxz  x2-y2    tot
    1  0.000  0.037  0.037  0.140  0.000  0.000  0.000  0.000  0.000  0.214
    2  0.000  0.037  0.037  0.140  0.000  0.000  0.000  0.000  0.000  0.214
tot    0.000  0.073  0.073  0.280  0.000  0.000  0.000  0.000  0.000  0.427

band     5 # energy    7.35900121 # occ.  0.00000000

ion      s     py     pz     px    dxy    dyz    dz2    dxz  x2-y2    tot
    1  0.165  0.019  0.019  0.003  0.000  0.000  0.000  0.000  0.000  0.205
    2  0.165  0.019  0.019  0.003  0.000  0.000  0.000  0.000  0.000  0.205
tot    0.330  0.038  0.038  0.005  0.000  0.000  0.000  0.000  0.000  0.411

band     6 # energy    8.90709967 # occ.  0.00000000

ion      s     py     pz     px    dxy    dyz    dz2    dxz  x2-y2    tot
    1  0.001  0.044  0.044  0.004  0.000  0.000  0.000  0.000  0.000  0.093
    2  0.001  0.044  0.044  0.004  0.000  0.000  0.000  0.000  0.000  0.093
tot    0.003  0.088  0.088  0.009  0.000  0.000  0.000  0.000  0.000  0.187

band     7 # energy    9.10728767 # occ.  0.00000000

ion      s     py     pz     px    dxy    dyz    dz2    dxz  x2-y2    tot
    1  0.001  0.016  0.016  0.064  0.000  0.000  0.000  0.000  0.000  0.098
    2  0.001  0.016  0.016  0.064  0.000  0.000  0.000  0.000  0.000  0.098
tot    0.001  0.033  0.033  0.128  0.000  0.000  0.000  0.000  0.000  0.195

band     8 # energy   13.45823009 # occ.  0.00000000

ion      s     py     pz     px    dxy    dyz    dz2    dxz  x2-y2    tot
    1  0.003  0.026  0.026  0.018  0.000  0.000  0.000  0.000  0.000  0.073
    2  0.003  0.026  0.026  0.018  0.000  0.000  0.000  0.000  0.000  0.073
tot    0.006  0.052  0.052  0.037  0.000  0.000  0.000  0.000  0.000  0.146


 k-point   116 :    0.50000000 0.47435897 0.52564103     weight = 0.00416667

band     1 # energy   -3.89917615 # occ.  2.00000000

ion      s     py     pz     px    dxy    dyz    dz2    dxz  x2-y2    tot
    1  0.223  0.005  0.005  0.004  0.000  0.000  0.000  0.000  0.000  0.237
    2  0.223  0.005  0.005  0.004  0.000  0.000  0.000  0.000  0.000  0.237
tot    0.447  0.009  0.009  0.009  0.000  0.000  0.000  0.000  0.000  0.474

band     2 # energy   -1.24294688 # occ.  2.00000000

ion      s     py     pz     px    dxy    dyz    dz2    dxz  x2-y2    tot
    1  0.101  0.031  0.031  0.030  0.000  0.000  0.000  0.000  0.000  0.193
    2  0.101  0.031  0.031  0.030  0.000  0.000  0.000  0.000  0.000  0.193
tot    0.202  0.061  0.061  0.061  0.000  0.000  0.000  0.000  0.000  0.385

band     3 # energy    4.22984695 # occ.  2.00000000

ion      s     py     pz     px    dxy    dyz    dz2    dxz  x2-y2    tot
    1  0.012  0.099  0.099  0.003  0.000  0.000  0.000  0.000  0.000  0.213
    2  0.012  0.099  0.099  0.003  0.000  0.000  0.000  0.000  0.000  0.213
tot    0.024  0.198  0.198  0.006  0.000  0.000  0.000  0.000  0.000  0.426

band     4 # energy    4.39287487 # occ.  2.00000000

ion      s     py     pz     px    dxy    dyz    dz2    dxz  x2-y2    tot
    1  0.000  0.036  0.036  0.141  0.000  0.000  0.000  0.000  0.000  0.214
    2  0.000  0.036  0.036  0.141  0.000  0.000  0.000  0.000  0.000  0.214
tot    0.000  0.073  0.073  0.283  0.000  0.000  0.000  0.000  0.000  0.428

band     5 # energy    7.26805125 # occ.  0.00000000

ion      s     py     pz     px    dxy    dyz    dz2    dxz  x2-y2    tot
    1  0.171  0.015  0.015  0.004  0.000  0.000  0.000  0.000  0.000  0.206
    2  0.171  0.015  0.015  0.004  0.000  0.000  0.000  0.000  0.000  0.206
tot    0.342  0.031  0.031  0.008  0.000  0.000  0.000  0.000  0.000  0.412

band     6 # energy    8.92600560 # occ.  0.00000000

ion      s     py     pz     px    dxy    dyz    dz2    dxz  x2-y2    tot
    1  0.001  0.045  0.045  0.003  0.000  0.000  0.000  0.000  0.000  0.094
    2  0.001  0.045  0.045  0.003  0.000  0.000  0.000  0.000  0.000  0.094
tot    0.002  0.090  0.090  0.006  0.000  0.000  0.000  0.000  0.000  0.188

band     7 # energy    9.05402783 # occ.  0.00000000

ion      s     py     pz     px    dxy    dyz    dz2    dxz  x2-y2    tot
    1  0.000  0.016  0.016  0.064  0.000  0.000  0.000  0.000  0.000  0.097
    2  0.000  0.016  0.016  0.064  0.000  0.000  0.000  0.000  0.000  0.097
tot    0.001  0.032  0.032  0.128  0.000  0.000  0.000  0.000  0.000  0.193

band     8 # energy   13.41073589 # occ.  0.00000000

ion      s     py     pz     px    dxy    dyz    dz2    dxz  x2-y2    tot
    1  0.004  0.023  0.023  0.018  0.000  0.000  0.000  0.000  0.000  0.068
    2  0.004  0.023  0.023  0.018  0.000  0.000  0.000  0.000  0.000  0.068
tot    0.008  0.046  0.046  0.037  0.000  0.000  0.000  0.000  0.000  0.136


 k-point   117 :    0.50000000 0.48076923 0.51923077     weight = 0.00416667

band     1 # energy   -3.90908115 # occ.  2.00000000

ion      s     py     pz     px    dxy    dyz    dz2    dxz  x2-y2    tot
    1  0.223  0.005  0.005  0.004  0.000  0.000  0.000  0.000  0.000  0.237
    2  0.223  0.005  0.005  0.004  0.000  0.000  0.000  0.000  0.000  0.237
tot    0.447  0.009  0.009  0.009  0.000  0.000  0.000  0.000  0.000  0.474

band     2 # energy   -1.24784160 # occ.  2.00000000

ion      s     py     pz     px    dxy    dyz    dz2    dxz  x2-y2    tot
    1  0.100  0.031  0.031  0.030  0.000  0.000  0.000  0.000  0.000  0.192
    2  0.100  0.031  0.031  0.030  0.000  0.000  0.000  0.000  0.000  0.192
tot    0.201  0.061  0.061  0.061  0.000  0.000  0.000  0.000  0.000  0.384

band     3 # energy    4.31535598 # occ.  2.00000000

ion      s     py     pz     px    dxy    dyz    dz2    dxz  x2-y2    tot
    1  0.007  0.102  0.102  0.002  0.000  0.000  0.000  0.000  0.000  0.214
    2  0.007  0.102  0.102  0.002  0.000  0.000  0.000  0.000  0.000  0.214
tot    0.015  0.204  0.204  0.004  0.000  0.000  0.000  0.000  0.000  0.428

band     4 # energy    4.41122679 # occ.  2.00000000

ion      s     py     pz     px    dxy    dyz    dz2    dxz  x2-y2    tot
    1  0.000  0.036  0.036  0.142  0.000  0.000  0.000  0.000  0.000  0.215
    2  0.000  0.036  0.036  0.142  0.000  0.000  0.000  0.000  0.000  0.215
tot    0.000  0.072  0.072  0.285  0.000  0.000  0.000  0.000  0.000  0.429

band     5 # energy    7.19021726 # occ.  0.00000000

ion      s     py     pz     px    dxy    dyz    dz2    dxz  x2-y2    tot
    1  0.176  0.012  0.012  0.005  0.000  0.000  0.000  0.000  0.000  0.206
    2  0.176  0.012  0.012  0.005  0.000  0.000  0.000  0.000  0.000  0.206
tot    0.353  0.024  0.024  0.010  0.000  0.000  0.000  0.000  0.000  0.412

band     6 # energy    8.94162469 # occ.  0.00000000

ion      s     py     pz     px    dxy    dyz    dz2    dxz  x2-y2    tot
    1  0.001  0.046  0.046  0.002  0.000  0.000  0.000  0.000  0.000  0.094
    2  0.001  0.046  0.046  0.002  0.000  0.000  0.000  0.000  0.000  0.094
tot    0.001  0.092  0.092  0.003  0.000  0.000  0.000  0.000  0.000  0.189

band     7 # energy    9.01369006 # occ.  0.00000000

ion      s     py     pz     px    dxy    dyz    dz2    dxz  x2-y2    tot
    1  0.000  0.016  0.016  0.064  0.000  0.000  0.000  0.000  0.000  0.096
    2  0.000  0.016  0.016  0.064  0.000  0.000  0.000  0.000  0.000  0.096
tot    0.000  0.032  0.032  0.128  0.000  0.000  0.000  0.000  0.000  0.192

band     8 # energy   13.37086140 # occ.  0.00000000

ion      s     py     pz     px    dxy    dyz    dz2    dxz  x2-y2    tot
    1  0.004  0.021  0.021  0.018  0.000  0.000  0.000  0.000  0.000  0.064
    2  0.004  0.021  0.021  0.018  0.000  0.000  0.000  0.000  0.000  0.064
tot    0.009  0.042  0.042  0.036  0.000  0.000  0.000  0.000  0.000  0.129


 k-point   118 :    0.50000000 0.48717949 0.51282051     weight = 0.00416667

band     1 # energy   -3.91615981 # occ.  2.00000000

ion      s     py     pz     px    dxy    dyz    dz2    dxz  x2-y2    tot
    1  0.224  0.004  0.004  0.004  0.000  0.000  0.000  0.000  0.000  0.237
    2  0.224  0.004  0.004  0.004  0.000  0.000  0.000  0.000  0.000  0.237
tot    0.447  0.009  0.009  0.009  0.000  0.000  0.000  0.000  0.000  0.474

band     2 # energy   -1.25137388 # occ.  2.00000000

ion      s     py     pz     px    dxy    dyz    dz2    dxz  x2-y2    tot
    1  0.100  0.031  0.031  0.031  0.000  0.000  0.000  0.000  0.000  0.192
    2  0.100  0.031  0.031  0.031  0.000  0.000  0.000  0.000  0.000  0.192
tot    0.200  0.061  0.061  0.061  0.000  0.000  0.000  0.000  0.000  0.384

band     3 # energy    4.38025579 # occ.  2.00000000

ion      s     py     pz     px    dxy    dyz    dz2    dxz  x2-y2    tot
    1  0.004  0.105  0.105  0.001  0.000  0.000  0.000  0.000  0.000  0.215
    2  0.004  0.105  0.105  0.001  0.000  0.000  0.000  0.000  0.000  0.215
tot    0.007  0.210  0.210  0.002  0.000  0.000  0.000  0.000  0.000  0.429

band     4 # energy    4.42433680 # occ.  2.00000000

ion      s     py     pz     px    dxy    dyz    dz2    dxz  x2-y2    tot
    1  0.000  0.036  0.036  0.143  0.000  0.000  0.000  0.000  0.000  0.215
    2  0.000  0.036  0.036  0.143  0.000  0.000  0.000  0.000  0.000  0.215
tot    0.000  0.072  0.072  0.286  0.000  0.000  0.000  0.000  0.000  0.430

band     5 # energy    7.13020333 # occ.  0.00000000

ion      s     py     pz     px    dxy    dyz    dz2    dxz  x2-y2    tot
    1  0.181  0.009  0.009  0.006  0.000  0.000  0.000  0.000  0.000  0.206
    2  0.181  0.009  0.009  0.006  0.000  0.000  0.000  0.000  0.000  0.206
tot    0.362  0.019  0.019  0.012  0.000  0.000  0.000  0.000  0.000  0.412

band     6 # energy    8.95340684 # occ.  0.00000000

ion      s     py     pz     px    dxy    dyz    dz2    dxz  x2-y2    tot
    1  0.000  0.047  0.047  0.001  0.000  0.000  0.000  0.000  0.000  0.095
    2  0.000  0.047  0.047  0.001  0.000  0.000  0.000  0.000  0.000  0.095
tot    0.000  0.094  0.094  0.001  0.000  0.000  0.000  0.000  0.000  0.190

band     7 # energy    8.98536424 # occ.  0.00000000

ion      s     py     pz     px    dxy    dyz    dz2    dxz  x2-y2    tot
    1  0.000  0.016  0.016  0.064  0.000  0.000  0.000  0.000  0.000  0.095
    2  0.000  0.016  0.016  0.064  0.000  0.000  0.000  0.000  0.000  0.095
tot    0.000  0.032  0.032  0.127  0.000  0.000  0.000  0.000  0.000  0.191

band     8 # energy   13.34085904 # occ.  0.00000000

ion      s     py     pz     px    dxy    dyz    dz2    dxz  x2-y2    tot
    1  0.005  0.019  0.019  0.018  0.000  0.000  0.000  0.000  0.000  0.062
    2  0.005  0.019  0.019  0.018  0.000  0.000  0.000  0.000  0.000  0.062
tot    0.010  0.039  0.039  0.036  0.000  0.000  0.000  0.000  0.000  0.124


 k-point   119 :    0.50000000 0.49358974 0.50641026     weight = 0.00416667

band     1 # energy   -3.92040779 # occ.  2.00000000

ion      s     py     pz     px    dxy    dyz    dz2    dxz  x2-y2    tot
    1  0.224  0.004  0.004  0.004  0.000  0.000  0.000  0.000  0.000  0.237
    2  0.224  0.004  0.004  0.004  0.000  0.000  0.000  0.000  0.000  0.237
tot    0.447  0.009  0.009  0.009  0.000  0.000  0.000  0.000  0.000  0.474

band     2 # energy   -1.25350784 # occ.  2.00000000

ion      s     py     pz     px    dxy    dyz    dz2    dxz  x2-y2    tot
    1  0.100  0.031  0.031  0.031  0.000  0.000  0.000  0.000  0.000  0.192
    2  0.100  0.031  0.031  0.031  0.000  0.000  0.000  0.000  0.000  0.192
tot    0.200  0.061  0.061  0.061  0.000  0.000  0.000  0.000  0.000  0.384

band     3 # energy    4.42094879 # occ.  2.00000000

ion      s     py     pz     px    dxy    dyz    dz2    dxz  x2-y2    tot
    1  0.001  0.107  0.107  0.000  0.000  0.000  0.000  0.000  0.000  0.215
    2  0.001  0.107  0.107  0.000  0.000  0.000  0.000  0.000  0.000  0.215
tot    0.002  0.214  0.214  0.000  0.000  0.000  0.000  0.000  0.000  0.430

band     4 # energy    4.43220817 # occ.  2.00000000

ion      s     py     pz     px    dxy    dyz    dz2    dxz  x2-y2    tot
    1  0.000  0.036  0.036  0.143  0.000  0.000  0.000  0.000  0.000  0.215
    2  0.000  0.036  0.036  0.143  0.000  0.000  0.000  0.000  0.000  0.215
tot    0.000  0.072  0.072  0.287  0.000  0.000  0.000  0.000  0.000  0.431

band     5 # energy    7.09221012 # occ.  0.00000000

ion      s     py     pz     px    dxy    dyz    dz2    dxz  x2-y2    tot
    1  0.184  0.008  0.008  0.007  0.000  0.000  0.000  0.000  0.000  0.206
    2  0.184  0.008  0.008  0.007  0.000  0.000  0.000  0.000  0.000  0.206
tot    0.368  0.015  0.015  0.013  0.000  0.000  0.000  0.000  0.000  0.411

band     6 # energy    8.96072338 # occ.  0.00000000

ion      s     py     pz     px    dxy    dyz    dz2    dxz  x2-y2    tot
    1  0.000  0.047  0.047  0.000  0.000  0.000  0.000  0.000  0.000  0.095
    2  0.000  0.047  0.047  0.000  0.000  0.000  0.000  0.000  0.000  0.095
tot    0.000  0.095  0.095  0.000  0.000  0.000  0.000  0.000  0.000  0.190

band     7 # energy    8.96871113 # occ.  0.00000000

ion      s     py     pz     px    dxy    dyz    dz2    dxz  x2-y2    tot
    1  0.000  0.016  0.016  0.063  0.000  0.000  0.000  0.000  0.000  0.095
    2  0.000  0.016  0.016  0.063  0.000  0.000  0.000  0.000  0.000  0.095
tot    0.000  0.032  0.032  0.127  0.000  0.000  0.000  0.000  0.000  0.190

band     8 # energy   13.32226389 # occ.  0.00000000

ion      s     py     pz     px    dxy    dyz    dz2    dxz  x2-y2    tot
    1  0.005  0.018  0.018  0.018  0.000  0.000  0.000  0.000  0.000  0.060
    2  0.005  0.018  0.018  0.018  0.000  0.000  0.000  0.000  0.000  0.060
tot    0.011  0.037  0.037  0.036  0.000  0.000  0.000  0.000  0.000  0.121


 k-point   120 :    0.50000000 0.50000000 0.50000000     weight = 0.00416667

band     1 # energy   -3.92182399 # occ.  2.00000000

ion      s     py     pz     px    dxy    dyz    dz2    dxz  x2-y2    tot
    1  0.224  0.004  0.004  0.004  0.000  0.000  0.000  0.000  0.000  0.237
    2  0.224  0.004  0.004  0.004  0.000  0.000  0.000  0.000  0.000  0.237
tot    0.447  0.009  0.009  0.009  0.000  0.000  0.000  0.000  0.000  0.474

band     2 # energy   -1.25422163 # occ.  2.00000000

ion      s     py     pz     px    dxy    dyz    dz2    dxz  x2-y2    tot
    1  0.100  0.031  0.031  0.031  0.000  0.000  0.000  0.000  0.000  0.192
    2  0.100  0.031  0.031  0.031  0.000  0.000  0.000  0.000  0.000  0.192
tot    0.200  0.061  0.061  0.061  0.000  0.000  0.000  0.000  0.000  0.384

band     3 # energy    4.43483232 # occ.  2.00000000

ion      s     py     pz     px    dxy    dyz    dz2    dxz  x2-y2    tot
    1  0.000  0.028  0.141  0.046  0.000  0.000  0.000  0.000  0.000  0.215
    2  0.000  0.028  0.141  0.046  0.000  0.000  0.000  0.000  0.000  0.215
tot    0.000  0.056  0.282  0.092  0.000  0.000  0.000  0.000  0.000  0.431

band     4 # energy    4.43483232 # occ.  2.00000000

ion      s     py     pz     px    dxy    dyz    dz2    dxz  x2-y2    tot
    1  0.000  0.115  0.002  0.098  0.000  0.000  0.000  0.000  0.000  0.215
    2  0.000  0.115  0.002  0.098  0.000  0.000  0.000  0.000  0.000  0.215
tot    0.000  0.231  0.005  0.195  0.000  0.000  0.000  0.000  0.000  0.431

band     5 # energy    7.07918538 # occ.  0.00000000

ion      s     py     pz     px    dxy    dyz    dz2    dxz  x2-y2    tot
    1  0.185  0.007  0.007  0.007  0.000  0.000  0.000  0.000  0.000  0.206
    2  0.185  0.007  0.007  0.007  0.000  0.000  0.000  0.000  0.000  0.206
tot    0.370  0.014  0.014  0.014  0.000  0.000  0.000  0.000  0.000  0.411

band     6 # energy    8.96320296 # occ.  0.00000000

ion      s     py     pz     px    dxy    dyz    dz2    dxz  x2-y2    tot
    1  0.000  0.023  0.028  0.044  0.000  0.000  0.000  0.000  0.000  0.095
    2  0.000  0.023  0.028  0.044  0.000  0.000  0.000  0.000  0.000  0.095
tot    0.000  0.046  0.056  0.088  0.000  0.000  0.000  0.000  0.000  0.190

band     7 # energy    8.96320296 # occ.  0.00000000

ion      s     py     pz     px    dxy    dyz    dz2    dxz  x2-y2    tot
    1  0.000  0.040  0.035  0.020  0.000  0.000  0.000  0.000  0.000  0.095
    2  0.000  0.040  0.035  0.020  0.000  0.000  0.000  0.000  0.000  0.095
tot    0.000  0.081  0.070  0.039  0.000  0.000  0.000  0.000  0.000  0.190

band     8 # energy   13.31596642 # occ.  0.00000000

ion      s     py     pz     px    dxy    dyz    dz2    dxz  x2-y2    tot
    1  0.005  0.018  0.018  0.018  0.000  0.000  0.000  0.000  0.000  0.060
    2  0.005  0.018  0.018  0.018  0.000  0.000  0.000  0.000  0.000  0.060
tot    0.011  0.036  0.036  0.036  0.000  0.000  0.000  0.000  0.000  0.120


 k-point   121 :    0.50000000 0.50000000 0.50000000     weight = 0.00416667

band     1 # energy   -3.92182399 # occ.  2.00000000

ion      s     py     pz     px    dxy    dyz    dz2    dxz  x2-y2    tot
    1  0.224  0.004  0.004  0.004  0.000  0.000  0.000  0.000  0.000  0.237
    2  0.224  0.004  0.004  0.004  0.000  0.000  0.000  0.000  0.000  0.237
tot    0.447  0.009  0.009  0.009  0.000  0.000  0.000  0.000  0.000  0.474

band     2 # energy   -1.25422163 # occ.  2.00000000

ion      s     py     pz     px    dxy    dyz    dz2    dxz  x2-y2    tot
    1  0.100  0.031  0.031  0.031  0.000  0.000  0.000  0.000  0.000  0.192
    2  0.100  0.031  0.031  0.031  0.000  0.000  0.000  0.000  0.000  0.192
tot    0.200  0.061  0.061  0.061  0.000  0.000  0.000  0.000  0.000  0.384

band     3 # energy    4.43483232 # occ.  2.00000000

ion      s     py     pz     px    dxy    dyz    dz2    dxz  x2-y2    tot
    1  0.000  0.057  0.139  0.020  0.000  0.000  0.000  0.000  0.000  0.215
    2  0.000  0.057  0.139  0.020  0.000  0.000  0.000  0.000  0.000  0.215
tot    0.000  0.114  0.278  0.039  0.000  0.000  0.000  0.000  0.000  0.431

band     4 # energy    4.43483232 # occ.  2.00000000

ion      s     py     pz     px    dxy    dyz    dz2    dxz  x2-y2    tot
    1  0.000  0.087  0.005  0.124  0.000  0.000  0.000  0.000  0.000  0.215
    2  0.000  0.087  0.005  0.124  0.000  0.000  0.000  0.000  0.000  0.215
tot    0.000  0.173  0.009  0.248  0.000  0.000  0.000  0.000  0.000  0.431

band     5 # energy    7.07918538 # occ.  0.00000000

ion      s     py     pz     px    dxy    dyz    dz2    dxz  x2-y2    tot
    1  0.185  0.007  0.007  0.007  0.000  0.000  0.000  0.000  0.000  0.206
    2  0.185  0.007  0.007  0.007  0.000  0.000  0.000  0.000  0.000  0.206
tot    0.370  0.014  0.014  0.014  0.000  0.000  0.000  0.000  0.000  0.411

band     6 # energy    8.96320296 # occ.  0.00000000

ion      s     py     pz     px    dxy    dyz    dz2    dxz  x2-y2    tot
    1  0.000  0.033  0.050  0.012  0.000  0.000  0.000  0.000  0.000  0.095
    2  0.000  0.033  0.050  0.012  0.000  0.000  0.000  0.000  0.000  0.095
tot    0.000  0.066  0.100  0.024  0.000  0.000  0.000  0.000  0.000  0.190

band     7 # energy    8.96320296 # occ.  0.00000000

ion      s     py     pz     px    dxy    dyz    dz2    dxz  x2-y2    tot
    1  0.000  0.030  0.013  0.051  0.000  0.000  0.000  0.000  0.000  0.095
    2  0.000  0.030  0.013  0.051  0.000  0.000  0.000  0.000  0.000  0.095
tot    0.000  0.061  0.027  0.103  0.000  0.000  0.000  0.000  0.000  0.190

band     8 # energy   13.31596660 # occ.  0.00000000

ion      s     py     pz     px    dxy    dyz    dz2    dxz  x2-y2    tot
    1  0.005  0.018  0.018  0.018  0.000  0.000  0.000  0.000  0.000  0.060
    2  0.005  0.018  0.018  0.018  0.000  0.000  0.000  0.000  0.000  0.060
tot    0.011  0.036  0.036  0.036  0.000  0.000  0.000  0.000  0.000  0.120


 k-point   122 :    0.48717949 0.48717949 0.48717949     weight = 0.00416667

band     1 # energy   -3.93094055 # occ.  2.00000000

ion      s     py     pz     px    dxy    dyz    dz2    dxz  x2-y2    tot
    1  0.223  0.004  0.004  0.004  0.000  0.000  0.000  0.000  0.000  0.237
    2  0.223  0.004  0.004  0.004  0.000  0.000  0.000  0.000  0.000  0.237
tot    0.447  0.009  0.009  0.009  0.000  0.000  0.000  0.000  0.000  0.473

band     2 # energy   -1.24111400 # occ.  2.00000000

ion      s     py     pz     px    dxy    dyz    dz2    dxz  x2-y2    tot
    1  0.100  0.031  0.031  0.031  0.000  0.000  0.000  0.000  0.000  0.192
    2  0.100  0.031  0.031  0.031  0.000  0.000  0.000  0.000  0.000  0.192
tot    0.200  0.061  0.061  0.061  0.000  0.000  0.000  0.000  0.000  0.384

band     3 # energy    4.43599962 # occ.  2.00000000

ion      s     py     pz     px    dxy    dyz    dz2    dxz  x2-y2    tot
    1  0.000  0.051  0.135  0.029  0.000  0.000  0.000  0.000  0.000  0.215
    2  0.000  0.051  0.135  0.029  0.000  0.000  0.000  0.000  0.000  0.215
tot    0.000  0.103  0.271  0.057  0.000  0.000  0.000  0.000  0.000  0.431

band     4 # energy    4.43599962 # occ.  2.00000000

ion      s     py     pz     px    dxy    dyz    dz2    dxz  x2-y2    tot
    1  0.000  0.092  0.008  0.115  0.000  0.000  0.000  0.000  0.000  0.215
    2  0.000  0.092  0.008  0.115  0.000  0.000  0.000  0.000  0.000  0.215
tot    0.000  0.185  0.016  0.230  0.000  0.000  0.000  0.000  0.000  0.431

band     5 # energy    7.08054622 # occ.  0.00000000

ion      s     py     pz     px    dxy    dyz    dz2    dxz  x2-y2    tot
    1  0.185  0.007  0.007  0.007  0.000  0.000  0.000  0.000  0.000  0.206
    2  0.185  0.007  0.007  0.007  0.000  0.000  0.000  0.000  0.000  0.206
tot    0.369  0.014  0.014  0.014  0.000  0.000  0.000  0.000  0.000  0.411

band     6 # energy    8.96450147 # occ.  0.00000000

ion      s     py     pz     px    dxy    dyz    dz2    dxz  x2-y2    tot
    1  0.000  0.030  0.060  0.006  0.000  0.000  0.000  0.000  0.000  0.095
    2  0.000  0.030  0.060  0.006  0.000  0.000  0.000  0.000  0.000  0.095
tot    0.000  0.059  0.120  0.011  0.000  0.000  0.000  0.000  0.000  0.190

band     7 # energy    8.96450147 # occ.  0.00000000

ion      s     py     pz     px    dxy    dyz    dz2    dxz  x2-y2    tot
    1  0.000  0.034  0.004  0.058  0.000  0.000  0.000  0.000  0.000  0.095
    2  0.000  0.034  0.004  0.058  0.000  0.000  0.000  0.000  0.000  0.095
tot    0.000  0.068  0.007  0.116  0.000  0.000  0.000  0.000  0.000  0.190

band     8 # energy   13.31796616 # occ.  0.00000000

ion      s     py     pz     px    dxy    dyz    dz2    dxz  x2-y2    tot
    1  0.005  0.018  0.018  0.018  0.000  0.000  0.000  0.000  0.000  0.060
    2  0.005  0.018  0.018  0.018  0.000  0.000  0.000  0.000  0.000  0.060
tot    0.011  0.036  0.036  0.036  0.000  0.000  0.000  0.000  0.000  0.120


 k-point   123 :    0.47435897 0.47435897 0.47435897     weight = 0.00416667

band     1 # energy   -3.95772897 # occ.  2.00000000

ion      s     py     pz     px    dxy    dyz    dz2    dxz  x2-y2    tot
    1  0.222  0.005  0.005  0.005  0.000  0.000  0.000  0.000  0.000  0.236
    2  0.222  0.005  0.005  0.005  0.000  0.000  0.000  0.000  0.000  0.236
tot    0.445  0.009  0.009  0.009  0.000  0.000  0.000  0.000  0.000  0.472

band     2 # energy   -1.20232963 # occ.  2.00000000

ion      s     py     pz     px    dxy    dyz    dz2    dxz  x2-y2    tot
    1  0.101  0.031  0.031  0.031  0.000  0.000  0.000  0.000  0.000  0.193
    2  0.101  0.031  0.031  0.031  0.000  0.000  0.000  0.000  0.000  0.193
tot    0.202  0.061  0.061  0.061  0.000  0.000  0.000  0.000  0.000  0.385

band     3 # energy    4.43950173 # occ.  2.00000000

ion      s     py     pz     px    dxy    dyz    dz2    dxz  x2-y2    tot
    1  0.000  0.037  0.144  0.035  0.000  0.000  0.000  0.000  0.000  0.215
    2  0.000  0.037  0.144  0.035  0.000  0.000  0.000  0.000  0.000  0.215
tot    0.000  0.073  0.287  0.070  0.000  0.000  0.000  0.000  0.000  0.431

band     4 # energy    4.43950173 # occ.  2.00000000

ion      s     py     pz     px    dxy    dyz    dz2    dxz  x2-y2    tot
    1  0.000  0.107  0.000  0.108  0.000  0.000  0.000  0.000  0.000  0.215
    2  0.000  0.107  0.000  0.108  0.000  0.000  0.000  0.000  0.000  0.215
tot    0.000  0.214  0.000  0.217  0.000  0.000  0.000  0.000  0.000  0.431

band     5 # energy    7.08462704 # occ.  0.00000000

ion      s     py     pz     px    dxy    dyz    dz2    dxz  x2-y2    tot
    1  0.185  0.007  0.007  0.007  0.000  0.000  0.000  0.000  0.000  0.206
    2  0.185  0.007  0.007  0.007  0.000  0.000  0.000  0.000  0.000  0.206
tot    0.369  0.014  0.014  0.014  0.000  0.000  0.000  0.000  0.000  0.411

band     6 # energy    8.96837168 # occ.  0.00000000

ion      s     py     pz     px    dxy    dyz    dz2    dxz  x2-y2    tot
    1  0.000  0.035  0.057  0.003  0.000  0.000  0.000  0.000  0.000  0.096
    2  0.000  0.035  0.057  0.003  0.000  0.000  0.000  0.000  0.000  0.096
tot    0.000  0.071  0.114  0.007  0.000  0.000  0.000  0.000  0.000  0.191

band     7 # energy    8.96837168 # occ.  0.00000000

ion      s     py     pz     px    dxy    dyz    dz2    dxz  x2-y2    tot
    1  0.000  0.028  0.007  0.060  0.000  0.000  0.000  0.000  0.000  0.096
    2  0.000  0.028  0.007  0.060  0.000  0.000  0.000  0.000  0.000  0.096
tot    0.000  0.057  0.014  0.121  0.000  0.000  0.000  0.000  0.000  0.191

band     8 # energy   13.32391665 # occ.  0.00000000

ion      s     py     pz     px    dxy    dyz    dz2    dxz  x2-y2    tot
    1  0.005  0.018  0.018  0.018  0.000  0.000  0.000  0.000  0.000  0.061
    2  0.005  0.018  0.018  0.018  0.000  0.000  0.000  0.000  0.000  0.061
tot    0.011  0.037  0.037  0.037  0.000  0.000  0.000  0.000  0.000  0.121


 k-point   124 :    0.46153846 0.46153846 0.46153846     weight = 0.00416667

band     1 # energy   -4.00067374 # occ.  2.00000000

ion      s     py     pz     px    dxy    dyz    dz2    dxz  x2-y2    tot
    1  0.221  0.005  0.005  0.005  0.000  0.000  0.000  0.000  0.000  0.235
    2  0.221  0.005  0.005  0.005  0.000  0.000  0.000  0.000  0.000  0.235
tot    0.442  0.009  0.009  0.009  0.000  0.000  0.000  0.000  0.000  0.470

band     2 # energy   -1.13938286 # occ.  2.00000000

ion      s     py     pz     px    dxy    dyz    dz2    dxz  x2-y2    tot
    1  0.102  0.031  0.031  0.031  0.000  0.000  0.000  0.000  0.000  0.194
    2  0.102  0.031  0.031  0.031  0.000  0.000  0.000  0.000  0.000  0.194
tot    0.204  0.061  0.061  0.061  0.000  0.000  0.000  0.000  0.000  0.388

band     3 # energy    4.44533842 # occ.  2.00000000

ion      s     py     pz     px    dxy    dyz    dz2    dxz  x2-y2    tot
    1  0.000  0.032  0.143  0.040  0.000  0.000  0.000  0.000  0.000  0.215
    2  0.000  0.032  0.143  0.040  0.000  0.000  0.000  0.000  0.000  0.215
tot    0.000  0.063  0.287  0.081  0.000  0.000  0.000  0.000  0.000  0.430

band     4 # energy    4.44533842 # occ.  2.00000000

ion      s     py     pz     px    dxy    dyz    dz2    dxz  x2-y2    tot
    1  0.000  0.112  0.000  0.103  0.000  0.000  0.000  0.000  0.000  0.215
    2  0.000  0.112  0.000  0.103  0.000  0.000  0.000  0.000  0.000  0.215
tot    0.000  0.224  0.000  0.206  0.000  0.000  0.000  0.000  0.000  0.430

band     5 # energy    7.09145372 # occ.  0.00000000

ion      s     py     pz     px    dxy    dyz    dz2    dxz  x2-y2    tot
    1  0.184  0.007  0.007  0.007  0.000  0.000  0.000  0.000  0.000  0.206
    2  0.184  0.007  0.007  0.007  0.000  0.000  0.000  0.000  0.000  0.206
tot    0.368  0.014  0.014  0.014  0.000  0.000  0.000  0.000  0.000  0.411

band     6 # energy    8.97480058 # occ.  0.00000000

ion      s     py     pz     px    dxy    dyz    dz2    dxz  x2-y2    tot
    1  0.000  0.053  0.006  0.037  0.000  0.000  0.000  0.000  0.000  0.096
    2  0.000  0.053  0.006  0.037  0.000  0.000  0.000  0.000  0.000  0.096
tot    0.000  0.107  0.012  0.073  0.000  0.000  0.000  0.000  0.000  0.192

band     7 # energy    8.97480058 # occ.  0.00000000

ion      s     py     pz     px    dxy    dyz    dz2    dxz  x2-y2    tot
    1  0.000  0.011  0.058  0.027  0.000  0.000  0.000  0.000  0.000  0.096
    2  0.000  0.011  0.058  0.027  0.000  0.000  0.000  0.000  0.000  0.096
tot    0.000  0.022  0.116  0.055  0.000  0.000  0.000  0.000  0.000  0.192

band     8 # energy   13.33367888 # occ.  0.00000000

ion      s     py     pz     px    dxy    dyz    dz2    dxz  x2-y2    tot
    1  0.005  0.019  0.019  0.019  0.000  0.000  0.000  0.000  0.000  0.062
    2  0.005  0.019  0.019  0.019  0.000  0.000  0.000  0.000  0.000  0.062
tot    0.010  0.038  0.038  0.038  0.000  0.000  0.000  0.000  0.000  0.123


 k-point   125 :    0.44871795 0.44871795 0.44871795     weight = 0.00416667

band     1 # energy   -4.05760995 # occ.  2.00000000

ion      s     py     pz     px    dxy    dyz    dz2    dxz  x2-y2    tot
    1  0.220  0.005  0.005  0.005  0.000  0.000  0.000  0.000  0.000  0.234
    2  0.220  0.005  0.005  0.005  0.000  0.000  0.000  0.000  0.000  0.234
tot    0.439  0.009  0.009  0.009  0.000  0.000  0.000  0.000  0.000  0.467

band     2 # energy   -1.05446226 # occ.  2.00000000

ion      s     py     pz     px    dxy    dyz    dz2    dxz  x2-y2    tot
    1  0.103  0.031  0.031  0.031  0.000  0.000  0.000  0.000  0.000  0.195
    2  0.103  0.031  0.031  0.031  0.000  0.000  0.000  0.000  0.000  0.195
tot    0.206  0.061  0.061  0.061  0.000  0.000  0.000  0.000  0.000  0.390

band     3 # energy    4.45350604 # occ.  2.00000000

ion      s     py     pz     px    dxy    dyz    dz2    dxz  x2-y2    tot
    1  0.000  0.036  0.143  0.035  0.000  0.000  0.000  0.000  0.000  0.215
    2  0.000  0.036  0.143  0.035  0.000  0.000  0.000  0.000  0.000  0.215
tot    0.000  0.073  0.287  0.071  0.000  0.000  0.000  0.000  0.000  0.430

band     4 # energy    4.45350604 # occ.  2.00000000

ion      s     py     pz     px    dxy    dyz    dz2    dxz  x2-y2    tot
    1  0.000  0.107  0.000  0.108  0.000  0.000  0.000  0.000  0.000  0.215
    2  0.000  0.107  0.000  0.108  0.000  0.000  0.000  0.000  0.000  0.215
tot    0.000  0.214  0.000  0.216  0.000  0.000  0.000  0.000  0.000  0.430

band     5 # energy    7.10094977 # occ.  0.00000000

ion      s     py     pz     px    dxy    dyz    dz2    dxz  x2-y2    tot
    1  0.184  0.007  0.007  0.007  0.000  0.000  0.000  0.000  0.000  0.206
    2  0.184  0.007  0.007  0.007  0.000  0.000  0.000  0.000  0.000  0.206
tot    0.367  0.015  0.015  0.015  0.000  0.000  0.000  0.000  0.000  0.411

band     6 # energy    8.98352935 # occ.  0.00000000

ion      s     py     pz     px    dxy    dyz    dz2    dxz  x2-y2    tot
    1  0.000  0.053  0.001  0.043  0.000  0.000  0.000  0.000  0.000  0.097
    2  0.000  0.053  0.001  0.043  0.000  0.000  0.000  0.000  0.000  0.097
tot    0.000  0.107  0.001  0.086  0.000  0.000  0.000  0.000  0.000  0.194

band     7 # energy    8.98352935 # occ.  0.00000000

ion      s     py     pz     px    dxy    dyz    dz2    dxz  x2-y2    tot
    1  0.000  0.011  0.064  0.022  0.000  0.000  0.000  0.000  0.000  0.097
    2  0.000  0.011  0.064  0.022  0.000  0.000  0.000  0.000  0.000  0.097
tot    0.000  0.022  0.128  0.044  0.000  0.000  0.000  0.000  0.000  0.194

band     8 # energy   13.34690266 # occ.  0.00000000

ion      s     py     pz     px    dxy    dyz    dz2    dxz  x2-y2    tot
    1  0.005  0.019  0.019  0.019  0.000  0.000  0.000  0.000  0.000  0.063
    2  0.005  0.019  0.019  0.019  0.000  0.000  0.000  0.000  0.000  0.063
tot    0.010  0.039  0.039  0.039  0.000  0.000  0.000  0.000  0.000  0.126


 k-point   126 :    0.43589744 0.43589744 0.43589744     weight = 0.00416667

band     1 # energy   -4.12608331 # occ.  2.00000000

ion      s     py     pz     px    dxy    dyz    dz2    dxz  x2-y2    tot
    1  0.218  0.005  0.005  0.005  0.000  0.000  0.000  0.000  0.000  0.232
    2  0.218  0.005  0.005  0.005  0.000  0.000  0.000  0.000  0.000  0.232
tot    0.436  0.009  0.009  0.009  0.000  0.000  0.000  0.000  0.000  0.465

band     2 # energy   -0.95003687 # occ.  2.00000000

ion      s     py     pz     px    dxy    dyz    dz2    dxz  x2-y2    tot
    1  0.104  0.031  0.031  0.031  0.000  0.000  0.000  0.000  0.000  0.197
    2  0.104  0.031  0.031  0.031  0.000  0.000  0.000  0.000  0.000  0.197
tot    0.209  0.061  0.061  0.061  0.000  0.000  0.000  0.000  0.000  0.393

band     3 # energy    4.46399087 # occ.  2.00000000

ion      s     py     pz     px    dxy    dyz    dz2    dxz  x2-y2    tot
    1  0.000  0.038  0.143  0.034  0.000  0.000  0.000  0.000  0.000  0.215
    2  0.000  0.038  0.143  0.034  0.000  0.000  0.000  0.000  0.000  0.215
tot    0.000  0.075  0.287  0.068  0.000  0.000  0.000  0.000  0.000  0.430

band     4 # energy    4.46399087 # occ.  2.00000000

ion      s     py     pz     px    dxy    dyz    dz2    dxz  x2-y2    tot
    1  0.000  0.106  0.000  0.109  0.000  0.000  0.000  0.000  0.000  0.215
    2  0.000  0.106  0.000  0.109  0.000  0.000  0.000  0.000  0.000  0.215
tot    0.000  0.211  0.000  0.219  0.000  0.000  0.000  0.000  0.000  0.430

band     5 # energy    7.11315209 # occ.  0.00000000

ion      s     py     pz     px    dxy    dyz    dz2    dxz  x2-y2    tot
    1  0.183  0.008  0.008  0.008  0.000  0.000  0.000  0.000  0.000  0.206
    2  0.183  0.008  0.008  0.008  0.000  0.000  0.000  0.000  0.000  0.206
tot    0.366  0.015  0.015  0.015  0.000  0.000  0.000  0.000  0.000  0.411

band     6 # energy    8.99443182 # occ.  0.00000000

ion      s     py     pz     px    dxy    dyz    dz2    dxz  x2-y2    tot
    1  0.000  0.052  0.000  0.046  0.000  0.000  0.000  0.000  0.000  0.098
    2  0.000  0.052  0.000  0.046  0.000  0.000  0.000  0.000  0.000  0.098
tot    0.000  0.103  0.000  0.092  0.000  0.000  0.000  0.000  0.000  0.196

band     7 # energy    8.99443182 # occ.  0.00000000

ion      s     py     pz     px    dxy    dyz    dz2    dxz  x2-y2    tot
    1  0.000  0.014  0.065  0.019  0.000  0.000  0.000  0.000  0.000  0.098
    2  0.000  0.014  0.065  0.019  0.000  0.000  0.000  0.000  0.000  0.098
tot    0.000  0.027  0.130  0.038  0.000  0.000  0.000  0.000  0.000  0.196

band     8 # energy   13.36325888 # occ.  0.00000000

ion      s     py     pz     px    dxy    dyz    dz2    dxz  x2-y2    tot
    1  0.004  0.020  0.020  0.020  0.000  0.000  0.000  0.000  0.000  0.065
    2  0.004  0.020  0.020  0.020  0.000  0.000  0.000  0.000  0.000  0.065
tot    0.009  0.040  0.040  0.040  0.000  0.000  0.000  0.000  0.000  0.130


 k-point   127 :    0.42307692 0.42307692 0.42307692     weight = 0.00416667

band     1 # energy   -4.20364516 # occ.  2.00000000

ion      s     py     pz     px    dxy    dyz    dz2    dxz  x2-y2    tot
    1  0.216  0.005  0.005  0.005  0.000  0.000  0.000  0.000  0.000  0.231
    2  0.216  0.005  0.005  0.005  0.000  0.000  0.000  0.000  0.000  0.231
tot    0.433  0.010  0.010  0.010  0.000  0.000  0.000  0.000  0.000  0.462

band     2 # energy   -0.82857119 # occ.  2.00000000

ion      s     py     pz     px    dxy    dyz    dz2    dxz  x2-y2    tot
    1  0.106  0.031  0.031  0.031  0.000  0.000  0.000  0.000  0.000  0.198
    2  0.106  0.031  0.031  0.031  0.000  0.000  0.000  0.000  0.000  0.198
tot    0.211  0.062  0.062  0.062  0.000  0.000  0.000  0.000  0.000  0.396

band     3 # energy    4.47681071 # occ.  2.00000000

ion      s     py     pz     px    dxy    dyz    dz2    dxz  x2-y2    tot
    1  0.000  0.037  0.143  0.034  0.000  0.000  0.000  0.000  0.000  0.215
    2  0.000  0.037  0.143  0.034  0.000  0.000  0.000  0.000  0.000  0.215
tot    0.000  0.075  0.286  0.069  0.000  0.000  0.000  0.000  0.000  0.430

band     4 # energy    4.47681071 # occ.  2.00000000

ion      s     py     pz     px    dxy    dyz    dz2    dxz  x2-y2    tot
    1  0.000  0.106  0.000  0.109  0.000  0.000  0.000  0.000  0.000  0.215
    2  0.000  0.106  0.000  0.109  0.000  0.000  0.000  0.000  0.000  0.215
tot    0.000  0.212  0.000  0.218  0.000  0.000  0.000  0.000  0.000  0.430

band     5 # energy    7.12803791 # occ.  0.00000000

ion      s     py     pz     px    dxy    dyz    dz2    dxz  x2-y2    tot
    1  0.182  0.008  0.008  0.008  0.000  0.000  0.000  0.000  0.000  0.205
    2  0.182  0.008  0.008  0.008  0.000  0.000  0.000  0.000  0.000  0.205
tot    0.364  0.016  0.016  0.016  0.000  0.000  0.000  0.000  0.000  0.411

band     6 # energy    9.00728512 # occ.  0.00000000

ion      s     py     pz     px    dxy    dyz    dz2    dxz  x2-y2    tot
    1  0.000  0.048  0.000  0.051  0.000  0.000  0.000  0.000  0.000  0.099
    2  0.000  0.048  0.000  0.051  0.000  0.000  0.000  0.000  0.000  0.099
tot    0.000  0.097  0.000  0.102  0.000  0.000  0.000  0.000  0.000  0.198

band     7 # energy    9.00728512 # occ.  0.00000000

ion      s     py     pz     px    dxy    dyz    dz2    dxz  x2-y2    tot
    1  0.000  0.018  0.066  0.015  0.000  0.000  0.000  0.000  0.000  0.099
    2  0.000  0.018  0.066  0.015  0.000  0.000  0.000  0.000  0.000  0.099
tot    0.000  0.036  0.132  0.031  0.000  0.000  0.000  0.000  0.000  0.198

band     8 # energy   13.38205437 # occ.  0.00000000

ion      s     py     pz     px    dxy    dyz    dz2    dxz  x2-y2    tot
    1  0.004  0.021  0.021  0.021  0.000  0.000  0.000  0.000  0.000  0.068
    2  0.004  0.021  0.021  0.021  0.000  0.000  0.000  0.000  0.000  0.068
tot    0.008  0.043  0.043  0.043  0.000  0.000  0.000  0.000  0.000  0.136


 k-point   128 :    0.41025641 0.41025641 0.41025641     weight = 0.00416667

band     1 # energy   -4.28806309 # occ.  2.00000000

ion      s     py     pz     px    dxy    dyz    dz2    dxz  x2-y2    tot
    1  0.215  0.005  0.005  0.005  0.000  0.000  0.000  0.000  0.000  0.229
    2  0.215  0.005  0.005  0.005  0.000  0.000  0.000  0.000  0.000  0.229
tot    0.430  0.010  0.010  0.010  0.000  0.000  0.000  0.000  0.000  0.459

band     2 # energy   -0.69232807 # occ.  2.00000000

ion      s     py     pz     px    dxy    dyz    dz2    dxz  x2-y2    tot
    1  0.106  0.031  0.031  0.031  0.000  0.000  0.000  0.000  0.000  0.200
    2  0.106  0.031  0.031  0.031  0.000  0.000  0.000  0.000  0.000  0.200
tot    0.213  0.062  0.062  0.062  0.000  0.000  0.000  0.000  0.000  0.399

band     3 # energy    4.49195450 # occ.  2.00000000

ion      s     py     pz     px    dxy    dyz    dz2    dxz  x2-y2    tot
    1  0.000  0.037  0.143  0.034  0.000  0.000  0.000  0.000  0.000  0.215
    2  0.000  0.037  0.143  0.034  0.000  0.000  0.000  0.000  0.000  0.215
tot    0.000  0.075  0.286  0.068  0.000  0.000  0.000  0.000  0.000  0.429

band     4 # energy    4.49195450 # occ.  2.00000000

ion      s     py     pz     px    dxy    dyz    dz2    dxz  x2-y2    tot
    1  0.000  0.106  0.000  0.109  0.000  0.000  0.000  0.000  0.000  0.215
    2  0.000  0.106  0.000  0.109  0.000  0.000  0.000  0.000  0.000  0.215
tot    0.000  0.211  0.000  0.218  0.000  0.000  0.000  0.000  0.000  0.429

band     5 # energy    7.14561080 # occ.  0.00000000

ion      s     py     pz     px    dxy    dyz    dz2    dxz  x2-y2    tot
    1  0.181  0.008  0.008  0.008  0.000  0.000  0.000  0.000  0.000  0.205
    2  0.181  0.008  0.008  0.008  0.000  0.000  0.000  0.000  0.000  0.205
tot    0.362  0.016  0.016  0.016  0.000  0.000  0.000  0.000  0.000  0.411

band     6 # energy    9.02189565 # occ.  0.00000000

ion      s     py     pz     px    dxy    dyz    dz2    dxz  x2-y2    tot
    1  0.000  0.012  0.022  0.067  0.000  0.000  0.000  0.000  0.000  0.101
    2  0.000  0.012  0.022  0.067  0.000  0.000  0.000  0.000  0.000  0.101
tot    0.000  0.024  0.044  0.133  0.000  0.000  0.000  0.000  0.000  0.201

band     7 # energy    9.02189565 # occ.  0.00000000

ion      s     py     pz     px    dxy    dyz    dz2    dxz  x2-y2    tot
    1  0.000  0.055  0.045  0.001  0.000  0.000  0.000  0.000  0.000  0.101
    2  0.000  0.055  0.045  0.001  0.000  0.000  0.000  0.000  0.000  0.101
tot    0.000  0.110  0.090  0.001  0.000  0.000  0.000  0.000  0.000  0.201

band     8 # energy   13.40235063 # occ.  0.00000000

ion      s     py     pz     px    dxy    dyz    dz2    dxz  x2-y2    tot
    1  0.004  0.023  0.023  0.023  0.000  0.000  0.000  0.000  0.000  0.072
    2  0.004  0.023  0.023  0.023  0.000  0.000  0.000  0.000  0.000  0.072
tot    0.007  0.045  0.045  0.045  0.000  0.000  0.000  0.000  0.000  0.143


 k-point   129 :    0.39743590 0.39743590 0.39743590     weight = 0.00416667

band     1 # energy   -4.37740277 # occ.  2.00000000

ion      s     py     pz     px    dxy    dyz    dz2    dxz  x2-y2    tot
    1  0.214  0.005  0.005  0.005  0.000  0.000  0.000  0.000  0.000  0.228
    2  0.214  0.005  0.005  0.005  0.000  0.000  0.000  0.000  0.000  0.228
tot    0.427  0.010  0.010  0.010  0.000  0.000  0.000  0.000  0.000  0.456

band     2 # energy   -0.54328955 # occ.  2.00000000

ion      s     py     pz     px    dxy    dyz    dz2    dxz  x2-y2    tot
    1  0.107  0.031  0.031  0.031  0.000  0.000  0.000  0.000  0.000  0.201
    2  0.107  0.031  0.031  0.031  0.000  0.000  0.000  0.000  0.000  0.201
tot    0.214  0.063  0.063  0.063  0.000  0.000  0.000  0.000  0.000  0.402

band     3 # energy    4.50939462 # occ.  2.00000000

ion      s     py     pz     px    dxy    dyz    dz2    dxz  x2-y2    tot
    1  0.000  0.040  0.143  0.032  0.000  0.000  0.000  0.000  0.000  0.214
    2  0.000  0.040  0.143  0.032  0.000  0.000  0.000  0.000  0.000  0.214
tot    0.000  0.080  0.285  0.063  0.000  0.000  0.000  0.000  0.000  0.429

band     4 # energy    4.50939462 # occ.  2.00000000

ion      s     py     pz     px    dxy    dyz    dz2    dxz  x2-y2    tot
    1  0.000  0.103  0.000  0.111  0.000  0.000  0.000  0.000  0.000  0.214
    2  0.000  0.103  0.000  0.111  0.000  0.000  0.000  0.000  0.000  0.214
tot    0.000  0.206  0.000  0.223  0.000  0.000  0.000  0.000  0.000  0.429

band     5 # energy    7.16579897 # occ.  0.00000000

ion      s     py     pz     px    dxy    dyz    dz2    dxz  x2-y2    tot
    1  0.180  0.008  0.008  0.008  0.000  0.000  0.000  0.000  0.000  0.205
    2  0.180  0.008  0.008  0.008  0.000  0.000  0.000  0.000  0.000  0.205
tot    0.360  0.017  0.017  0.017  0.000  0.000  0.000  0.000  0.000  0.411

band     6 # energy    9.03762985 # occ.  0.00000000

ion      s     py     pz     px    dxy    dyz    dz2    dxz  x2-y2    tot
    1  0.000  0.053  0.001  0.048  0.000  0.000  0.000  0.000  0.000  0.103
    2  0.000  0.053  0.001  0.048  0.000  0.000  0.000  0.000  0.000  0.103
tot    0.000  0.107  0.001  0.097  0.000  0.000  0.000  0.000  0.000  0.205

band     7 # energy    9.03762985 # occ.  0.00000000

ion      s     py     pz     px    dxy    dyz    dz2    dxz  x2-y2    tot
    1  0.000  0.015  0.068  0.020  0.000  0.000  0.000  0.000  0.000  0.103
    2  0.000  0.015  0.068  0.020  0.000  0.000  0.000  0.000  0.000  0.103
tot    0.000  0.030  0.135  0.040  0.000  0.000  0.000  0.000  0.000  0.205

band     8 # energy   13.42265024 # occ.  0.00000000

ion      s     py     pz     px    dxy    dyz    dz2    dxz  x2-y2    tot
    1  0.003  0.025  0.024  0.024  0.000  0.000  0.000  0.000  0.000  0.077
    2  0.003  0.024  0.025  0.024  0.000  0.000  0.000  0.000  0.000  0.077
tot    0.007  0.049  0.049  0.049  0.000  0.000  0.000  0.000  0.000  0.154


 k-point   130 :    0.38461538 0.38461538 0.38461538     weight = 0.00416667

band     1 # energy   -4.47004141 # occ.  2.00000000

ion      s     py     pz     px    dxy    dyz    dz2    dxz  x2-y2    tot
    1  0.213  0.005  0.005  0.005  0.000  0.000  0.000  0.000  0.000  0.227
    2  0.213  0.005  0.005  0.005  0.000  0.000  0.000  0.000  0.000  0.227
tot    0.425  0.009  0.009  0.009  0.000  0.000  0.000  0.000  0.000  0.453

band     2 # energy   -0.38312794 # occ.  2.00000000

ion      s     py     pz     px    dxy    dyz    dz2    dxz  x2-y2    tot
    1  0.108  0.032  0.032  0.032  0.000  0.000  0.000  0.000  0.000  0.203
    2  0.108  0.032  0.032  0.032  0.000  0.000  0.000  0.000  0.000  0.203
tot    0.215  0.063  0.063  0.063  0.000  0.000  0.000  0.000  0.000  0.405

band     3 # energy    4.52915433 # occ.  2.00000000

ion      s     py     pz     px    dxy    dyz    dz2    dxz  x2-y2    tot
    1  0.000  0.076  0.010  0.128  0.000  0.000  0.000  0.000  0.000  0.214
    2  0.000  0.076  0.010  0.128  0.000  0.000  0.000  0.000  0.000  0.214
tot    0.000  0.153  0.020  0.256  0.000  0.000  0.000  0.000  0.000  0.428

band     4 # energy    4.52915433 # occ.  2.00000000

ion      s     py     pz     px    dxy    dyz    dz2    dxz  x2-y2    tot
    1  0.000  0.066  0.133  0.015  0.000  0.000  0.000  0.000  0.000  0.214
    2  0.000  0.066  0.133  0.015  0.000  0.000  0.000  0.000  0.000  0.214
tot    0.000  0.133  0.266  0.030  0.000  0.000  0.000  0.000  0.000  0.428

band     5 # energy    7.18855386 # occ.  0.00000000

ion      s     py     pz     px    dxy    dyz    dz2    dxz  x2-y2    tot
    1  0.179  0.009  0.009  0.009  0.000  0.000  0.000  0.000  0.000  0.205
    2  0.179  0.009  0.009  0.009  0.000  0.000  0.000  0.000  0.000  0.205
tot    0.358  0.018  0.018  0.018  0.000  0.000  0.000  0.000  0.000  0.411

band     6 # energy    9.05429721 # occ.  0.00000000

ion      s     py     pz     px    dxy    dyz    dz2    dxz  x2-y2    tot
    1  0.000  0.069  0.015  0.020  0.000  0.000  0.000  0.000  0.000  0.105
    2  0.000  0.069  0.015  0.020  0.000  0.000  0.000  0.000  0.000  0.105
tot    0.000  0.139  0.030  0.040  0.000  0.000  0.000  0.000  0.000  0.209

band     7 # energy    9.05429721 # occ.  0.00000000

ion      s     py     pz     px    dxy    dyz    dz2    dxz  x2-y2    tot
    1  0.000  0.000  0.055  0.050  0.000  0.000  0.000  0.000  0.000  0.105
    2  0.000  0.000  0.055  0.050  0.000  0.000  0.000  0.000  0.000  0.105
tot    0.000  0.000  0.109  0.100  0.000  0.000  0.000  0.000  0.000  0.209

band     8 # energy   13.44095818 # occ.  0.00000000

ion      s     py     pz     px    dxy    dyz    dz2    dxz  x2-y2    tot
    1  0.004  0.027  0.027  0.027  0.000  0.000  0.000  0.000  0.000  0.084
    2  0.004  0.027  0.027  0.027  0.000  0.000  0.000  0.000  0.000  0.084
tot    0.007  0.053  0.054  0.054  0.000  0.000  0.000  0.000  0.000  0.168


 k-point   131 :    0.37179487 0.37179487 0.37179487     weight = 0.00416667

band     1 # energy   -4.56462493 # occ.  2.00000000

ion      s     py     pz     px    dxy    dyz    dz2    dxz  x2-y2    tot
    1  0.212  0.005  0.005  0.005  0.000  0.000  0.000  0.000  0.000  0.225
    2  0.212  0.005  0.005  0.005  0.000  0.000  0.000  0.000  0.000  0.225
tot    0.423  0.009  0.009  0.009  0.000  0.000  0.000  0.000  0.000  0.451

band     2 # energy   -0.21322375 # occ.  2.00000000

ion      s     py     pz     px    dxy    dyz    dz2    dxz  x2-y2    tot
    1  0.108  0.032  0.032  0.032  0.000  0.000  0.000  0.000  0.000  0.204
    2  0.108  0.032  0.032  0.032  0.000  0.000  0.000  0.000  0.000  0.204
tot    0.215  0.064  0.064  0.064  0.000  0.000  0.000  0.000  0.000  0.408

band     3 # energy    4.55118419 # occ.  2.00000000

ion      s     py     pz     px    dxy    dyz    dz2    dxz  x2-y2    tot
    1  0.000  0.133  0.010  0.071  0.000  0.000  0.000  0.000  0.000  0.214
    2  0.000  0.133  0.010  0.071  0.000  0.000  0.000  0.000  0.000  0.214
tot    0.000  0.266  0.020  0.142  0.000  0.000  0.000  0.000  0.000  0.428

band     4 # energy    4.55118419 # occ.  2.00000000

ion      s     py     pz     px    dxy    dyz    dz2    dxz  x2-y2    tot
    1  0.000  0.010  0.132  0.072  0.000  0.000  0.000  0.000  0.000  0.214
    2  0.000  0.010  0.132  0.072  0.000  0.000  0.000  0.000  0.000  0.214
tot    0.000  0.020  0.265  0.143  0.000  0.000  0.000  0.000  0.000  0.428

band     5 # energy    7.21393779 # occ.  0.00000000

ion      s     py     pz     px    dxy    dyz    dz2    dxz  x2-y2    tot
    1  0.177  0.009  0.009  0.009  0.000  0.000  0.000  0.000  0.000  0.205
    2  0.177  0.009  0.009  0.009  0.000  0.000  0.000  0.000  0.000  0.205
tot    0.355  0.019  0.019  0.019  0.000  0.000  0.000  0.000  0.000  0.411

band     6 # energy    9.07116500 # occ.  0.00000000

ion      s     py     pz     px    dxy    dyz    dz2    dxz  x2-y2    tot
    1  0.000  0.018  0.065  0.023  0.000  0.000  0.000  0.000  0.000  0.107
    2  0.000  0.018  0.065  0.023  0.000  0.000  0.000  0.000  0.000  0.107
tot    0.000  0.037  0.131  0.046  0.000  0.000  0.000  0.000  0.000  0.214

band     7 # energy    9.07116500 # occ.  0.00000000

ion      s     py     pz     px    dxy    dyz    dz2    dxz  x2-y2    tot
    1  0.000  0.053  0.006  0.048  0.000  0.000  0.000  0.000  0.000  0.107
    2  0.000  0.053  0.006  0.048  0.000  0.000  0.000  0.000  0.000  0.107
tot    0.000  0.106  0.012  0.096  0.000  0.000  0.000  0.000  0.000  0.214

band     8 # energy   13.45367176 # occ.  0.00000000

ion      s     py     pz     px    dxy    dyz    dz2    dxz  x2-y2    tot
    1  0.004  0.030  0.030  0.031  0.000  0.000  0.000  0.000  0.000  0.095
    2  0.005  0.031  0.030  0.030  0.000  0.000  0.000  0.000  0.000  0.096
tot    0.009  0.061  0.060  0.061  0.000  0.000  0.000  0.000  0.000  0.191


 k-point   132 :    0.35897436 0.35897436 0.35897436     weight = 0.00416667

band     1 # energy   -4.66005815 # occ.  2.00000000

ion      s     py     pz     px    dxy    dyz    dz2    dxz  x2-y2    tot
    1  0.211  0.004  0.004  0.004  0.000  0.000  0.000  0.000  0.000  0.224
    2  0.211  0.004  0.004  0.004  0.000  0.000  0.000  0.000  0.000  0.224
tot    0.422  0.009  0.009  0.009  0.000  0.000  0.000  0.000  0.000  0.448

band     2 # energy   -0.03472506 # occ.  2.00000000

ion      s     py     pz     px    dxy    dyz    dz2    dxz  x2-y2    tot
    1  0.108  0.033  0.033  0.033  0.000  0.000  0.000  0.000  0.000  0.205
    2  0.108  0.033  0.033  0.033  0.000  0.000  0.000  0.000  0.000  0.205
tot    0.215  0.065  0.065  0.065  0.000  0.000  0.000  0.000  0.000  0.411

band     3 # energy    4.57547935 # occ.  2.00000000

ion      s     py     pz     px    dxy    dyz    dz2    dxz  x2-y2    tot
    1  0.000  0.109  0.000  0.105  0.000  0.000  0.000  0.000  0.000  0.214
    2  0.000  0.109  0.000  0.105  0.000  0.000  0.000  0.000  0.000  0.214
tot    0.000  0.218  0.000  0.209  0.000  0.000  0.000  0.000  0.000  0.427

band     4 # energy    4.57547935 # occ.  2.00000000

ion      s     py     pz     px    dxy    dyz    dz2    dxz  x2-y2    tot
    1  0.000  0.034  0.142  0.038  0.000  0.000  0.000  0.000  0.000  0.214
    2  0.000  0.034  0.142  0.038  0.000  0.000  0.000  0.000  0.000  0.214
tot    0.000  0.067  0.285  0.076  0.000  0.000  0.000  0.000  0.000  0.427

band     5 # energy    7.24186204 # occ.  0.00000000

ion      s     py     pz     px    dxy    dyz    dz2    dxz  x2-y2    tot
    1  0.176  0.010  0.010  0.010  0.000  0.000  0.000  0.000  0.000  0.205
    2  0.176  0.010  0.010  0.010  0.000  0.000  0.000  0.000  0.000  0.205
tot    0.352  0.020  0.020  0.020  0.000  0.000  0.000  0.000  0.000  0.411

band     6 # energy    9.08772904 # occ.  0.00000000

ion      s     py     pz     px    dxy    dyz    dz2    dxz  x2-y2    tot
    1  0.000  0.056  0.001  0.053  0.000  0.000  0.000  0.000  0.000  0.109
    2  0.000  0.056  0.001  0.053  0.000  0.000  0.000  0.000  0.000  0.109
tot    0.000  0.111  0.002  0.106  0.000  0.000  0.000  0.000  0.000  0.219

band     7 # energy    9.08772904 # occ.  0.00000000

ion      s     py     pz     px    dxy    dyz    dz2    dxz  x2-y2    tot
    1  0.000  0.017  0.072  0.020  0.000  0.000  0.000  0.000  0.000  0.109
    2  0.000  0.017  0.072  0.020  0.000  0.000  0.000  0.000  0.000  0.109
tot    0.000  0.034  0.144  0.040  0.000  0.000  0.000  0.000  0.000  0.219

band     8 # energy   13.45709341 # occ.  0.00000000

ion      s     py     pz     px    dxy    dyz    dz2    dxz  x2-y2    tot
    1  0.007  0.034  0.033  0.036  0.000  0.000  0.000  0.000  0.000  0.110
    2  0.007  0.034  0.035  0.033  0.000  0.000  0.000  0.000  0.000  0.109
tot    0.013  0.068  0.069  0.069  0.000  0.000  0.000  0.000  0.000  0.218


 k-point   133 :    0.34615385 0.34615385 0.34615385     weight = 0.00416667

band     1 # energy   -4.75545418 # occ.  2.00000000

ion      s     py     pz     px    dxy    dyz    dz2    dxz  x2-y2    tot
    1  0.210  0.004  0.004  0.004  0.000  0.000  0.000  0.000  0.000  0.223
    2  0.210  0.004  0.004  0.004  0.000  0.000  0.000  0.000  0.000  0.223
tot    0.421  0.009  0.009  0.009  0.000  0.000  0.000  0.000  0.000  0.446

band     2 # energy    0.15141931 # occ.  2.00000000

ion      s     py     pz     px    dxy    dyz    dz2    dxz  x2-y2    tot
    1  0.107  0.033  0.033  0.033  0.000  0.000  0.000  0.000  0.000  0.207
    2  0.107  0.033  0.033  0.033  0.000  0.000  0.000  0.000  0.000  0.207
tot    0.214  0.066  0.066  0.066  0.000  0.000  0.000  0.000  0.000  0.413

band     3 # energy    4.60201630 # occ.  2.00000000

ion      s     py     pz     px    dxy    dyz    dz2    dxz  x2-y2    tot
    1  0.000  0.107  0.000  0.107  0.000  0.000  0.000  0.000  0.000  0.213
    2  0.000  0.107  0.000  0.107  0.000  0.000  0.000  0.000  0.000  0.213
tot    0.000  0.213  0.000  0.213  0.000  0.000  0.000  0.000  0.000  0.427

band     4 # energy    4.60201630 # occ.  2.00000000

ion      s     py     pz     px    dxy    dyz    dz2    dxz  x2-y2    tot
    1  0.000  0.036  0.142  0.036  0.000  0.000  0.000  0.000  0.000  0.213
    2  0.000  0.036  0.142  0.036  0.000  0.000  0.000  0.000  0.000  0.213
tot    0.000  0.071  0.284  0.071  0.000  0.000  0.000  0.000  0.000  0.427

band     5 # energy    7.27227822 # occ.  0.00000000

ion      s     py     pz     px    dxy    dyz    dz2    dxz  x2-y2    tot
    1  0.174  0.010  0.010  0.010  0.000  0.000  0.000  0.000  0.000  0.205
    2  0.174  0.010  0.010  0.010  0.000  0.000  0.000  0.000  0.000  0.205
tot    0.348  0.021  0.021  0.021  0.000  0.000  0.000  0.000  0.000  0.410

band     6 # energy    9.10330275 # occ.  0.00000000

ion      s     py     pz     px    dxy    dyz    dz2    dxz  x2-y2    tot
    1  0.000  0.059  0.004  0.049  0.000  0.000  0.000  0.000  0.000  0.112
    2  0.000  0.059  0.004  0.049  0.000  0.000  0.000  0.000  0.000  0.112
tot    0.000  0.119  0.008  0.098  0.000  0.000  0.000  0.000  0.000  0.225

band     7 # energy    9.10330275 # occ.  0.00000000

ion      s     py     pz     px    dxy    dyz    dz2    dxz  x2-y2    tot
    1  0.000  0.015  0.071  0.026  0.000  0.000  0.000  0.000  0.000  0.112
    2  0.000  0.015  0.071  0.026  0.000  0.000  0.000  0.000  0.000  0.112
tot    0.000  0.031  0.142  0.052  0.000  0.000  0.000  0.000  0.000  0.225

band     8 # energy   13.43982708 # occ.  0.00000000

ion      s     py     pz     px    dxy    dyz    dz2    dxz  x2-y2    tot
    1  0.012  0.040  0.039  0.038  0.000  0.000  0.000  0.000  0.000  0.129
    2  0.011  0.038  0.039  0.039  0.000  0.000  0.000  0.000  0.000  0.128
tot    0.023  0.078  0.078  0.078  0.000  0.000  0.000  0.000  0.000  0.257


 k-point   134 :    0.33333333 0.33333333 0.33333333     weight = 0.00416667

band     1 # energy   -4.85009408 # occ.  2.00000000

ion      s     py     pz     px    dxy    dyz    dz2    dxz  x2-y2    tot
    1  0.210  0.004  0.004  0.004  0.000  0.000  0.000  0.000  0.000  0.222
    2  0.210  0.004  0.004  0.004  0.000  0.000  0.000  0.000  0.000  0.222
tot    0.420  0.008  0.008  0.008  0.000  0.000  0.000  0.000  0.000  0.444

band     2 # energy    0.34441857 # occ.  2.00000000

ion      s     py     pz     px    dxy    dyz    dz2    dxz  x2-y2    tot
    1  0.106  0.034  0.034  0.034  0.000  0.000  0.000  0.000  0.000  0.208
    2  0.106  0.034  0.034  0.034  0.000  0.000  0.000  0.000  0.000  0.208
tot    0.213  0.068  0.068  0.068  0.000  0.000  0.000  0.000  0.000  0.416

band     3 # energy    4.63076510 # occ.  2.00000000

ion      s     py     pz     px    dxy    dyz    dz2    dxz  x2-y2    tot
    1  0.000  0.106  0.000  0.107  0.000  0.000  0.000  0.000  0.000  0.213
    2  0.000  0.106  0.000  0.107  0.000  0.000  0.000  0.000  0.000  0.213
tot    0.000  0.213  0.000  0.213  0.000  0.000  0.000  0.000  0.000  0.426

band     4 # energy    4.63076510 # occ.  2.00000000

ion      s     py     pz     px    dxy    dyz    dz2    dxz  x2-y2    tot
    1  0.000  0.036  0.142  0.035  0.000  0.000  0.000  0.000  0.000  0.213
    2  0.000  0.036  0.142  0.035  0.000  0.000  0.000  0.000  0.000  0.213
tot    0.000  0.071  0.284  0.071  0.000  0.000  0.000  0.000  0.000  0.426

band     5 # energy    7.30512757 # occ.  0.00000000

ion      s     py     pz     px    dxy    dyz    dz2    dxz  x2-y2    tot
    1  0.172  0.011  0.011  0.011  0.000  0.000  0.000  0.000  0.000  0.205
    2  0.172  0.011  0.011  0.011  0.000  0.000  0.000  0.000  0.000  0.205
tot    0.344  0.022  0.022  0.022  0.000  0.000  0.000  0.000  0.000  0.410

band     6 # energy    9.11711723 # occ.  0.00000000

ion      s     py     pz     px    dxy    dyz    dz2    dxz  x2-y2    tot
    1  0.000  0.049  0.009  0.057  0.000  0.000  0.000  0.000  0.000  0.115
    2  0.000  0.049  0.009  0.057  0.000  0.000  0.000  0.000  0.000  0.115
tot    0.000  0.099  0.018  0.114  0.000  0.000  0.000  0.000  0.000  0.231

band     7 # energy    9.11711723 # occ.  0.00000000

ion      s     py     pz     px    dxy    dyz    dz2    dxz  x2-y2    tot
    1  0.000  0.028  0.068  0.020  0.000  0.000  0.000  0.000  0.000  0.115
    2  0.000  0.028  0.068  0.020  0.000  0.000  0.000  0.000  0.000  0.115
tot    0.000  0.055  0.136  0.040  0.000  0.000  0.000  0.000  0.000  0.231

band     8 # energy   13.40965581 # occ.  0.00000000

ion      s     py     pz     px    dxy    dyz    dz2    dxz  x2-y2    tot
    1  0.020  0.050  0.044  0.039  0.000  0.000  0.000  0.000  0.000  0.152
    2  0.019  0.040  0.045  0.039  0.000  0.000  0.000  0.000  0.000  0.143
tot    0.038  0.090  0.088  0.078  0.000  0.000  0.000  0.000  0.000  0.295


 k-point   135 :    0.32051282 0.32051282 0.32051282     weight = 0.00416667

band     1 # energy   -4.94339388 # occ.  2.00000000

ion      s     py     pz     px    dxy    dyz    dz2    dxz  x2-y2    tot
    1  0.210  0.004  0.004  0.004  0.000  0.000  0.000  0.000  0.000  0.221
    2  0.210  0.004  0.004  0.004  0.000  0.000  0.000  0.000  0.000  0.221
tot    0.419  0.008  0.008  0.008  0.000  0.000  0.000  0.000  0.000  0.442

band     2 # energy    0.54360741 # occ.  2.00000000

ion      s     py     pz     px    dxy    dyz    dz2    dxz  x2-y2    tot
    1  0.106  0.034  0.034  0.034  0.000  0.000  0.000  0.000  0.000  0.209
    2  0.106  0.034  0.034  0.034  0.000  0.000  0.000  0.000  0.000  0.209
tot    0.211  0.069  0.069  0.069  0.000  0.000  0.000  0.000  0.000  0.418

band     3 # energy    4.66169068 # occ.  2.00000000

ion      s     py     pz     px    dxy    dyz    dz2    dxz  x2-y2    tot
    1  0.000  0.108  0.000  0.105  0.000  0.000  0.000  0.000  0.000  0.213
    2  0.000  0.108  0.000  0.105  0.000  0.000  0.000  0.000  0.000  0.213
tot    0.000  0.215  0.000  0.210  0.000  0.000  0.000  0.000  0.000  0.426

band     4 # energy    4.66169068 # occ.  2.00000000

ion      s     py     pz     px    dxy    dyz    dz2    dxz  x2-y2    tot
    1  0.000  0.034  0.142  0.037  0.000  0.000  0.000  0.000  0.000  0.213
    2  0.000  0.034  0.142  0.037  0.000  0.000  0.000  0.000  0.000  0.213
tot    0.000  0.068  0.284  0.074  0.000  0.000  0.000  0.000  0.000  0.426

band     5 # energy    7.34034284 # occ.  0.00000000

ion      s     py     pz     px    dxy    dyz    dz2    dxz  x2-y2    tot
    1  0.170  0.012  0.012  0.012  0.000  0.000  0.000  0.000  0.000  0.205
    2  0.170  0.012  0.012  0.012  0.000  0.000  0.000  0.000  0.000  0.205
tot    0.340  0.023  0.023  0.023  0.000  0.000  0.000  0.000  0.000  0.410

band     6 # energy    9.12833141 # occ.  0.00000000

ion      s     py     pz     px    dxy    dyz    dz2    dxz  x2-y2    tot
    1  0.000  0.078  0.021  0.020  0.000  0.000  0.000  0.000  0.000  0.119
    2  0.000  0.078  0.021  0.020  0.000  0.000  0.000  0.000  0.000  0.119
tot    0.000  0.155  0.042  0.040  0.000  0.000  0.000  0.000  0.000  0.237

band     7 # energy    9.12833141 # occ.  0.00000000

ion      s     py     pz     px    dxy    dyz    dz2    dxz  x2-y2    tot
    1  0.000  0.001  0.058  0.059  0.000  0.000  0.000  0.000  0.000  0.119
    2  0.000  0.001  0.058  0.059  0.000  0.000  0.000  0.000  0.000  0.119
tot    0.000  0.003  0.116  0.118  0.000  0.000  0.000  0.000  0.000  0.237

band     8 # energy   13.31749113 # occ.  0.00000000

ion      s     py     pz     px    dxy    dyz    dz2    dxz  x2-y2    tot
    1  0.035  0.049  0.050  0.049  0.000  0.000  0.000  0.000  0.000  0.183
    2  0.035  0.050  0.050  0.048  0.000  0.000  0.000  0.000  0.000  0.182
tot    0.069  0.099  0.100  0.097  0.000  0.000  0.000  0.000  0.000  0.365


 k-point   136 :    0.30769231 0.30769231 0.30769231     weight = 0.00416667

band     1 # energy   -5.03487733 # occ.  2.00000000

ion      s     py     pz     px    dxy    dyz    dz2    dxz  x2-y2    tot
    1  0.209  0.004  0.004  0.004  0.000  0.000  0.000  0.000  0.000  0.220
    2  0.209  0.004  0.004  0.004  0.000  0.000  0.000  0.000  0.000  0.220
tot    0.419  0.007  0.007  0.007  0.000  0.000  0.000  0.000  0.000  0.441

band     2 # energy    0.74841626 # occ.  2.00000000

ion      s     py     pz     px    dxy    dyz    dz2    dxz  x2-y2    tot
    1  0.105  0.035  0.035  0.035  0.000  0.000  0.000  0.000  0.000  0.210
    2  0.105  0.035  0.035  0.035  0.000  0.000  0.000  0.000  0.000  0.210
tot    0.209  0.070  0.070  0.070  0.000  0.000  0.000  0.000  0.000  0.420

band     3 # energy    4.69474974 # occ.  2.00000000

ion      s     py     pz     px    dxy    dyz    dz2    dxz  x2-y2    tot
    1  0.000  0.106  0.000  0.106  0.000  0.000  0.000  0.000  0.000  0.212
    2  0.000  0.106  0.000  0.106  0.000  0.000  0.000  0.000  0.000  0.212
tot    0.000  0.213  0.000  0.212  0.000  0.000  0.000  0.000  0.000  0.425

band     4 # energy    4.69474974 # occ.  2.00000000

ion      s     py     pz     px    dxy    dyz    dz2    dxz  x2-y2    tot
    1  0.000  0.035  0.142  0.036  0.000  0.000  0.000  0.000  0.000  0.212
    2  0.000  0.035  0.142  0.036  0.000  0.000  0.000  0.000  0.000  0.212
tot    0.000  0.070  0.283  0.071  0.000  0.000  0.000  0.000  0.000  0.425

band     5 # energy    7.37784418 # occ.  0.00000000

ion      s     py     pz     px    dxy    dyz    dz2    dxz  x2-y2    tot
    1  0.168  0.012  0.012  0.012  0.000  0.000  0.000  0.000  0.000  0.205
    2  0.168  0.012  0.012  0.012  0.000  0.000  0.000  0.000  0.000  0.205
tot    0.336  0.025  0.025  0.025  0.000  0.000  0.000  0.000  0.000  0.410

band     6 # energy    9.13604763 # occ.  0.00000000

ion      s     py     pz     px    dxy    dyz    dz2    dxz  x2-y2    tot
    1  0.000  0.071  0.021  0.030  0.000  0.000  0.000  0.000  0.000  0.122
    2  0.000  0.071  0.021  0.030  0.000  0.000  0.000  0.000  0.000  0.122
tot    0.000  0.142  0.043  0.060  0.000  0.000  0.000  0.000  0.000  0.244

band     7 # energy    9.13604763 # occ.  0.00000000

ion      s     py     pz     px    dxy    dyz    dz2    dxz  x2-y2    tot
    1  0.000  0.010  0.060  0.052  0.000  0.000  0.000  0.000  0.000  0.122
    2  0.000  0.010  0.060  0.052  0.000  0.000  0.000  0.000  0.000  0.122
tot    0.000  0.021  0.120  0.103  0.000  0.000  0.000  0.000  0.000  0.244

band     8 # energy   13.21320480 # occ.  0.00000000

ion      s     py     pz     px    dxy    dyz    dz2    dxz  x2-y2    tot
    1  0.041  0.060  0.044  0.031  0.000  0.000  0.000  0.000  0.000  0.176
    2  0.042  0.043  0.038  0.058  0.000  0.000  0.000  0.000  0.000  0.180
tot    0.083  0.103  0.081  0.089  0.000  0.000  0.000  0.000  0.000  0.356


 k-point   137 :    0.29487179 0.29487179 0.29487179     weight = 0.00416667

band     1 # energy   -5.12416097 # occ.  2.00000000

ion      s     py     pz     px    dxy    dyz    dz2    dxz  x2-y2    tot
    1  0.209  0.003  0.003  0.003  0.000  0.000  0.000  0.000  0.000  0.219
    2  0.209  0.003  0.003  0.003  0.000  0.000  0.000  0.000  0.000  0.219
tot    0.418  0.007  0.007  0.007  0.000  0.000  0.000  0.000  0.000  0.439

band     2 # energy    0.95833505 # occ.  2.00000000

ion      s     py     pz     px    dxy    dyz    dz2    dxz  x2-y2    tot
    1  0.103  0.036  0.036  0.036  0.000  0.000  0.000  0.000  0.000  0.211
    2  0.103  0.036  0.036  0.036  0.000  0.000  0.000  0.000  0.000  0.211
tot    0.206  0.072  0.072  0.072  0.000  0.000  0.000  0.000  0.000  0.422

band     3 # energy    4.72987757 # occ.  2.00000000

ion      s     py     pz     px    dxy    dyz    dz2    dxz  x2-y2    tot
    1  0.000  0.106  0.000  0.106  0.000  0.000  0.000  0.000  0.000  0.212
    2  0.000  0.106  0.000  0.106  0.000  0.000  0.000  0.000  0.000  0.212
tot    0.000  0.212  0.000  0.212  0.000  0.000  0.000  0.000  0.000  0.424

band     4 # energy    4.72987757 # occ.  2.00000000

ion      s     py     pz     px    dxy    dyz    dz2    dxz  x2-y2    tot
    1  0.000  0.035  0.141  0.036  0.000  0.000  0.000  0.000  0.000  0.212
    2  0.000  0.035  0.141  0.036  0.000  0.000  0.000  0.000  0.000  0.212
tot    0.000  0.070  0.283  0.071  0.000  0.000  0.000  0.000  0.000  0.424

band     5 # energy    7.41751695 # occ.  0.00000000

ion      s     py     pz     px    dxy    dyz    dz2    dxz  x2-y2    tot
    1  0.166  0.013  0.013  0.013  0.000  0.000  0.000  0.000  0.000  0.205
    2  0.166  0.013  0.013  0.013  0.000  0.000  0.000  0.000  0.000  0.205
tot    0.331  0.026  0.026  0.026  0.000  0.000  0.000  0.000  0.000  0.410

band     6 # energy    9.13933171 # occ.  0.00000000

ion      s     py     pz     px    dxy    dyz    dz2    dxz  x2-y2    tot
    1  0.000  0.025  0.071  0.030  0.000  0.000  0.000  0.000  0.000  0.126
    2  0.000  0.025  0.071  0.030  0.000  0.000  0.000  0.000  0.000  0.126
tot    0.000  0.050  0.142  0.060  0.000  0.000  0.000  0.000  0.000  0.252

band     7 # energy    9.13933171 # occ.  0.00000000

ion      s     py     pz     px    dxy    dyz    dz2    dxz  x2-y2    tot
    1  0.000  0.059  0.013  0.054  0.000  0.000  0.000  0.000  0.000  0.126
    2  0.000  0.059  0.013  0.054  0.000  0.000  0.000  0.000  0.000  0.126
tot    0.000  0.118  0.026  0.108  0.000  0.000  0.000  0.000  0.000  0.252

band     8 # energy   13.05990616 # occ.  0.00000000

ion      s     py     pz     px    dxy    dyz    dz2    dxz  x2-y2    tot
    1  0.061  0.057  0.034  0.058  0.000  0.000  0.000  0.000  0.000  0.209
    2  0.061  0.047  0.059  0.040  0.000  0.000  0.000  0.000  0.000  0.207
tot    0.122  0.104  0.093  0.098  0.000  0.000  0.000  0.000  0.000  0.417


 k-point   138 :    0.28205128 0.28205128 0.28205128     weight = 0.00416667

band     1 # energy   -5.21092421 # occ.  2.00000000

ion      s     py     pz     px    dxy    dyz    dz2    dxz  x2-y2    tot
    1  0.209  0.003  0.003  0.003  0.000  0.000  0.000  0.000  0.000  0.219
    2  0.209  0.003  0.003  0.003  0.000  0.000  0.000  0.000  0.000  0.219
tot    0.418  0.006  0.006  0.006  0.000  0.000  0.000  0.000  0.000  0.437

band     2 # energy    1.17293205 # occ.  2.00000000

ion      s     py     pz     px    dxy    dyz    dz2    dxz  x2-y2    tot
    1  0.102  0.037  0.037  0.037  0.000  0.000  0.000  0.000  0.000  0.212
    2  0.102  0.037  0.037  0.037  0.000  0.000  0.000  0.000  0.000  0.212
tot    0.203  0.074  0.074  0.074  0.000  0.000  0.000  0.000  0.000  0.424

band     3 # energy    4.76702915 # occ.  2.00000000

ion      s     py     pz     px    dxy    dyz    dz2    dxz  x2-y2    tot
    1  0.000  0.105  0.000  0.106  0.000  0.000  0.000  0.000  0.000  0.212
    2  0.000  0.105  0.000  0.106  0.000  0.000  0.000  0.000  0.000  0.212
tot    0.000  0.211  0.000  0.213  0.000  0.000  0.000  0.000  0.000  0.424

band     4 # energy    4.76702915 # occ.  2.00000000

ion      s     py     pz     px    dxy    dyz    dz2    dxz  x2-y2    tot
    1  0.000  0.036  0.141  0.035  0.000  0.000  0.000  0.000  0.000  0.212
    2  0.000  0.036  0.141  0.035  0.000  0.000  0.000  0.000  0.000  0.212
tot    0.000  0.072  0.283  0.070  0.000  0.000  0.000  0.000  0.000  0.424

band     5 # energy    7.45928828 # occ.  0.00000000

ion      s     py     pz     px    dxy    dyz    dz2    dxz  x2-y2    tot
    1  0.163  0.014  0.014  0.014  0.000  0.000  0.000  0.000  0.000  0.205
    2  0.163  0.014  0.014  0.014  0.000  0.000  0.000  0.000  0.000  0.205
tot    0.326  0.028  0.028  0.028  0.000  0.000  0.000  0.000  0.000  0.410

band     6 # energy    9.13728220 # occ.  0.00000000

ion      s     py     pz     px    dxy    dyz    dz2    dxz  x2-y2    tot
    1  0.000  0.076  0.043  0.010  0.000  0.000  0.000  0.000  0.000  0.130
    2  0.000  0.076  0.043  0.010  0.000  0.000  0.000  0.000  0.000  0.130
tot    0.000  0.153  0.087  0.020  0.000  0.000  0.000  0.000  0.000  0.259

band     7 # energy    9.13728220 # occ.  0.00000000

ion      s     py     pz     px    dxy    dyz    dz2    dxz  x2-y2    tot
    1  0.000  0.010  0.043  0.077  0.000  0.000  0.000  0.000  0.000  0.130
    2  0.000  0.010  0.043  0.077  0.000  0.000  0.000  0.000  0.000  0.130
tot    0.000  0.020  0.086  0.153  0.000  0.000  0.000  0.000  0.000  0.259

band     8 # energy   12.87710372 # occ.  0.00000000

ion      s     py     pz     px    dxy    dyz    dz2    dxz  x2-y2    tot
    1  0.079  0.045  0.049  0.061  0.000  0.000  0.000  0.000  0.000  0.235
    2  0.080  0.054  0.056  0.046  0.000  0.000  0.000  0.000  0.000  0.237
tot    0.159  0.100  0.105  0.107  0.000  0.000  0.000  0.000  0.000  0.471


 k-point   139 :    0.26923077 0.26923077 0.26923077     weight = 0.00416667

band     1 # energy   -5.29488901 # occ.  2.00000000

ion      s     py     pz     px    dxy    dyz    dz2    dxz  x2-y2    tot
    1  0.209  0.003  0.003  0.003  0.000  0.000  0.000  0.000  0.000  0.218
    2  0.209  0.003  0.003  0.003  0.000  0.000  0.000  0.000  0.000  0.218
tot    0.418  0.006  0.006  0.006  0.000  0.000  0.000  0.000  0.000  0.436

band     2 # energy    1.39182864 # occ.  2.00000000

ion      s     py     pz     px    dxy    dyz    dz2    dxz  x2-y2    tot
    1  0.100  0.038  0.038  0.038  0.000  0.000  0.000  0.000  0.000  0.213
    2  0.100  0.038  0.038  0.038  0.000  0.000  0.000  0.000  0.000  0.213
tot    0.200  0.075  0.075  0.075  0.000  0.000  0.000  0.000  0.000  0.426

band     3 # energy    4.80611711 # occ.  2.00000000

ion      s     py     pz     px    dxy    dyz    dz2    dxz  x2-y2    tot
    1  0.000  0.107  0.000  0.105  0.000  0.000  0.000  0.000  0.000  0.212
    2  0.000  0.107  0.000  0.105  0.000  0.000  0.000  0.000  0.000  0.212
tot    0.000  0.214  0.000  0.209  0.000  0.000  0.000  0.000  0.000  0.423

band     4 # energy    4.80611711 # occ.  2.00000000

ion      s     py     pz     px    dxy    dyz    dz2    dxz  x2-y2    tot
    1  0.000  0.034  0.141  0.036  0.000  0.000  0.000  0.000  0.000  0.212
    2  0.000  0.034  0.141  0.036  0.000  0.000  0.000  0.000  0.000  0.212
tot    0.000  0.068  0.282  0.073  0.000  0.000  0.000  0.000  0.000  0.423

band     5 # energy    7.50302116 # occ.  0.00000000

ion      s     py     pz     px    dxy    dyz    dz2    dxz  x2-y2    tot
    1  0.160  0.015  0.015  0.015  0.000  0.000  0.000  0.000  0.000  0.205
    2  0.160  0.015  0.015  0.015  0.000  0.000  0.000  0.000  0.000  0.205
tot    0.321  0.030  0.030  0.030  0.000  0.000  0.000  0.000  0.000  0.409

band     6 # energy    9.12904540 # occ.  0.00000000

ion      s     py     pz     px    dxy    dyz    dz2    dxz  x2-y2    tot
    1  0.000  0.061  0.046  0.026  0.000  0.000  0.000  0.000  0.000  0.133
    2  0.000  0.061  0.046  0.026  0.000  0.000  0.000  0.000  0.000  0.133
tot    0.000  0.121  0.093  0.053  0.000  0.000  0.000  0.000  0.000  0.267

band     7 # energy    9.12904540 # occ.  0.00000000

ion      s     py     pz     px    dxy    dyz    dz2    dxz  x2-y2    tot
    1  0.000  0.028  0.043  0.063  0.000  0.000  0.000  0.000  0.000  0.133
    2  0.000  0.028  0.043  0.063  0.000  0.000  0.000  0.000  0.000  0.133
tot    0.000  0.056  0.085  0.125  0.000  0.000  0.000  0.000  0.000  0.267

band     8 # energy   12.67625890 # occ.  0.00000000

ion      s     py     pz     px    dxy    dyz    dz2    dxz  x2-y2    tot
    1  0.095  0.053  0.052  0.053  0.000  0.000  0.000  0.000  0.000  0.253
    2  0.094  0.052  0.052  0.053  0.000  0.000  0.000  0.000  0.000  0.250
tot    0.189  0.105  0.104  0.105  0.000  0.000  0.000  0.000  0.000  0.503


 k-point   140 :    0.25641026 0.25641026 0.25641026     weight = 0.00416667

band     1 # energy   -5.37583017 # occ.  2.00000000

ion      s     py     pz     px    dxy    dyz    dz2    dxz  x2-y2    tot
    1  0.209  0.003  0.003  0.003  0.000  0.000  0.000  0.000  0.000  0.217
    2  0.209  0.003  0.003  0.003  0.000  0.000  0.000  0.000  0.000  0.217
tot    0.419  0.005  0.005  0.005  0.000  0.000  0.000  0.000  0.000  0.435

band     2 # energy    1.61459306 # occ.  2.00000000

ion      s     py     pz     px    dxy    dyz    dz2    dxz  x2-y2    tot
    1  0.098  0.039  0.039  0.039  0.000  0.000  0.000  0.000  0.000  0.214
    2  0.098  0.039  0.039  0.039  0.000  0.000  0.000  0.000  0.000  0.214
tot    0.196  0.077  0.077  0.077  0.000  0.000  0.000  0.000  0.000  0.428

band     3 # energy    4.84705274 # occ.  2.00000000

ion      s     py     pz     px    dxy    dyz    dz2    dxz  x2-y2    tot
    1  0.000  0.106  0.000  0.105  0.000  0.000  0.000  0.000  0.000  0.211
    2  0.000  0.106  0.000  0.105  0.000  0.000  0.000  0.000  0.000  0.211
tot    0.000  0.212  0.000  0.211  0.000  0.000  0.000  0.000  0.000  0.423

band     4 # energy    4.84705274 # occ.  2.00000000

ion      s     py     pz     px    dxy    dyz    dz2    dxz  x2-y2    tot
    1  0.000  0.035  0.141  0.036  0.000  0.000  0.000  0.000  0.000  0.211
    2  0.000  0.035  0.141  0.036  0.000  0.000  0.000  0.000  0.000  0.211
tot    0.000  0.070  0.282  0.071  0.000  0.000  0.000  0.000  0.000  0.423

band     5 # energy    7.54854987 # occ.  0.00000000

ion      s     py     pz     px    dxy    dyz    dz2    dxz  x2-y2    tot
    1  0.158  0.016  0.016  0.016  0.000  0.000  0.000  0.000  0.000  0.205
    2  0.158  0.016  0.016  0.016  0.000  0.000  0.000  0.000  0.000  0.205
tot    0.315  0.031  0.031  0.031  0.000  0.000  0.000  0.000  0.000  0.409

band     6 # energy    9.11391282 # occ.  0.00000000

ion      s     py     pz     px    dxy    dyz    dz2    dxz  x2-y2    tot
    1  0.000  0.012  0.077  0.048  0.000  0.000  0.000  0.000  0.000  0.137
    2  0.000  0.012  0.077  0.048  0.000  0.000  0.000  0.000  0.000  0.137
tot    0.000  0.024  0.153  0.096  0.000  0.000  0.000  0.000  0.000  0.274

band     7 # energy    9.11391282 # occ.  0.00000000

ion      s     py     pz     px    dxy    dyz    dz2    dxz  x2-y2    tot
    1  0.000  0.079  0.015  0.043  0.000  0.000  0.000  0.000  0.000  0.137
    2  0.000  0.079  0.015  0.043  0.000  0.000  0.000  0.000  0.000  0.137
tot    0.000  0.158  0.029  0.086  0.000  0.000  0.000  0.000  0.000  0.274

band     8 # energy   12.46919568 # occ.  0.00000000

ion      s     py     pz     px    dxy    dyz    dz2    dxz  x2-y2    tot
    1  0.106  0.051  0.050  0.052  0.000  0.000  0.000  0.000  0.000  0.258
    2  0.106  0.052  0.051  0.050  0.000  0.000  0.000  0.000  0.000  0.259
tot    0.212  0.102  0.102  0.102  0.000  0.000  0.000  0.000  0.000  0.518


 k-point   141 :    0.24358974 0.24358974 0.24358974     weight = 0.00416667

band     1 # energy   -5.45356473 # occ.  2.00000000

ion      s     py     pz     px    dxy    dyz    dz2    dxz  x2-y2    tot
    1  0.209  0.002  0.002  0.002  0.000  0.000  0.000  0.000  0.000  0.217
    2  0.209  0.002  0.002  0.002  0.000  0.000  0.000  0.000  0.000  0.217
tot    0.419  0.005  0.005  0.005  0.000  0.000  0.000  0.000  0.000  0.434

band     2 # energy    1.84087783 # occ.  2.00000000

ion      s     py     pz     px    dxy    dyz    dz2    dxz  x2-y2    tot
    1  0.096  0.040  0.040  0.040  0.000  0.000  0.000  0.000  0.000  0.215
    2  0.096  0.040  0.040  0.040  0.000  0.000  0.000  0.000  0.000  0.215
tot    0.192  0.079  0.079  0.079  0.000  0.000  0.000  0.000  0.000  0.429

band     3 # energy    4.88970877 # occ.  2.00000000

ion      s     py     pz     px    dxy    dyz    dz2    dxz  x2-y2    tot
    1  0.000  0.106  0.000  0.105  0.000  0.000  0.000  0.000  0.000  0.211
    2  0.000  0.106  0.000  0.105  0.000  0.000  0.000  0.000  0.000  0.211
tot    0.000  0.212  0.000  0.210  0.000  0.000  0.000  0.000  0.000  0.422

band     4 # energy    4.88970877 # occ.  2.00000000

ion      s     py     pz     px    dxy    dyz    dz2    dxz  x2-y2    tot
    1  0.000  0.035  0.141  0.036  0.000  0.000  0.000  0.000  0.000  0.211
    2  0.000  0.035  0.141  0.036  0.000  0.000  0.000  0.000  0.000  0.211
tot    0.000  0.070  0.282  0.071  0.000  0.000  0.000  0.000  0.000  0.422

band     5 # energy    7.59569473 # occ.  0.00000000

ion      s     py     pz     px    dxy    dyz    dz2    dxz  x2-y2    tot
    1  0.154  0.017  0.017  0.017  0.000  0.000  0.000  0.000  0.000  0.204
    2  0.154  0.017  0.017  0.017  0.000  0.000  0.000  0.000  0.000  0.204
tot    0.309  0.033  0.033  0.033  0.000  0.000  0.000  0.000  0.000  0.409

band     6 # energy    9.09133684 # occ.  0.00000000

ion      s     py     pz     px    dxy    dyz    dz2    dxz  x2-y2    tot
    1  0.000  0.078  0.023  0.040  0.000  0.000  0.000  0.000  0.000  0.141
    2  0.000  0.078  0.023  0.040  0.000  0.000  0.000  0.000  0.000  0.141
tot    0.000  0.155  0.045  0.081  0.000  0.000  0.000  0.000  0.000  0.281

band     7 # energy    9.09133684 # occ.  0.00000000

ion      s     py     pz     px    dxy    dyz    dz2    dxz  x2-y2    tot
    1  0.000  0.016  0.071  0.053  0.000  0.000  0.000  0.000  0.000  0.141
    2  0.000  0.016  0.071  0.053  0.000  0.000  0.000  0.000  0.000  0.141
tot    0.000  0.032  0.142  0.107  0.000  0.000  0.000  0.000  0.000  0.281

band     8 # energy   12.25393214 # occ.  0.00000000

ion      s     py     pz     px    dxy    dyz    dz2    dxz  x2-y2    tot
    1  0.116  0.050  0.049  0.050  0.000  0.000  0.000  0.000  0.000  0.264
    2  0.116  0.050  0.050  0.049  0.000  0.000  0.000  0.000  0.000  0.264
tot    0.231  0.099  0.099  0.099  0.000  0.000  0.000  0.000  0.000  0.529


 k-point   142 :    0.23076923 0.23076923 0.23076923     weight = 0.00416667

band     1 # energy   -5.52793129 # occ.  2.00000000

ion      s     py     pz     px    dxy    dyz    dz2    dxz  x2-y2    tot
    1  0.209  0.002  0.002  0.002  0.000  0.000  0.000  0.000  0.000  0.216
    2  0.209  0.002  0.002  0.002  0.000  0.000  0.000  0.000  0.000  0.216
tot    0.419  0.005  0.005  0.005  0.000  0.000  0.000  0.000  0.000  0.433

band     2 # energy    2.07031296 # occ.  2.00000000

ion      s     py     pz     px    dxy    dyz    dz2    dxz  x2-y2    tot
    1  0.094  0.041  0.041  0.041  0.000  0.000  0.000  0.000  0.000  0.215
    2  0.094  0.041  0.041  0.041  0.000  0.000  0.000  0.000  0.000  0.215
tot    0.188  0.081  0.081  0.081  0.000  0.000  0.000  0.000  0.000  0.431

band     3 # energy    4.93395915 # occ.  2.00000000

ion      s     py     pz     px    dxy    dyz    dz2    dxz  x2-y2    tot
    1  0.000  0.105  0.000  0.106  0.000  0.000  0.000  0.000  0.000  0.211
    2  0.000  0.105  0.000  0.106  0.000  0.000  0.000  0.000  0.000  0.211
tot    0.000  0.211  0.000  0.211  0.000  0.000  0.000  0.000  0.000  0.422

band     4 # energy    4.93395915 # occ.  2.00000000

ion      s     py     pz     px    dxy    dyz    dz2    dxz  x2-y2    tot
    1  0.000  0.035  0.141  0.035  0.000  0.000  0.000  0.000  0.000  0.211
    2  0.000  0.035  0.141  0.035  0.000  0.000  0.000  0.000  0.000  0.211
tot    0.000  0.070  0.281  0.070  0.000  0.000  0.000  0.000  0.000  0.422

band     5 # energy    7.64425610 # occ.  0.00000000

ion      s     py     pz     px    dxy    dyz    dz2    dxz  x2-y2    tot
    1  0.151  0.018  0.018  0.018  0.000  0.000  0.000  0.000  0.000  0.204
    2  0.151  0.018  0.018  0.018  0.000  0.000  0.000  0.000  0.000  0.204
tot    0.302  0.035  0.035  0.035  0.000  0.000  0.000  0.000  0.000  0.409

band     6 # energy    9.06106160 # occ.  0.00000000

ion      s     py     pz     px    dxy    dyz    dz2    dxz  x2-y2    tot
    1  0.000  0.060  0.051  0.033  0.000  0.000  0.000  0.000  0.000  0.144
    2  0.000  0.060  0.051  0.033  0.000  0.000  0.000  0.000  0.000  0.144
tot    0.000  0.119  0.102  0.066  0.000  0.000  0.000  0.000  0.000  0.287

band     7 # energy    9.06106160 # occ.  0.00000000

ion      s     py     pz     px    dxy    dyz    dz2    dxz  x2-y2    tot
    1  0.000  0.036  0.045  0.063  0.000  0.000  0.000  0.000  0.000  0.144
    2  0.000  0.036  0.045  0.063  0.000  0.000  0.000  0.000  0.000  0.144
tot    0.000  0.072  0.089  0.126  0.000  0.000  0.000  0.000  0.000  0.287

band     8 # energy   12.03319689 # occ.  0.00000000

ion      s     py     pz     px    dxy    dyz    dz2    dxz  x2-y2    tot
    1  0.125  0.048  0.048  0.048  0.000  0.000  0.000  0.000  0.000  0.269
    2  0.125  0.048  0.048  0.048  0.000  0.000  0.000  0.000  0.000  0.269
tot    0.249  0.096  0.096  0.096  0.000  0.000  0.000  0.000  0.000  0.537


 k-point   143 :    0.21794872 0.21794872 0.21794872     weight = 0.00416667

band     1 # energy   -5.59879578 # occ.  2.00000000

ion      s     py     pz     px    dxy    dyz    dz2    dxz  x2-y2    tot
    1  0.210  0.002  0.002  0.002  0.000  0.000  0.000  0.000  0.000  0.216
    2  0.210  0.002  0.002  0.002  0.000  0.000  0.000  0.000  0.000  0.216
tot    0.419  0.004  0.004  0.004  0.000  0.000  0.000  0.000  0.000  0.432

band     2 # energy    2.30251551 # occ.  2.00000000

ion      s     py     pz     px    dxy    dyz    dz2    dxz  x2-y2    tot
    1  0.091  0.042  0.042  0.042  0.000  0.000  0.000  0.000  0.000  0.216
    2  0.091  0.042  0.042  0.042  0.000  0.000  0.000  0.000  0.000  0.216
tot    0.182  0.083  0.083  0.083  0.000  0.000  0.000  0.000  0.000  0.432

band     3 # energy    4.97964813 # occ.  2.00000000

ion      s     py     pz     px    dxy    dyz    dz2    dxz  x2-y2    tot
    1  0.000  0.105  0.000  0.105  0.000  0.000  0.000  0.000  0.000  0.211
    2  0.000  0.105  0.000  0.105  0.000  0.000  0.000  0.000  0.000  0.211
tot    0.000  0.211  0.000  0.211  0.000  0.000  0.000  0.000  0.000  0.422

band     4 # energy    4.97964813 # occ.  2.00000000

ion      s     py     pz     px    dxy    dyz    dz2    dxz  x2-y2    tot
    1  0.000  0.035  0.141  0.035  0.000  0.000  0.000  0.000  0.000  0.211
    2  0.000  0.035  0.141  0.035  0.000  0.000  0.000  0.000  0.000  0.211
tot    0.000  0.070  0.281  0.070  0.000  0.000  0.000  0.000  0.000  0.422

band     5 # energy    7.69399343 # occ.  0.00000000

ion      s     py     pz     px    dxy    dyz    dz2    dxz  x2-y2    tot
    1  0.148  0.019  0.019  0.019  0.000  0.000  0.000  0.000  0.000  0.204
    2  0.148  0.019  0.019  0.019  0.000  0.000  0.000  0.000  0.000  0.204
tot    0.295  0.038  0.038  0.038  0.000  0.000  0.000  0.000  0.000  0.408

band     6 # energy    9.02316528 # occ.  0.00000000

ion      s     py     pz     px    dxy    dyz    dz2    dxz  x2-y2    tot
    1  0.000  0.013  0.060  0.073  0.000  0.000  0.000  0.000  0.000  0.146
    2  0.000  0.013  0.060  0.073  0.000  0.000  0.000  0.000  0.000  0.146
tot    0.000  0.026  0.121  0.146  0.000  0.000  0.000  0.000  0.000  0.293

band     7 # energy    9.02316528 # occ.  0.00000000

ion      s     py     pz     px    dxy    dyz    dz2    dxz  x2-y2    tot
    1  0.000  0.085  0.037  0.025  0.000  0.000  0.000  0.000  0.000  0.146
    2  0.000  0.085  0.037  0.025  0.000  0.000  0.000  0.000  0.000  0.146
tot    0.000  0.169  0.074  0.050  0.000  0.000  0.000  0.000  0.000  0.293

band     8 # energy   11.80850374 # occ.  0.00000000

ion      s     py     pz     px    dxy    dyz    dz2    dxz  x2-y2    tot
    1  0.133  0.046  0.047  0.046  0.000  0.000  0.000  0.000  0.000  0.272
    2  0.133  0.046  0.046  0.047  0.000  0.000  0.000  0.000  0.000  0.272
tot    0.266  0.093  0.093  0.093  0.000  0.000  0.000  0.000  0.000  0.545


 k-point   144 :    0.20512821 0.20512821 0.20512821     weight = 0.00416667

band     1 # energy   -5.66604366 # occ.  2.00000000

ion      s     py     pz     px    dxy    dyz    dz2    dxz  x2-y2    tot
    1  0.210  0.002  0.002  0.002  0.000  0.000  0.000  0.000  0.000  0.215
    2  0.210  0.002  0.002  0.002  0.000  0.000  0.000  0.000  0.000  0.215
tot    0.420  0.004  0.004  0.004  0.000  0.000  0.000  0.000  0.000  0.431

band     2 # energy    2.53707678 # occ.  2.00000000

ion      s     py     pz     px    dxy    dyz    dz2    dxz  x2-y2    tot
    1  0.089  0.043  0.043  0.043  0.000  0.000  0.000  0.000  0.000  0.217
    2  0.089  0.043  0.043  0.043  0.000  0.000  0.000  0.000  0.000  0.217
tot    0.177  0.085  0.085  0.085  0.000  0.000  0.000  0.000  0.000  0.433

band     3 # energy    5.02657866 # occ.  2.00000000

ion      s     py     pz     px    dxy    dyz    dz2    dxz  x2-y2    tot
    1  0.000  0.106  0.000  0.105  0.000  0.000  0.000  0.000  0.000  0.211
    2  0.000  0.106  0.000  0.105  0.000  0.000  0.000  0.000  0.000  0.211
tot    0.000  0.211  0.000  0.210  0.000  0.000  0.000  0.000  0.000  0.421

band     4 # energy    5.02657866 # occ.  2.00000000

ion      s     py     pz     px    dxy    dyz    dz2    dxz  x2-y2    tot
    1  0.000  0.035  0.140  0.035  0.000  0.000  0.000  0.000  0.000  0.211
    2  0.000  0.035  0.140  0.035  0.000  0.000  0.000  0.000  0.000  0.211
tot    0.000  0.070  0.281  0.071  0.000  0.000  0.000  0.000  0.000  0.421

band     5 # energy    7.74462644 # occ.  0.00000000

ion      s     py     pz     px    dxy    dyz    dz2    dxz  x2-y2    tot
    1  0.144  0.020  0.020  0.020  0.000  0.000  0.000  0.000  0.000  0.204
    2  0.144  0.020  0.020  0.020  0.000  0.000  0.000  0.000  0.000  0.204
tot    0.287  0.040  0.040  0.040  0.000  0.000  0.000  0.000  0.000  0.408

band     6 # energy    8.97787721 # occ.  0.00000000

ion      s     py     pz     px    dxy    dyz    dz2    dxz  x2-y2    tot
    1  0.000  0.026  0.088  0.035  0.000  0.000  0.000  0.000  0.000  0.149
    2  0.000  0.026  0.088  0.035  0.000  0.000  0.000  0.000  0.000  0.149
tot    0.000  0.052  0.175  0.070  0.000  0.000  0.000  0.000  0.000  0.298

band     7 # energy    8.97787721 # occ.  0.00000000

ion      s     py     pz     px    dxy    dyz    dz2    dxz  x2-y2    tot
    1  0.000  0.073  0.011  0.064  0.000  0.000  0.000  0.000  0.000  0.149
    2  0.000  0.073  0.011  0.064  0.000  0.000  0.000  0.000  0.000  0.149
tot    0.000  0.146  0.023  0.129  0.000  0.000  0.000  0.000  0.000  0.298

band     8 # energy   11.58098393 # occ.  0.00000000

ion      s     py     pz     px    dxy    dyz    dz2    dxz  x2-y2    tot
    1  0.141  0.045  0.045  0.045  0.000  0.000  0.000  0.000  0.000  0.275
    2  0.141  0.045  0.045  0.045  0.000  0.000  0.000  0.000  0.000  0.275
tot    0.281  0.090  0.090  0.090  0.000  0.000  0.000  0.000  0.000  0.551


 k-point   145 :    0.19230769 0.19230769 0.19230769     weight = 0.00416667

band     1 # energy   -5.72958367 # occ.  2.00000000

ion      s     py     pz     px    dxy    dyz    dz2    dxz  x2-y2    tot
    1  0.210  0.002  0.002  0.002  0.000  0.000  0.000  0.000  0.000  0.215
    2  0.210  0.002  0.002  0.002  0.000  0.000  0.000  0.000  0.000  0.215
tot    0.420  0.003  0.003  0.003  0.000  0.000  0.000  0.000  0.000  0.430

band     2 # energy    2.77353672 # occ.  2.00000000

ion      s     py     pz     px    dxy    dyz    dz2    dxz  x2-y2    tot
    1  0.086  0.044  0.044  0.044  0.000  0.000  0.000  0.000  0.000  0.217
    2  0.086  0.044  0.044  0.044  0.000  0.000  0.000  0.000  0.000  0.217
tot    0.171  0.088  0.088  0.088  0.000  0.000  0.000  0.000  0.000  0.435

band     3 # energy    5.07454641 # occ.  2.00000000

ion      s     py     pz     px    dxy    dyz    dz2    dxz  x2-y2    tot
    1  0.000  0.105  0.000  0.105  0.000  0.000  0.000  0.000  0.000  0.211
    2  0.000  0.105  0.000  0.105  0.000  0.000  0.000  0.000  0.000  0.211
tot    0.000  0.211  0.000  0.210  0.000  0.000  0.000  0.000  0.000  0.421

band     4 # energy    5.07454641 # occ.  2.00000000

ion      s     py     pz     px    dxy    dyz    dz2    dxz  x2-y2    tot
    1  0.000  0.035  0.140  0.035  0.000  0.000  0.000  0.000  0.000  0.211
    2  0.000  0.035  0.140  0.035  0.000  0.000  0.000  0.000  0.000  0.211
tot    0.000  0.070  0.281  0.070  0.000  0.000  0.000  0.000  0.000  0.421

band     5 # energy    7.79579716 # occ.  0.00000000

ion      s     py     pz     px    dxy    dyz    dz2    dxz  x2-y2    tot
    1  0.140  0.021  0.021  0.021  0.000  0.000  0.000  0.000  0.000  0.203
    2  0.140  0.021  0.021  0.021  0.000  0.000  0.000  0.000  0.000  0.203
tot    0.279  0.043  0.043  0.043  0.000  0.000  0.000  0.000  0.000  0.407

band     6 # energy    8.92596341 # occ.  0.00000000

ion      s     py     pz     px    dxy    dyz    dz2    dxz  x2-y2    tot
    1  0.000  0.100  0.021  0.029  0.000  0.000  0.000  0.000  0.000  0.151
    2  0.000  0.100  0.021  0.029  0.000  0.000  0.000  0.000  0.000  0.151
tot    0.000  0.200  0.043  0.058  0.000  0.000  0.000  0.000  0.000  0.301

band     7 # energy    8.92596341 # occ.  0.00000000

ion      s     py     pz     px    dxy    dyz    dz2    dxz  x2-y2    tot
    1  0.000  0.000  0.079  0.071  0.000  0.000  0.000  0.000  0.000  0.151
    2  0.000  0.000  0.079  0.071  0.000  0.000  0.000  0.000  0.000  0.151
tot    0.000  0.000  0.158  0.143  0.000  0.000  0.000  0.000  0.000  0.301

band     8 # energy   11.35145920 # occ.  0.00000000

ion      s     py     pz     px    dxy    dyz    dz2    dxz  x2-y2    tot
    1  0.149  0.043  0.043  0.043  0.000  0.000  0.000  0.000  0.000  0.278
    2  0.149  0.043  0.043  0.043  0.000  0.000  0.000  0.000  0.000  0.278
tot    0.297  0.087  0.087  0.087  0.000  0.000  0.000  0.000  0.000  0.557


 k-point   146 :    0.17948718 0.17948718 0.17948718     weight = 0.00416667

band     1 # energy   -5.78933375 # occ.  2.00000000

ion      s     py     pz     px    dxy    dyz    dz2    dxz  x2-y2    tot
    1  0.210  0.001  0.001  0.001  0.000  0.000  0.000  0.000  0.000  0.214
    2  0.210  0.001  0.001  0.001  0.000  0.000  0.000  0.000  0.000  0.214
tot    0.420  0.003  0.003  0.003  0.000  0.000  0.000  0.000  0.000  0.429

band     2 # energy    3.01141235 # occ.  2.00000000

ion      s     py     pz     px    dxy    dyz    dz2    dxz  x2-y2    tot
    1  0.082  0.045  0.045  0.045  0.000  0.000  0.000  0.000  0.000  0.218
    2  0.082  0.045  0.045  0.045  0.000  0.000  0.000  0.000  0.000  0.218
tot    0.164  0.090  0.090  0.090  0.000  0.000  0.000  0.000  0.000  0.436

band     3 # energy    5.12326573 # occ.  2.00000000

ion      s     py     pz     px    dxy    dyz    dz2    dxz  x2-y2    tot
    1  0.000  0.104  0.000  0.107  0.000  0.000  0.000  0.000  0.000  0.211
    2  0.000  0.104  0.000  0.107  0.000  0.000  0.000  0.000  0.000  0.211
tot    0.000  0.207  0.000  0.213  0.000  0.000  0.000  0.000  0.000  0.421

band     4 # energy    5.12326573 # occ.  2.00000000

ion      s     py     pz     px    dxy    dyz    dz2    dxz  x2-y2    tot
    1  0.000  0.037  0.140  0.034  0.000  0.000  0.000  0.000  0.000  0.211
    2  0.000  0.037  0.140  0.034  0.000  0.000  0.000  0.000  0.000  0.211
tot    0.000  0.073  0.280  0.067  0.000  0.000  0.000  0.000  0.000  0.421

band     5 # energy    7.84718435 # occ.  0.00000000

ion      s     py     pz     px    dxy    dyz    dz2    dxz  x2-y2    tot
    1  0.135  0.023  0.023  0.023  0.000  0.000  0.000  0.000  0.000  0.203
    2  0.135  0.023  0.023  0.023  0.000  0.000  0.000  0.000  0.000  0.203
tot    0.270  0.045  0.045  0.045  0.000  0.000  0.000  0.000  0.000  0.406

band     6 # energy    8.86816494 # occ.  0.00000000

ion      s     py     pz     px    dxy    dyz    dz2    dxz  x2-y2    tot
    1  0.000  0.038  0.065  0.049  0.000  0.000  0.000  0.000  0.000  0.152
    2  0.000  0.038  0.065  0.049  0.000  0.000  0.000  0.000  0.000  0.152
tot    0.000  0.077  0.130  0.098  0.000  0.000  0.000  0.000  0.000  0.304

band     7 # energy    8.86816495 # occ.  0.00000000

ion      s     py     pz     px    dxy    dyz    dz2    dxz  x2-y2    tot
    1  0.000  0.063  0.037  0.052  0.000  0.000  0.000  0.000  0.000  0.152
    2  0.000  0.063  0.037  0.052  0.000  0.000  0.000  0.000  0.000  0.152
tot    0.000  0.126  0.073  0.105  0.000  0.000  0.000  0.000  0.000  0.304

band     8 # energy   11.12067105 # occ.  0.00000000

ion      s     py     pz     px    dxy    dyz    dz2    dxz  x2-y2    tot
    1  0.156  0.042  0.042  0.042  0.000  0.000  0.000  0.000  0.000  0.281
    2  0.156  0.042  0.042  0.042  0.000  0.000  0.000  0.000  0.000  0.281
tot    0.313  0.083  0.083  0.083  0.000  0.000  0.000  0.000  0.000  0.563


 k-point   147 :    0.16666667 0.16666667 0.16666667     weight = 0.00416667

band     1 # energy   -5.84521315 # occ.  2.00000000

ion      s     py     pz     px    dxy    dyz    dz2    dxz  x2-y2    tot
    1  0.210  0.001  0.001  0.001  0.000  0.000  0.000  0.000  0.000  0.214
    2  0.210  0.001  0.001  0.001  0.000  0.000  0.000  0.000  0.000  0.214
tot    0.421  0.002  0.002  0.002  0.000  0.000  0.000  0.000  0.000  0.428

band     2 # energy    3.25011173 # occ.  2.00000000

ion      s     py     pz     px    dxy    dyz    dz2    dxz  x2-y2    tot
    1  0.079  0.047  0.047  0.047  0.000  0.000  0.000  0.000  0.000  0.218
    2  0.079  0.047  0.047  0.047  0.000  0.000  0.000  0.000  0.000  0.218
tot    0.157  0.093  0.093  0.093  0.000  0.000  0.000  0.000  0.000  0.437

band     3 # energy    5.17243590 # occ.  2.00000000

ion      s     py     pz     px    dxy    dyz    dz2    dxz  x2-y2    tot
    1  0.000  0.108  0.000  0.102  0.000  0.000  0.000  0.000  0.000  0.211
    2  0.000  0.108  0.000  0.102  0.000  0.000  0.000  0.000  0.000  0.211
tot    0.000  0.216  0.000  0.205  0.000  0.000  0.000  0.000  0.000  0.421

band     4 # energy    5.17243590 # occ.  2.00000000

ion      s     py     pz     px    dxy    dyz    dz2    dxz  x2-y2    tot
    1  0.000  0.032  0.140  0.038  0.000  0.000  0.000  0.000  0.000  0.211
    2  0.000  0.032  0.140  0.038  0.000  0.000  0.000  0.000  0.000  0.211
tot    0.000  0.065  0.281  0.076  0.000  0.000  0.000  0.000  0.000  0.421

band     5 # energy    7.89829837 # occ.  0.00000000

ion      s     py     pz     px    dxy    dyz    dz2    dxz  x2-y2    tot
    1  0.130  0.024  0.024  0.024  0.000  0.000  0.000  0.000  0.000  0.202
    2  0.130  0.024  0.024  0.024  0.000  0.000  0.000  0.000  0.000  0.202
tot    0.260  0.048  0.048  0.048  0.000  0.000  0.000  0.000  0.000  0.405

band     6 # energy    8.80558163 # occ.  0.00000000

ion      s     py     pz     px    dxy    dyz    dz2    dxz  x2-y2    tot
    1  0.000  0.045  0.088  0.019  0.000  0.000  0.000  0.000  0.000  0.153
    2  0.000  0.045  0.088  0.019  0.000  0.000  0.000  0.000  0.000  0.153
tot    0.000  0.091  0.177  0.039  0.000  0.000  0.000  0.000  0.000  0.306

band     7 # energy    8.80558163 # occ.  0.00000000

ion      s     py     pz     px    dxy    dyz    dz2    dxz  x2-y2    tot
    1  0.000  0.057  0.014  0.083  0.000  0.000  0.000  0.000  0.000  0.153
    2  0.000  0.057  0.014  0.083  0.000  0.000  0.000  0.000  0.000  0.153
tot    0.000  0.113  0.027  0.166  0.000  0.000  0.000  0.000  0.000  0.306

band     8 # energy   10.88929608 # occ.  0.00000000

ion      s     py     pz     px    dxy    dyz    dz2    dxz  x2-y2    tot
    1  0.165  0.040  0.040  0.040  0.000  0.000  0.000  0.000  0.000  0.284
    2  0.165  0.040  0.040  0.040  0.000  0.000  0.000  0.000  0.000  0.284
tot    0.329  0.080  0.080  0.080  0.000  0.000  0.000  0.000  0.000  0.568


 k-point   148 :    0.15384615 0.15384615 0.15384615     weight = 0.00416667

band     1 # energy   -5.89715277 # occ.  2.00000000

ion      s     py     pz     px    dxy    dyz    dz2    dxz  x2-y2    tot
    1  0.211  0.001  0.001  0.001  0.000  0.000  0.000  0.000  0.000  0.214
    2  0.211  0.001  0.001  0.001  0.000  0.000  0.000  0.000  0.000  0.214
tot    0.421  0.002  0.002  0.002  0.000  0.000  0.000  0.000  0.000  0.428

band     2 # energy    3.48897779 # occ.  2.00000000

ion      s     py     pz     px    dxy    dyz    dz2    dxz  x2-y2    tot
    1  0.075  0.048  0.048  0.048  0.000  0.000  0.000  0.000  0.000  0.219
    2  0.075  0.048  0.048  0.048  0.000  0.000  0.000  0.000  0.000  0.219
tot    0.149  0.096  0.096  0.096  0.000  0.000  0.000  0.000  0.000  0.438

band     3 # energy    5.22172183 # occ.  2.00000000

ion      s     py     pz     px    dxy    dyz    dz2    dxz  x2-y2    tot
    1  0.000  0.105  0.000  0.106  0.000  0.000  0.000  0.000  0.000  0.211
    2  0.000  0.105  0.000  0.106  0.000  0.000  0.000  0.000  0.000  0.211
tot    0.000  0.209  0.000  0.212  0.000  0.000  0.000  0.000  0.000  0.421

band     4 # energy    5.22172183 # occ.  2.00000000

ion      s     py     pz     px    dxy    dyz    dz2    dxz  x2-y2    tot
    1  0.000  0.036  0.140  0.034  0.000  0.000  0.000  0.000  0.000  0.211
    2  0.000  0.036  0.140  0.034  0.000  0.000  0.000  0.000  0.000  0.211
tot    0.000  0.072  0.281  0.069  0.000  0.000  0.000  0.000  0.000  0.421

band     5 # energy    7.94874603 # occ.  0.00000000

ion      s     py     pz     px    dxy    dyz    dz2    dxz  x2-y2    tot
    1  0.125  0.026  0.026  0.026  0.000  0.000  0.000  0.000  0.000  0.201
    2  0.125  0.026  0.026  0.026  0.000  0.000  0.000  0.000  0.000  0.201
tot    0.250  0.051  0.051  0.051  0.000  0.000  0.000  0.000  0.000  0.403

band     6 # energy    8.73963045 # occ.  0.00000000

ion      s     py     pz     px    dxy    dyz    dz2    dxz  x2-y2    tot
    1  0.000  0.074  0.033  0.048  0.000  0.000  0.000  0.000  0.000  0.154
    2  0.000  0.074  0.033  0.048  0.000  0.000  0.000  0.000  0.000  0.154
tot    0.000  0.147  0.065  0.096  0.000  0.000  0.000  0.000  0.000  0.308

band     7 # energy    8.73963045 # occ.  0.00000000

ion      s     py     pz     px    dxy    dyz    dz2    dxz  x2-y2    tot
    1  0.000  0.029  0.070  0.055  0.000  0.000  0.000  0.000  0.000  0.154
    2  0.000  0.029  0.070  0.055  0.000  0.000  0.000  0.000  0.000  0.154
tot    0.000  0.058  0.140  0.110  0.000  0.000  0.000  0.000  0.000  0.308

band     8 # energy   10.65811404 # occ.  0.00000000

ion      s     py     pz     px    dxy    dyz    dz2    dxz  x2-y2    tot
    1  0.173  0.038  0.038  0.038  0.000  0.000  0.000  0.000  0.000  0.287
    2  0.173  0.038  0.038  0.038  0.000  0.000  0.000  0.000  0.000  0.287
tot    0.347  0.076  0.076  0.076  0.000  0.000  0.000  0.000  0.000  0.574


 k-point   149 :    0.14102564 0.14102564 0.14102564     weight = 0.00416667

band     1 # energy   -5.94510434 # occ.  2.00000000

ion      s     py     pz     px    dxy    dyz    dz2    dxz  x2-y2    tot
    1  0.211  0.001  0.001  0.001  0.000  0.000  0.000  0.000  0.000  0.213
    2  0.211  0.001  0.001  0.001  0.000  0.000  0.000  0.000  0.000  0.213
tot    0.422  0.002  0.002  0.002  0.000  0.000  0.000  0.000  0.000  0.427

band     2 # energy    3.72716201 # occ.  2.00000000

ion      s     py     pz     px    dxy    dyz    dz2    dxz  x2-y2    tot
    1  0.070  0.050  0.050  0.050  0.000  0.000  0.000  0.000  0.000  0.219
    2  0.070  0.050  0.050  0.050  0.000  0.000  0.000  0.000  0.000  0.219
tot    0.141  0.099  0.099  0.099  0.000  0.000  0.000  0.000  0.000  0.438

band     3 # energy    5.27069157 # occ.  2.00000000

ion      s     py     pz     px    dxy    dyz    dz2    dxz  x2-y2    tot
    1  0.000  0.105  0.000  0.105  0.000  0.000  0.000  0.000  0.000  0.211
    2  0.000  0.105  0.000  0.105  0.000  0.000  0.000  0.000  0.000  0.211
tot    0.000  0.211  0.000  0.211  0.000  0.000  0.000  0.000  0.000  0.422

band     4 # energy    5.27069157 # occ.  2.00000000

ion      s     py     pz     px    dxy    dyz    dz2    dxz  x2-y2    tot
    1  0.000  0.035  0.141  0.035  0.000  0.000  0.000  0.000  0.000  0.211
    2  0.000  0.035  0.141  0.035  0.000  0.000  0.000  0.000  0.000  0.211
tot    0.000  0.070  0.281  0.070  0.000  0.000  0.000  0.000  0.000  0.422

band     5 # energy    7.99767389 # occ.  0.00000000

ion      s     py     pz     px    dxy    dyz    dz2    dxz  x2-y2    tot
    1  0.119  0.027  0.027  0.027  0.000  0.000  0.000  0.000  0.000  0.200
    2  0.119  0.027  0.027  0.027  0.000  0.000  0.000  0.000  0.000  0.200
tot    0.237  0.054  0.054  0.054  0.000  0.000  0.000  0.000  0.000  0.401

band     6 # energy    8.67157094 # occ.  0.00000000

ion      s     py     pz     px    dxy    dyz    dz2    dxz  x2-y2    tot
    1  0.000  0.064  0.088  0.002  0.000  0.000  0.000  0.000  0.000  0.154
    2  0.000  0.064  0.088  0.002  0.000  0.000  0.000  0.000  0.000  0.154
tot    0.000  0.127  0.177  0.004  0.000  0.000  0.000  0.000  0.000  0.308

band     7 # energy    8.67157094 # occ.  0.00000000

ion      s     py     pz     px    dxy    dyz    dz2    dxz  x2-y2    tot
    1  0.000  0.039  0.014  0.101  0.000  0.000  0.000  0.000  0.000  0.154
    2  0.000  0.039  0.014  0.101  0.000  0.000  0.000  0.000  0.000  0.154
tot    0.000  0.078  0.029  0.201  0.000  0.000  0.000  0.000  0.000  0.308

band     8 # energy   10.42792699 # occ.  0.00000000

ion      s     py     pz     px    dxy    dyz    dz2    dxz  x2-y2    tot
    1  0.183  0.036  0.036  0.036  0.000  0.000  0.000  0.000  0.000  0.290
    2  0.183  0.036  0.036  0.036  0.000  0.000  0.000  0.000  0.000  0.290
tot    0.366  0.072  0.072  0.072  0.000  0.000  0.000  0.000  0.000  0.581


 k-point   150 :    0.12820513 0.12820513 0.12820513     weight = 0.00416667

band     1 # energy   -5.98901891 # occ.  2.00000000

ion      s     py     pz     px    dxy    dyz    dz2    dxz  x2-y2    tot
    1  0.211  0.001  0.001  0.001  0.000  0.000  0.000  0.000  0.000  0.213
    2  0.211  0.001  0.001  0.001  0.000  0.000  0.000  0.000  0.000  0.213
tot    0.422  0.001  0.001  0.001  0.000  0.000  0.000  0.000  0.000  0.426

band     2 # energy    3.96364826 # occ.  2.00000000

ion      s     py     pz     px    dxy    dyz    dz2    dxz  x2-y2    tot
    1  0.066  0.051  0.051  0.051  0.000  0.000  0.000  0.000  0.000  0.219
    2  0.066  0.051  0.051  0.051  0.000  0.000  0.000  0.000  0.000  0.219
tot    0.131  0.102  0.102  0.102  0.000  0.000  0.000  0.000  0.000  0.438

band     3 # energy    5.31887435 # occ.  2.00000000

ion      s     py     pz     px    dxy    dyz    dz2    dxz  x2-y2    tot
    1  0.000  0.107  0.000  0.104  0.000  0.000  0.000  0.000  0.000  0.211
    2  0.000  0.107  0.000  0.104  0.000  0.000  0.000  0.000  0.000  0.211
tot    0.000  0.213  0.000  0.209  0.000  0.000  0.000  0.000  0.000  0.422

band     4 # energy    5.31887435 # occ.  2.00000000

ion      s     py     pz     px    dxy    dyz    dz2    dxz  x2-y2    tot
    1  0.000  0.034  0.141  0.036  0.000  0.000  0.000  0.000  0.000  0.211
    2  0.000  0.034  0.141  0.036  0.000  0.000  0.000  0.000  0.000  0.211
tot    0.000  0.068  0.281  0.073  0.000  0.000  0.000  0.000  0.000  0.422

band     5 # energy    8.04451110 # occ.  0.00000000

ion      s     py     pz     px    dxy    dyz    dz2    dxz  x2-y2    tot
    1  0.112  0.029  0.029  0.029  0.000  0.000  0.000  0.000  0.000  0.199
    2  0.112  0.029  0.029  0.029  0.000  0.000  0.000  0.000  0.000  0.199
tot    0.223  0.058  0.058  0.058  0.000  0.000  0.000  0.000  0.000  0.397

band     6 # energy    8.60280273 # occ.  0.00000000

ion      s     py     pz     px    dxy    dyz    dz2    dxz  x2-y2    tot
    1  0.000  0.015  0.075  0.065  0.000  0.000  0.000  0.000  0.000  0.154
    2  0.000  0.015  0.075  0.065  0.000  0.000  0.000  0.000  0.000  0.154
tot    0.000  0.030  0.149  0.130  0.000  0.000  0.000  0.000  0.000  0.309

band     7 # energy    8.60280273 # occ.  0.00000000

ion      s     py     pz     px    dxy    dyz    dz2    dxz  x2-y2    tot
    1  0.000  0.088  0.028  0.038  0.000  0.000  0.000  0.000  0.000  0.154
    2  0.000  0.088  0.028  0.038  0.000  0.000  0.000  0.000  0.000  0.154
tot    0.000  0.176  0.056  0.076  0.000  0.000  0.000  0.000  0.000  0.309

band     8 # energy   10.19998846 # occ.  0.00000000

ion      s     py     pz     px    dxy    dyz    dz2    dxz  x2-y2    tot
    1  0.193  0.034  0.034  0.034  0.000  0.000  0.000  0.000  0.000  0.294
    2  0.193  0.034  0.034  0.034  0.000  0.000  0.000  0.000  0.000  0.294
tot    0.387  0.067  0.067  0.067  0.000  0.000  0.000  0.000  0.000  0.588


 k-point   151 :    0.11538462 0.11538462 0.11538462     weight = 0.00416667

band     1 # energy   -6.02885544 # occ.  2.00000000

ion      s     py     pz     px    dxy    dyz    dz2    dxz  x2-y2    tot
    1  0.211  0.001  0.001  0.001  0.000  0.000  0.000  0.000  0.000  0.213
    2  0.211  0.001  0.001  0.001  0.000  0.000  0.000  0.000  0.000  0.213
tot    0.422  0.001  0.001  0.001  0.000  0.000  0.000  0.000  0.000  0.426

band     2 # energy    4.19721394 # occ.  2.00000000

ion      s     py     pz     px    dxy    dyz    dz2    dxz  x2-y2    tot
    1  0.060  0.053  0.053  0.053  0.000  0.000  0.000  0.000  0.000  0.219
    2  0.060  0.053  0.053  0.053  0.000  0.000  0.000  0.000  0.000  0.219
tot    0.120  0.106  0.106  0.106  0.000  0.000  0.000  0.000  0.000  0.439

band     3 # energy    5.36572808 # occ.  2.00000000

ion      s     py     pz     px    dxy    dyz    dz2    dxz  x2-y2    tot
    1  0.000  0.100  0.000  0.111  0.000  0.000  0.000  0.000  0.000  0.211
    2  0.000  0.100  0.000  0.111  0.000  0.000  0.000  0.000  0.000  0.211
tot    0.000  0.201  0.001  0.221  0.000  0.000  0.000  0.000  0.000  0.423

band     4 # energy    5.36572808 # occ.  2.00000000

ion      s     py     pz     px    dxy    dyz    dz2    dxz  x2-y2    tot
    1  0.000  0.040  0.141  0.030  0.000  0.000  0.000  0.000  0.000  0.211
    2  0.000  0.040  0.141  0.030  0.000  0.000  0.000  0.000  0.000  0.211
tot    0.000  0.081  0.281  0.061  0.000  0.000  0.000  0.000  0.000  0.423

band     5 # energy    8.08834592 # occ.  0.00000000

ion      s     py     pz     px    dxy    dyz    dz2    dxz  x2-y2    tot
    1  0.104  0.031  0.031  0.031  0.000  0.000  0.000  0.000  0.000  0.196
    2  0.104  0.031  0.031  0.031  0.000  0.000  0.000  0.000  0.000  0.196
tot    0.207  0.062  0.062  0.062  0.000  0.000  0.000  0.000  0.000  0.393

band     6 # energy    8.53473335 # occ.  0.00000000

ion      s     py     pz     px    dxy    dyz    dz2    dxz  x2-y2    tot
    1  0.000  0.009  0.052  0.093  0.000  0.000  0.000  0.000  0.000  0.154
    2  0.000  0.009  0.052  0.093  0.000  0.000  0.000  0.000  0.000  0.154
tot    0.000  0.018  0.104  0.187  0.000  0.000  0.000  0.000  0.000  0.308

band     7 # energy    8.53473335 # occ.  0.00000000

ion      s     py     pz     px    dxy    dyz    dz2    dxz  x2-y2    tot
    1  0.000  0.094  0.051  0.009  0.000  0.000  0.000  0.000  0.000  0.154
    2  0.000  0.094  0.051  0.009  0.000  0.000  0.000  0.000  0.000  0.154
tot    0.000  0.188  0.102  0.019  0.000  0.000  0.000  0.000  0.000  0.308

band     8 # energy    9.97577316 # occ.  0.00000000

ion      s     py     pz     px    dxy    dyz    dz2    dxz  x2-y2    tot
    1  0.205  0.031  0.031  0.031  0.000  0.000  0.000  0.000  0.000  0.298
    2  0.205  0.031  0.031  0.031  0.000  0.000  0.000  0.000  0.000  0.298
tot    0.411  0.062  0.062  0.062  0.000  0.000  0.000  0.000  0.000  0.597


 k-point   152 :    0.10256410 0.10256410 0.10256410     weight = 0.00416667

band     1 # energy   -6.06458099 # occ.  2.00000000

ion      s     py     pz     px    dxy    dyz    dz2    dxz  x2-y2    tot
    1  0.211  0.000  0.000  0.000  0.000  0.000  0.000  0.000  0.000  0.213
    2  0.211  0.000  0.000  0.000  0.000  0.000  0.000  0.000  0.000  0.213
tot    0.423  0.001  0.001  0.001  0.000  0.000  0.000  0.000  0.000  0.426

band     2 # energy    4.42602379 # occ.  2.00000000

ion      s     py     pz     px    dxy    dyz    dz2    dxz  x2-y2    tot
    1  0.054  0.055  0.055  0.055  0.000  0.000  0.000  0.000  0.000  0.219
    2  0.054  0.055  0.055  0.055  0.000  0.000  0.000  0.000  0.000  0.219
tot    0.108  0.110  0.110  0.110  0.000  0.000  0.000  0.000  0.000  0.438

band     3 # energy    5.41063604 # occ.  2.00000000

ion      s     py     pz     px    dxy    dyz    dz2    dxz  x2-y2    tot
    1  0.000  0.132  0.017  0.063  0.000  0.000  0.000  0.000  0.000  0.212
    2  0.000  0.132  0.017  0.063  0.000  0.000  0.000  0.000  0.000  0.212
tot    0.000  0.264  0.034  0.125  0.000  0.000  0.000  0.000  0.000  0.423

band     4 # energy    5.41063604 # occ.  2.00000000

ion      s     py     pz     px    dxy    dyz    dz2    dxz  x2-y2    tot
    1  0.000  0.009  0.124  0.079  0.000  0.000  0.000  0.000  0.000  0.212
    2  0.000  0.009  0.124  0.079  0.000  0.000  0.000  0.000  0.000  0.212
tot    0.000  0.018  0.249  0.157  0.000  0.000  0.000  0.000  0.000  0.423

band     5 # energy    8.12812526 # occ.  0.00000000

ion      s     py     pz     px    dxy    dyz    dz2    dxz  x2-y2    tot
    1  0.094  0.033  0.033  0.033  0.000  0.000  0.000  0.000  0.000  0.193
    2  0.094  0.033  0.033  0.033  0.000  0.000  0.000  0.000  0.000  0.193
tot    0.188  0.066  0.066  0.066  0.000  0.000  0.000  0.000  0.000  0.387

band     6 # energy    8.46878490 # occ.  0.00000000

ion      s     py     pz     px    dxy    dyz    dz2    dxz  x2-y2    tot
    1  0.000  0.100  0.015  0.039  0.000  0.000  0.000  0.000  0.000  0.154
    2  0.000  0.100  0.015  0.039  0.000  0.000  0.000  0.000  0.000  0.154
tot    0.000  0.200  0.030  0.078  0.000  0.000  0.000  0.000  0.000  0.308

band     7 # energy    8.46878490 # occ.  0.00000000

ion      s     py     pz     px    dxy    dyz    dz2    dxz  x2-y2    tot
    1  0.000  0.003  0.088  0.064  0.000  0.000  0.000  0.000  0.000  0.154
    2  0.000  0.003  0.088  0.064  0.000  0.000  0.000  0.000  0.000  0.154
tot    0.000  0.005  0.175  0.127  0.000  0.000  0.000  0.000  0.000  0.308

band     8 # energy    9.75735436 # occ.  0.00000000

ion      s     py     pz     px    dxy    dyz    dz2    dxz  x2-y2    tot
    1  0.219  0.028  0.028  0.028  0.000  0.000  0.000  0.000  0.000  0.303
    2  0.219  0.028  0.028  0.028  0.000  0.000  0.000  0.000  0.000  0.303
tot    0.438  0.056  0.056  0.056  0.000  0.000  0.000  0.000  0.000  0.607


 k-point   153 :    0.08974359 0.08974359 0.08974359     weight = 0.00416667

band     1 # energy   -6.09617801 # occ.  2.00000000

ion      s     py     pz     px    dxy    dyz    dz2    dxz  x2-y2    tot
    1  0.211  0.000  0.000  0.000  0.000  0.000  0.000  0.000  0.000  0.213
    2  0.211  0.000  0.000  0.000  0.000  0.000  0.000  0.000  0.000  0.213
tot    0.423  0.001  0.001  0.001  0.000  0.000  0.000  0.000  0.000  0.425

band     2 # energy    4.64793968 # occ.  2.00000000

ion      s     py     pz     px    dxy    dyz    dz2    dxz  x2-y2    tot
    1  0.048  0.057  0.057  0.057  0.000  0.000  0.000  0.000  0.000  0.219
    2  0.048  0.057  0.057  0.057  0.000  0.000  0.000  0.000  0.000  0.219
tot    0.095  0.114  0.114  0.114  0.000  0.000  0.000  0.000  0.000  0.438

band     3 # energy    5.45291778 # occ.  2.00000000

ion      s     py     pz     px    dxy    dyz    dz2    dxz  x2-y2    tot
    1  0.000  0.096  0.002  0.114  0.000  0.000  0.000  0.000  0.000  0.212
    2  0.000  0.096  0.002  0.114  0.000  0.000  0.000  0.000  0.000  0.212
tot    0.000  0.191  0.005  0.228  0.000  0.000  0.000  0.000  0.000  0.424

band     4 # energy    5.45291778 # occ.  2.00000000

ion      s     py     pz     px    dxy    dyz    dz2    dxz  x2-y2    tot
    1  0.000  0.046  0.139  0.027  0.000  0.000  0.000  0.000  0.000  0.212
    2  0.000  0.046  0.139  0.027  0.000  0.000  0.000  0.000  0.000  0.212
tot    0.000  0.091  0.278  0.055  0.000  0.000  0.000  0.000  0.000  0.424

band     5 # energy    8.16250726 # occ.  0.00000000

ion      s     py     pz     px    dxy    dyz    dz2    dxz  x2-y2    tot
    1  0.082  0.036  0.036  0.036  0.000  0.000  0.000  0.000  0.000  0.189
    2  0.082  0.036  0.036  0.036  0.000  0.000  0.000  0.000  0.000  0.189
tot    0.165  0.071  0.071  0.071  0.000  0.000  0.000  0.000  0.000  0.378

band     6 # energy    8.40634230 # occ.  0.00000000

ion      s     py     pz     px    dxy    dyz    dz2    dxz  x2-y2    tot
    1  0.000  0.063  0.075  0.015  0.000  0.000  0.000  0.000  0.000  0.153
    2  0.000  0.063  0.075  0.015  0.000  0.000  0.000  0.000  0.000  0.153
tot    0.000  0.127  0.151  0.029  0.000  0.000  0.000  0.000  0.000  0.307

band     7 # energy    8.40634230 # occ.  0.00000000

ion      s     py     pz     px    dxy    dyz    dz2    dxz  x2-y2    tot
    1  0.000  0.039  0.027  0.088  0.000  0.000  0.000  0.000  0.000  0.153
    2  0.000  0.039  0.027  0.088  0.000  0.000  0.000  0.000  0.000  0.153
tot    0.000  0.078  0.054  0.175  0.000  0.000  0.000  0.000  0.000  0.307

band     8 # energy    9.54755745 # occ.  0.00000000

ion      s     py     pz     px    dxy    dyz    dz2    dxz  x2-y2    tot
    1  0.236  0.025  0.025  0.025  0.000  0.000  0.000  0.000  0.000  0.310
    2  0.236  0.025  0.025  0.025  0.000  0.000  0.000  0.000  0.000  0.310
tot    0.472  0.049  0.049  0.049  0.000  0.000  0.000  0.000  0.000  0.619


 k-point   154 :    0.07692308 0.07692308 0.07692308     weight = 0.00416667

band     1 # energy   -6.12361213 # occ.  2.00000000

ion      s     py     pz     px    dxy    dyz    dz2    dxz  x2-y2    tot
    1  0.212  0.000  0.000  0.000  0.000  0.000  0.000  0.000  0.000  0.212
    2  0.212  0.000  0.000  0.000  0.000  0.000  0.000  0.000  0.000  0.212
tot    0.423  0.001  0.001  0.001  0.000  0.000  0.000  0.000  0.000  0.425

band     2 # energy    4.86003441 # occ.  2.00000000

ion      s     py     pz     px    dxy    dyz    dz2    dxz  x2-y2    tot
    1  0.040  0.059  0.059  0.059  0.000  0.000  0.000  0.000  0.000  0.218
    2  0.040  0.059  0.059  0.059  0.000  0.000  0.000  0.000  0.000  0.218
tot    0.080  0.119  0.119  0.119  0.000  0.000  0.000  0.000  0.000  0.437

band     3 # energy    5.49183758 # occ.  2.00000000

ion      s     py     pz     px    dxy    dyz    dz2    dxz  x2-y2    tot
    1  0.000  0.078  0.089  0.046  0.000  0.000  0.000  0.000  0.000  0.212
    2  0.000  0.078  0.089  0.046  0.000  0.000  0.000  0.000  0.000  0.212
tot    0.000  0.156  0.177  0.092  0.000  0.000  0.000  0.000  0.000  0.425

band     4 # energy    5.49183758 # occ.  2.00000000

ion      s     py     pz     px    dxy    dyz    dz2    dxz  x2-y2    tot
    1  0.000  0.064  0.053  0.096  0.000  0.000  0.000  0.000  0.000  0.212
    2  0.000  0.064  0.053  0.096  0.000  0.000  0.000  0.000  0.000  0.212
tot    0.000  0.127  0.106  0.191  0.000  0.000  0.000  0.000  0.000  0.425

band     5 # energy    8.18980648 # occ.  0.00000000

ion      s     py     pz     px    dxy    dyz    dz2    dxz  x2-y2    tot
    1  0.068  0.038  0.038  0.038  0.000  0.000  0.000  0.000  0.000  0.183
    2  0.068  0.038  0.038  0.038  0.000  0.000  0.000  0.000  0.000  0.183
tot    0.137  0.077  0.077  0.077  0.000  0.000  0.000  0.000  0.000  0.366

band     6 # energy    8.34876145 # occ.  0.00000000

ion      s     py     pz     px    dxy    dyz    dz2    dxz  x2-y2    tot
    1  0.000  0.023  0.037  0.092  0.000  0.000  0.000  0.000  0.000  0.153
    2  0.000  0.023  0.037  0.092  0.000  0.000  0.000  0.000  0.000  0.153
tot    0.000  0.047  0.075  0.185  0.000  0.000  0.000  0.000  0.000  0.306

band     7 # energy    8.34876145 # occ.  0.00000000

ion      s     py     pz     px    dxy    dyz    dz2    dxz  x2-y2    tot
    1  0.000  0.079  0.065  0.010  0.000  0.000  0.000  0.000  0.000  0.153
    2  0.000  0.079  0.065  0.010  0.000  0.000  0.000  0.000  0.000  0.153
tot    0.000  0.157  0.129  0.019  0.000  0.000  0.000  0.000  0.000  0.306

band     8 # energy    9.35030606 # occ.  0.00000000

ion      s     py     pz     px    dxy    dyz    dz2    dxz  x2-y2    tot
    1  0.256  0.021  0.021  0.021  0.000  0.000  0.000  0.000  0.000  0.317
    2  0.256  0.021  0.021  0.021  0.000  0.000  0.000  0.000  0.000  0.317
tot    0.511  0.041  0.041  0.041  0.000  0.000  0.000  0.000  0.000  0.635


 k-point   155 :    0.06410256 0.06410256 0.06410256     weight = 0.00416667

band     1 # energy   -6.14685821 # occ.  2.00000000

ion      s     py     pz     px    dxy    dyz    dz2    dxz  x2-y2    tot
    1  0.212  0.000  0.000  0.000  0.000  0.000  0.000  0.000  0.000  0.212
    2  0.212  0.000  0.000  0.000  0.000  0.000  0.000  0.000  0.000  0.212
tot    0.423  0.000  0.000  0.000  0.000  0.000  0.000  0.000  0.000  0.425

band     2 # energy    5.05835963 # occ.  2.00000000

ion      s     py     pz     px    dxy    dyz    dz2    dxz  x2-y2    tot
    1  0.032  0.062  0.062  0.062  0.000  0.000  0.000  0.000  0.000  0.218
    2  0.032  0.062  0.062  0.062  0.000  0.000  0.000  0.000  0.000  0.218
tot    0.064  0.124  0.124  0.124  0.000  0.000  0.000  0.000  0.000  0.435

band     3 # energy    5.52661673 # occ.  2.00000000

ion      s     py     pz     px    dxy    dyz    dz2    dxz  x2-y2    tot
    1  0.000  0.135  0.012  0.066  0.000  0.000  0.000  0.000  0.000  0.213
    2  0.000  0.135  0.012  0.066  0.000  0.000  0.000  0.000  0.000  0.213
tot    0.000  0.269  0.024  0.132  0.000  0.000  0.000  0.000  0.000  0.425

band     4 # energy    5.52661673 # occ.  2.00000000

ion      s     py     pz     px    dxy    dyz    dz2    dxz  x2-y2    tot
    1  0.000  0.007  0.130  0.076  0.000  0.000  0.000  0.000  0.000  0.213
    2  0.000  0.007  0.130  0.076  0.000  0.000  0.000  0.000  0.000  0.213
tot    0.000  0.014  0.259  0.152  0.000  0.000  0.000  0.000  0.000  0.425

band     5 # energy    8.20794273 # occ.  0.00000000

ion      s     py     pz     px    dxy    dyz    dz2    dxz  x2-y2    tot
    1  0.052  0.041  0.041  0.041  0.000  0.000  0.000  0.000  0.000  0.176
    2  0.052  0.041  0.041  0.041  0.000  0.000  0.000  0.000  0.000  0.176
tot    0.103  0.083  0.083  0.083  0.000  0.000  0.000  0.000  0.000  0.351

band     6 # energy    8.29734377 # occ.  0.00000000

ion      s     py     pz     px    dxy    dyz    dz2    dxz  x2-y2    tot
    1  0.000  0.093  0.043  0.016  0.000  0.000  0.000  0.000  0.000  0.152
    2  0.000  0.093  0.043  0.016  0.000  0.000  0.000  0.000  0.000  0.152
tot    0.000  0.186  0.087  0.032  0.000  0.000  0.000  0.000  0.000  0.305

band     7 # energy    8.29734378 # occ.  0.00000000

ion      s     py     pz     px    dxy    dyz    dz2    dxz  x2-y2    tot
    1  0.000  0.009  0.058  0.086  0.000  0.000  0.000  0.000  0.000  0.152
    2  0.000  0.009  0.058  0.086  0.000  0.000  0.000  0.000  0.000  0.152
tot    0.000  0.017  0.116  0.171  0.000  0.000  0.000  0.000  0.000  0.305

band     8 # energy    9.17093959 # occ.  0.00000000

ion      s     py     pz     px    dxy    dyz    dz2    dxz  x2-y2    tot
    1  0.279  0.016  0.016  0.016  0.000  0.000  0.000  0.000  0.000  0.327
    2  0.279  0.016  0.016  0.016  0.000  0.000  0.000  0.000  0.000  0.327
tot    0.558  0.032  0.032  0.032  0.000  0.000  0.000  0.000  0.000  0.653


 k-point   156 :    0.05128205 0.05128205 0.05128205     weight = 0.00416667

band     1 # energy   -6.16589233 # occ.  2.00000000

ion      s     py     pz     px    dxy    dyz    dz2    dxz  x2-y2    tot
    1  0.212  0.000  0.000  0.000  0.000  0.000  0.000  0.000  0.000  0.212
    2  0.212  0.000  0.000  0.000  0.000  0.000  0.000  0.000  0.000  0.212
tot    0.424  0.000  0.000  0.000  0.000  0.000  0.000  0.000  0.000  0.424

band     2 # energy    5.23767321 # occ.  2.00000000

ion      s     py     pz     px    dxy    dyz    dz2    dxz  x2-y2    tot
    1  0.024  0.064  0.064  0.064  0.000  0.000  0.000  0.000  0.000  0.217
    2  0.024  0.064  0.064  0.064  0.000  0.000  0.000  0.000  0.000  0.217
tot    0.047  0.129  0.129  0.129  0.000  0.000  0.000  0.000  0.000  0.434

band     3 # energy    5.55649781 # occ.  2.00000000

ion      s     py     pz     px    dxy    dyz    dz2    dxz  x2-y2    tot
    1  0.000  0.108  0.033  0.072  0.000  0.000  0.000  0.000  0.000  0.213
    2  0.000  0.108  0.033  0.072  0.000  0.000  0.000  0.000  0.000  0.213
tot    0.000  0.216  0.067  0.144  0.000  0.000  0.000  0.000  0.000  0.426

band     4 # energy    5.55649781 # occ.  2.00000000

ion      s     py     pz     px    dxy    dyz    dz2    dxz  x2-y2    tot
    1  0.000  0.034  0.109  0.070  0.000  0.000  0.000  0.000  0.000  0.213
    2  0.000  0.034  0.109  0.070  0.000  0.000  0.000  0.000  0.000  0.213
tot    0.000  0.068  0.217  0.140  0.000  0.000  0.000  0.000  0.000  0.426

band     5 # energy    8.21471823 # occ.  0.00000000

ion      s     py     pz     px    dxy    dyz    dz2    dxz  x2-y2    tot
    1  0.033  0.045  0.045  0.045  0.000  0.000  0.000  0.000  0.000  0.167
    2  0.033  0.045  0.045  0.045  0.000  0.000  0.000  0.000  0.000  0.167
tot    0.066  0.089  0.089  0.089  0.000  0.000  0.000  0.000  0.000  0.334

band     6 # energy    8.25331101 # occ.  0.00000000

ion      s     py     pz     px    dxy    dyz    dz2    dxz  x2-y2    tot
    1  0.000  0.016  0.040  0.096  0.000  0.000  0.000  0.000  0.000  0.152
    2  0.000  0.016  0.040  0.096  0.000  0.000  0.000  0.000  0.000  0.152
tot    0.000  0.033  0.080  0.191  0.000  0.000  0.000  0.000  0.000  0.304

band     7 # energy    8.25331101 # occ.  0.00000000

ion      s     py     pz     px    dxy    dyz    dz2    dxz  x2-y2    tot
    1  0.000  0.085  0.061  0.006  0.000  0.000  0.000  0.000  0.000  0.152
    2  0.000  0.085  0.061  0.006  0.000  0.000  0.000  0.000  0.000  0.152
tot    0.000  0.170  0.123  0.011  0.000  0.000  0.000  0.000  0.000  0.304

band     8 # energy    9.01627795 # occ.  0.00000000

ion      s     py     pz     px    dxy    dyz    dz2    dxz  x2-y2    tot
    1  0.305  0.011  0.011  0.011  0.000  0.000  0.000  0.000  0.000  0.337
    2  0.305  0.011  0.011  0.011  0.000  0.000  0.000  0.000  0.000  0.337
tot    0.610  0.022  0.022  0.022  0.000  0.000  0.000  0.000  0.000  0.675


 k-point   157 :    0.03846154 0.03846154 0.03846154     weight = 0.00416667

band     1 # energy   -6.18071320 # occ.  2.00000000

ion      s     py     pz     px    dxy    dyz    dz2    dxz  x2-y2    tot
    1  0.212  0.000  0.000  0.000  0.000  0.000  0.000  0.000  0.000  0.212
    2  0.212  0.000  0.000  0.000  0.000  0.000  0.000  0.000  0.000  0.212
tot    0.424  0.000  0.000  0.000  0.000  0.000  0.000  0.000  0.000  0.424

band     2 # energy    5.39108342 # occ.  2.00000000

ion      s     py     pz     px    dxy    dyz    dz2    dxz  x2-y2    tot
    1  0.015  0.067  0.067  0.067  0.000  0.000  0.000  0.000  0.000  0.216
    2  0.015  0.067  0.067  0.067  0.000  0.000  0.000  0.000  0.000  0.216
tot    0.030  0.134  0.134  0.134  0.000  0.000  0.000  0.000  0.000  0.432

band     3 # energy    5.58066499 # occ.  2.00000000

ion      s     py     pz     px    dxy    dyz    dz2    dxz  x2-y2    tot
    1  0.000  0.139  0.021  0.053  0.000  0.000  0.000  0.000  0.000  0.213
    2  0.000  0.139  0.021  0.053  0.000  0.000  0.000  0.000  0.000  0.213
tot    0.000  0.278  0.043  0.106  0.000  0.000  0.000  0.000  0.000  0.427

band     4 # energy    5.58066499 # occ.  2.00000000

ion      s     py     pz     px    dxy    dyz    dz2    dxz  x2-y2    tot
    1  0.000  0.003  0.121  0.089  0.000  0.000  0.000  0.000  0.000  0.213
    2  0.000  0.003  0.121  0.089  0.000  0.000  0.000  0.000  0.000  0.213
tot    0.000  0.006  0.242  0.178  0.000  0.000  0.000  0.000  0.000  0.427

band     5 # energy    8.20906881 # occ.  0.00000000

ion      s     py     pz     px    dxy    dyz    dz2    dxz  x2-y2    tot
    1  0.016  0.048  0.048  0.048  0.000  0.000  0.000  0.000  0.000  0.159
    2  0.016  0.048  0.048  0.048  0.000  0.000  0.000  0.000  0.000  0.159
tot    0.031  0.095  0.095  0.095  0.000  0.000  0.000  0.000  0.000  0.317

band     6 # energy    8.21776494 # occ.  0.00000000

ion      s     py     pz     px    dxy    dyz    dz2    dxz  x2-y2    tot
    1  0.000  0.090  0.020  0.042  0.000  0.000  0.000  0.000  0.000  0.151
    2  0.000  0.090  0.020  0.042  0.000  0.000  0.000  0.000  0.000  0.151
tot    0.000  0.180  0.039  0.083  0.000  0.000  0.000  0.000  0.000  0.303

band     7 # energy    8.21776495 # occ.  0.00000000

ion      s     py     pz     px    dxy    dyz    dz2    dxz  x2-y2    tot
    1  0.000  0.011  0.081  0.059  0.000  0.000  0.000  0.000  0.000  0.151
    2  0.000  0.011  0.081  0.059  0.000  0.000  0.000  0.000  0.000  0.151
tot    0.000  0.022  0.162  0.118  0.000  0.000  0.000  0.000  0.000  0.303

band     8 # energy    8.89362871 # occ.  0.00000000

ion      s     py     pz     px    dxy    dyz    dz2    dxz  x2-y2    tot
    1  0.329  0.006  0.006  0.006  0.000  0.000  0.000  0.000  0.000  0.348
    2  0.329  0.006  0.006  0.006  0.000  0.000  0.000  0.000  0.000  0.348
tot    0.659  0.012  0.012  0.012  0.000  0.000  0.000  0.000  0.000  0.695


 k-point   158 :    0.02564103 0.02564103 0.02564103     weight = 0.00416667

band     1 # energy   -6.19130407 # occ.  2.00000000

ion      s     py     pz     px    dxy    dyz    dz2    dxz  x2-y2    tot
    1  0.212  0.000  0.000  0.000  0.000  0.000  0.000  0.000  0.000  0.212
    2  0.212  0.000  0.000  0.000  0.000  0.000  0.000  0.000  0.000  0.212
tot    0.424  0.000  0.000  0.000  0.000  0.000  0.000  0.000  0.000  0.424

band     2 # energy    5.51034005 # occ.  2.00000000

ion      s     py     pz     px    dxy    dyz    dz2    dxz  x2-y2    tot
    1  0.007  0.069  0.069  0.069  0.000  0.000  0.000  0.000  0.000  0.215
    2  0.007  0.069  0.069  0.069  0.000  0.000  0.000  0.000  0.000  0.215
tot    0.015  0.138  0.138  0.138  0.000  0.000  0.000  0.000  0.000  0.430

band     3 # energy    5.59847536 # occ.  2.00000000

ion      s     py     pz     px    dxy    dyz    dz2    dxz  x2-y2    tot
    1  0.000  0.043  0.107  0.063  0.000  0.000  0.000  0.000  0.000  0.214
    2  0.000  0.043  0.107  0.063  0.000  0.000  0.000  0.000  0.000  0.214
tot    0.000  0.087  0.214  0.126  0.000  0.000  0.000  0.000  0.000  0.427

band     4 # energy    5.59847536 # occ.  2.00000000

ion      s     py     pz     px    dxy    dyz    dz2    dxz  x2-y2    tot
    1  0.000  0.099  0.035  0.079  0.000  0.000  0.000  0.000  0.000  0.214
    2  0.000  0.099  0.035  0.079  0.000  0.000  0.000  0.000  0.000  0.214
tot    0.000  0.198  0.071  0.159  0.000  0.000  0.000  0.000  0.000  0.427

band     5 # energy    8.19164317 # occ.  0.00000000

ion      s     py     pz     px    dxy    dyz    dz2    dxz  x2-y2    tot
    1  0.000  0.002  0.086  0.063  0.000  0.000  0.000  0.000  0.000  0.151
    2  0.000  0.002  0.086  0.063  0.000  0.000  0.000  0.000  0.000  0.151
tot    0.000  0.004  0.172  0.126  0.000  0.000  0.000  0.000  0.000  0.302

band     6 # energy    8.19164318 # occ.  0.00000000

ion      s     py     pz     px    dxy    dyz    dz2    dxz  x2-y2    tot
    1  0.000  0.099  0.015  0.037  0.000  0.000  0.000  0.000  0.000  0.151
    2  0.000  0.099  0.015  0.037  0.000  0.000  0.000  0.000  0.000  0.151
tot    0.000  0.198  0.029  0.075  0.000  0.000  0.000  0.000  0.000  0.302

band     7 # energy    8.19378470 # occ.  0.00000000

ion      s     py     pz     px    dxy    dyz    dz2    dxz  x2-y2    tot
    1  0.005  0.050  0.050  0.050  0.000  0.000  0.000  0.000  0.000  0.153
    2  0.005  0.050  0.050  0.050  0.000  0.000  0.000  0.000  0.000  0.153
tot    0.009  0.099  0.099  0.099  0.000  0.000  0.000  0.000  0.000  0.306

band     8 # energy    8.80798345 # occ.  0.00000000

ion      s     py     pz     px    dxy    dyz    dz2    dxz  x2-y2    tot
    1  0.347  0.002  0.002  0.002  0.000  0.000  0.000  0.000  0.000  0.355
    2  0.347  0.002  0.002  0.002  0.000  0.000  0.000  0.000  0.000  0.355
tot    0.695  0.005  0.005  0.005  0.000  0.000  0.000  0.000  0.000  0.709


 k-point   159 :    0.01282051 0.01282051 0.01282051     weight = 0.00416667

band     1 # energy   -6.19765175 # occ.  2.00000000

ion      s     py     pz     px    dxy    dyz    dz2    dxz  x2-y2    tot
    1  0.212  0.000  0.000  0.000  0.000  0.000  0.000  0.000  0.000  0.212
    2  0.212  0.000  0.000  0.000  0.000  0.000  0.000  0.000  0.000  0.212
tot    0.424  0.000  0.000  0.000  0.000  0.000  0.000  0.000  0.000  0.424

band     2 # energy    5.58672516 # occ.  2.00000000

ion      s     py     pz     px    dxy    dyz    dz2    dxz  x2-y2    tot
    1  0.002  0.071  0.071  0.071  0.000  0.000  0.000  0.000  0.000  0.214
    2  0.002  0.071  0.071  0.071  0.000  0.000  0.000  0.000  0.000  0.214
tot    0.004  0.141  0.141  0.141  0.000  0.000  0.000  0.000  0.000  0.428

band     3 # energy    5.60942397 # occ.  2.00000000

ion      s     py     pz     px    dxy    dyz    dz2    dxz  x2-y2    tot
    1  0.000  0.111  0.000  0.102  0.000  0.000  0.000  0.000  0.000  0.214
    2  0.000  0.111  0.000  0.102  0.000  0.000  0.000  0.000  0.000  0.214
tot    0.000  0.222  0.000  0.205  0.000  0.000  0.000  0.000  0.000  0.428

band     4 # energy    5.60942397 # occ.  2.00000000

ion      s     py     pz     px    dxy    dyz    dz2    dxz  x2-y2    tot
    1  0.000  0.031  0.142  0.040  0.000  0.000  0.000  0.000  0.000  0.214
    2  0.000  0.031  0.142  0.040  0.000  0.000  0.000  0.000  0.000  0.214
tot    0.000  0.063  0.285  0.080  0.000  0.000  0.000  0.000  0.000  0.428

band     5 # energy    8.17566865 # occ.  0.00000000

ion      s     py     pz     px    dxy    dyz    dz2    dxz  x2-y2    tot
    1  0.000  0.037  0.077  0.037  0.000  0.000  0.000  0.000  0.000  0.151
    2  0.000  0.037  0.077  0.037  0.000  0.000  0.000  0.000  0.000  0.151
tot    0.000  0.073  0.154  0.074  0.000  0.000  0.000  0.000  0.000  0.302

band     6 # energy    8.17566865 # occ.  0.00000000

ion      s     py     pz     px    dxy    dyz    dz2    dxz  x2-y2    tot
    1  0.000  0.064  0.023  0.064  0.000  0.000  0.000  0.000  0.000  0.151
    2  0.000  0.064  0.023  0.064  0.000  0.000  0.000  0.000  0.000  0.151
tot    0.000  0.128  0.047  0.127  0.000  0.000  0.000  0.000  0.000  0.302

band     7 # energy    8.17736036 # occ.  0.00000000

ion      s     py     pz     px    dxy    dyz    dz2    dxz  x2-y2    tot
    1  0.000  0.050  0.050  0.050  0.000  0.000  0.000  0.000  0.000  0.151
    2  0.000  0.050  0.050  0.050  0.000  0.000  0.000  0.000  0.000  0.151
tot    0.001  0.100  0.100  0.100  0.000  0.000  0.000  0.000  0.000  0.302

band     8 # energy    8.75921640 # occ.  0.00000000

ion      s     py     pz     px    dxy    dyz    dz2    dxz  x2-y2    tot
    1  0.356  0.001  0.001  0.001  0.000  0.000  0.000  0.000  0.000  0.358
    2  0.356  0.001  0.001  0.001  0.000  0.000  0.000  0.000  0.000  0.358
tot    0.713  0.001  0.001  0.001  0.000  0.000  0.000  0.000  0.000  0.716


 k-point   160 :    0.00000000 0.00000000 0.00000000     weight = 0.00416667

band     1 # energy   -6.19976478 # occ.  2.00000000

ion      s     py     pz     px    dxy    dyz    dz2    dxz  x2-y2    tot
    1  0.212  0.000  0.000  0.000  0.000  0.000  0.000  0.000  0.000  0.212
    2  0.212  0.000  0.000  0.000  0.000  0.000  0.000  0.000  0.000  0.212
tot    0.424  0.000  0.000  0.000  0.000  0.000  0.000  0.000  0.000  0.424

band     2 # energy    5.61310281 # occ.  2.00000000

ion      s     py     pz     px    dxy    dyz    dz2    dxz  x2-y2    tot
    1  0.000  0.071  0.071  0.071  0.000  0.000  0.000  0.000  0.000  0.214
    2  0.000  0.071  0.071  0.071  0.000  0.000  0.000  0.000  0.000  0.214
tot    0.000  0.143  0.143  0.143  0.000  0.000  0.000  0.000  0.000  0.428

band     3 # energy    5.61310294 # occ.  2.00000000

ion      s     py     pz     px    dxy    dyz    dz2    dxz  x2-y2    tot
    1  0.000  0.107  0.000  0.107  0.000  0.000  0.000  0.000  0.000  0.214
    2  0.000  0.107  0.000  0.107  0.000  0.000  0.000  0.000  0.000  0.214
tot    0.000  0.214  0.000  0.214  0.000  0.000  0.000  0.000  0.000  0.428

band     4 # energy    5.61310294 # occ.  2.00000000

ion      s     py     pz     px    dxy    dyz    dz2    dxz  x2-y2    tot
    1  0.000  0.036  0.143  0.036  0.000  0.000  0.000  0.000  0.000  0.214
    2  0.000  0.036  0.143  0.036  0.000  0.000  0.000  0.000  0.000  0.214
tot    0.000  0.071  0.285  0.071  0.000  0.000  0.000  0.000  0.000  0.428

band     5 # energy    8.17029107 # occ.  0.00000000

ion      s     py     pz     px    dxy    dyz    dz2    dxz  x2-y2    tot
    1  0.000  0.050  0.051  0.050  0.000  0.000  0.000  0.000  0.000  0.151
    2  0.000  0.050  0.051  0.050  0.000  0.000  0.000  0.000  0.000  0.151
tot    0.000  0.100  0.102  0.099  0.000  0.000  0.000  0.000  0.000  0.301

band     6 # energy    8.17029110 # occ.  0.00000000

ion      s     py     pz     px    dxy    dyz    dz2    dxz  x2-y2    tot
    1  0.000  0.002  0.068  0.081  0.000  0.000  0.000  0.000  0.000  0.151
    2  0.000  0.002  0.068  0.081  0.000  0.000  0.000  0.000  0.000  0.151
tot    0.000  0.004  0.136  0.161  0.000  0.000  0.000  0.000  0.000  0.301

band     7 # energy    8.17029110 # occ.  0.00000000

ion      s     py     pz     px    dxy    dyz    dz2    dxz  x2-y2    tot
    1  0.000  0.099  0.032  0.020  0.000  0.000  0.000  0.000  0.000  0.151
    2  0.000  0.099  0.032  0.020  0.000  0.000  0.000  0.000  0.000  0.151
tot    0.000  0.197  0.063  0.041  0.000  0.000  0.000  0.000  0.000  0.301

band     8 # energy    8.74366105 # occ.  0.00000000

ion      s     py     pz     px    dxy    dyz    dz2    dxz  x2-y2    tot
    1  0.359  0.000  0.000  0.000  0.000  0.000  0.000  0.000  0.000  0.359
    2  0.359  0.000  0.000  0.000  0.000  0.000  0.000  0.000  0.000  0.359
tot    0.717  0.000  0.000  0.000  0.000  0.000  0.000  0.000  0.000  0.717


 k-point   161 :    0.00000000 0.00000000 0.00000000     weight = 0.00416667

band     1 # energy   -6.19976478 # occ.  2.00000000

ion      s     py     pz     px    dxy    dyz    dz2    dxz  x2-y2    tot
    1  0.212  0.000  0.000  0.000  0.000  0.000  0.000  0.000  0.000  0.212
    2  0.212  0.000  0.000  0.000  0.000  0.000  0.000  0.000  0.000  0.212
tot    0.424  0.000  0.000  0.000  0.000  0.000  0.000  0.000  0.000  0.424

band     2 # energy    5.61310281 # occ.  2.00000000

ion      s     py     pz     px    dxy    dyz    dz2    dxz  x2-y2    tot
    1  0.000  0.070  0.072  0.072  0.000  0.000  0.000  0.000  0.000  0.214
    2  0.000  0.070  0.072  0.072  0.000  0.000  0.000  0.000  0.000  0.214
tot    0.000  0.139  0.144  0.145  0.000  0.000  0.000  0.000  0.000  0.428

band     3 # energy    5.61310294 # occ.  2.00000000

ion      s     py     pz     px    dxy    dyz    dz2    dxz  x2-y2    tot
    1  0.000  0.093  0.115  0.006  0.000  0.000  0.000  0.000  0.000  0.214
    2  0.000  0.093  0.115  0.006  0.000  0.000  0.000  0.000  0.000  0.214
tot    0.000  0.187  0.230  0.011  0.000  0.000  0.000  0.000  0.000  0.428

band     4 # energy    5.61310294 # occ.  2.00000000

ion      s     py     pz     px    dxy    dyz    dz2    dxz  x2-y2    tot
    1  0.000  0.051  0.027  0.136  0.000  0.000  0.000  0.000  0.000  0.214
    2  0.000  0.051  0.027  0.136  0.000  0.000  0.000  0.000  0.000  0.214
tot    0.000  0.102  0.054  0.271  0.000  0.000  0.000  0.000  0.000  0.428

band     5 # energy    8.17029109 # occ.  0.00000000

ion      s     py     pz     px    dxy    dyz    dz2    dxz  x2-y2    tot
    1  0.000  0.017  0.117  0.017  0.000  0.000  0.000  0.000  0.000  0.151
    2  0.000  0.017  0.117  0.017  0.000  0.000  0.000  0.000  0.000  0.151
tot    0.000  0.033  0.235  0.034  0.000  0.000  0.000  0.000  0.000  0.301

band     6 # energy    8.17029115 # occ.  0.00000000

ion      s     py     pz     px    dxy    dyz    dz2    dxz  x2-y2    tot
    1  0.000  0.007  0.024  0.120  0.000  0.000  0.000  0.000  0.000  0.151
    2  0.000  0.007  0.024  0.120  0.000  0.000  0.000  0.000  0.000  0.151
tot    0.000  0.014  0.047  0.240  0.000  0.000  0.000  0.000  0.000  0.301

band     7 # energy    8.17029121 # occ.  0.00000000

ion      s     py     pz     px    dxy    dyz    dz2    dxz  x2-y2    tot
    1  0.000  0.127  0.010  0.014  0.000  0.000  0.000  0.000  0.000  0.151
    2  0.000  0.127  0.010  0.014  0.000  0.000  0.000  0.000  0.000  0.151
tot    0.000  0.254  0.019  0.028  0.000  0.000  0.000  0.000  0.000  0.301

band     8 # energy    8.74366112 # occ.  0.00000000

ion      s     py     pz     px    dxy    dyz    dz2    dxz  x2-y2    tot
    1  0.359  0.000  0.000  0.000  0.000  0.000  0.000  0.000  0.000  0.359
    2  0.359  0.000  0.000  0.000  0.000  0.000  0.000  0.000  0.000  0.359
tot    0.717  0.000  0.000  0.000  0.000  0.000  0.000  0.000  0.000  0.717


 k-point   162 :    0.00961538 0.00961538 0.01923077     weight = 0.00416667

band     1 # energy   -6.19659516 # occ.  2.00000000

ion      s     py     pz     px    dxy    dyz    dz2    dxz  x2-y2    tot
    1  0.212  0.000  0.000  0.000  0.000  0.000  0.000  0.000  0.000  0.212
    2  0.212  0.000  0.000  0.000  0.000  0.000  0.000  0.000  0.000  0.212
tot    0.424  0.000  0.000  0.000  0.000  0.000  0.000  0.000  0.000  0.424

band     2 # energy    5.57778677 # occ.  2.00000000

ion      s     py     pz     px    dxy    dyz    dz2    dxz  x2-y2    tot
    1  0.003  0.105  0.001  0.105  0.000  0.000  0.000  0.000  0.000  0.214
    2  0.003  0.105  0.001  0.105  0.000  0.000  0.000  0.000  0.000  0.214
tot    0.006  0.210  0.002  0.210  0.000  0.000  0.000  0.000  0.000  0.429

band     3 # energy    5.59933476 # occ.  2.00000000

ion      s     py     pz     px    dxy    dyz    dz2    dxz  x2-y2    tot
    1  0.000  0.001  0.212  0.001  0.000  0.000  0.000  0.000  0.000  0.213
    2  0.000  0.001  0.212  0.001  0.000  0.000  0.000  0.000  0.000  0.213
tot    0.000  0.001  0.425  0.001  0.000  0.000  0.000  0.000  0.000  0.427

band     4 # energy    5.61169392 # occ.  2.00000000

ion      s     py     pz     px    dxy    dyz    dz2    dxz  x2-y2    tot
    1  0.000  0.107  0.000  0.107  0.000  0.000  0.000  0.000  0.000  0.214
    2  0.000  0.107  0.000  0.107  0.000  0.000  0.000  0.000  0.000  0.214
tot    0.000  0.214  0.000  0.214  0.000  0.000  0.000  0.000  0.000  0.428

band     5 # energy    8.17356512 # occ.  0.00000000

ion      s     py     pz     px    dxy    dyz    dz2    dxz  x2-y2    tot
    1  0.000  0.075  0.000  0.075  0.000  0.000  0.000  0.000  0.000  0.151
    2  0.000  0.075  0.000  0.075  0.000  0.000  0.000  0.000  0.000  0.151
tot    0.000  0.151  0.000  0.151  0.000  0.000  0.000  0.000  0.000  0.301

band     6 # energy    8.17672952 # occ.  0.00000000

ion      s     py     pz     px    dxy    dyz    dz2    dxz  x2-y2    tot
    1  0.000  0.075  0.001  0.075  0.000  0.000  0.000  0.000  0.000  0.151
    2  0.000  0.075  0.001  0.075  0.000  0.000  0.000  0.000  0.000  0.151
tot    0.001  0.149  0.003  0.149  0.000  0.000  0.000  0.000  0.000  0.302

band     7 # energy    8.18718702 # occ.  0.00000000

ion      s     py     pz     px    dxy    dyz    dz2    dxz  x2-y2    tot
    1  0.000  0.001  0.150  0.001  0.000  0.000  0.000  0.000  0.000  0.151
    2  0.000  0.001  0.150  0.001  0.000  0.000  0.000  0.000  0.000  0.151
tot    0.001  0.001  0.299  0.001  0.000  0.000  0.000  0.000  0.000  0.303

band     8 # energy    8.76698179 # occ.  0.00000000

ion      s     py     pz     px    dxy    dyz    dz2    dxz  x2-y2    tot
    1  0.355  0.001  0.000  0.001  0.000  0.000  0.000  0.000  0.000  0.358
    2  0.355  0.001  0.000  0.001  0.000  0.000  0.000  0.000  0.000  0.358
tot    0.710  0.002  0.000  0.002  0.000  0.000  0.000  0.000  0.000  0.715


 k-point   163 :    0.01923077 0.01923077 0.03846154     weight = 0.00416667

band     1 # energy   -6.18706670 # occ.  2.00000000

ion      s     py     pz     px    dxy    dyz    dz2    dxz  x2-y2    tot
    1  0.212  0.000  0.000  0.000  0.000  0.000  0.000  0.000  0.000  0.212
    2  0.212  0.000  0.000  0.000  0.000  0.000  0.000  0.000  0.000  0.212
tot    0.424  0.000  0.000  0.000  0.000  0.000  0.000  0.000  0.000  0.424

band     2 # energy    5.47720197 # occ.  2.00000000

ion      s     py     pz     px    dxy    dyz    dz2    dxz  x2-y2    tot
    1  0.011  0.101  0.004  0.101  0.000  0.000  0.000  0.000  0.000  0.216
    2  0.011  0.101  0.004  0.101  0.000  0.000  0.000  0.000  0.000  0.216
tot    0.022  0.201  0.008  0.201  0.000  0.000  0.000  0.000  0.000  0.432

band     3 # energy    5.55870919 # occ.  2.00000000

ion      s     py     pz     px    dxy    dyz    dz2    dxz  x2-y2    tot
    1  0.000  0.002  0.208  0.002  0.000  0.000  0.000  0.000  0.000  0.212
    2  0.000  0.002  0.208  0.002  0.000  0.000  0.000  0.000  0.000  0.212
tot    0.000  0.004  0.416  0.004  0.000  0.000  0.000  0.000  0.000  0.425

band     4 # energy    5.60740905 # occ.  2.00000000

ion      s     py     pz     px    dxy    dyz    dz2    dxz  x2-y2    tot
    1  0.000  0.107  0.000  0.107  0.000  0.000  0.000  0.000  0.000  0.214
    2  0.000  0.107  0.000  0.107  0.000  0.000  0.000  0.000  0.000  0.214
tot    0.000  0.214  0.000  0.214  0.000  0.000  0.000  0.000  0.000  0.428

band     5 # energy    8.18339051 # occ.  0.00000000

ion      s     py     pz     px    dxy    dyz    dz2    dxz  x2-y2    tot
    1  0.000  0.075  0.000  0.075  0.000  0.000  0.000  0.000  0.000  0.151
    2  0.000  0.075  0.000  0.075  0.000  0.000  0.000  0.000  0.000  0.151
tot    0.000  0.151  0.000  0.151  0.000  0.000  0.000  0.000  0.000  0.301

band     6 # energy    8.19572255 # occ.  0.00000000

ion      s     py     pz     px    dxy    dyz    dz2    dxz  x2-y2    tot
    1  0.001  0.072  0.006  0.072  0.000  0.000  0.000  0.000  0.000  0.151
    2  0.001  0.072  0.006  0.072  0.000  0.000  0.000  0.000  0.000  0.151
tot    0.003  0.144  0.011  0.144  0.000  0.000  0.000  0.000  0.000  0.303

band     7 # energy    8.22941340 # occ.  0.00000000

ion      s     py     pz     px    dxy    dyz    dz2    dxz  x2-y2    tot
    1  0.006  0.002  0.145  0.002  0.000  0.000  0.000  0.000  0.000  0.155
    2  0.006  0.002  0.145  0.002  0.000  0.000  0.000  0.000  0.000  0.155
tot    0.012  0.004  0.291  0.004  0.000  0.000  0.000  0.000  0.000  0.310

band     8 # energy    8.83982343 # occ.  0.00000000

ion      s     py     pz     px    dxy    dyz    dz2    dxz  x2-y2    tot
    1  0.342  0.005  0.001  0.005  0.000  0.000  0.000  0.000  0.000  0.353
    2  0.342  0.005  0.001  0.005  0.000  0.000  0.000  0.000  0.000  0.353
tot    0.683  0.010  0.003  0.010  0.000  0.000  0.000  0.000  0.000  0.705


 k-point   164 :    0.02884615 0.02884615 0.05769231     weight = 0.00416667

band     1 # energy   -6.17118683 # occ.  2.00000000

ion      s     py     pz     px    dxy    dyz    dz2    dxz  x2-y2    tot
    1  0.212  0.000  0.000  0.000  0.000  0.000  0.000  0.000  0.000  0.212
    2  0.212  0.000  0.000  0.000  0.000  0.000  0.000  0.000  0.000  0.212
tot    0.424  0.000  0.000  0.000  0.000  0.000  0.000  0.000  0.000  0.424

band     2 # energy    5.32431773 # occ.  2.00000000

ion      s     py     pz     px    dxy    dyz    dz2    dxz  x2-y2    tot
    1  0.021  0.094  0.007  0.094  0.000  0.000  0.000  0.000  0.000  0.218
    2  0.021  0.094  0.007  0.094  0.000  0.000  0.000  0.000  0.000  0.218
tot    0.043  0.189  0.015  0.189  0.000  0.000  0.000  0.000  0.000  0.436

band     3 # energy    5.49280819 # occ.  2.00000000

ion      s     py     pz     px    dxy    dyz    dz2    dxz  x2-y2    tot
    1  0.000  0.004  0.202  0.004  0.000  0.000  0.000  0.000  0.000  0.211
    2  0.000  0.004  0.202  0.004  0.000  0.000  0.000  0.000  0.000  0.211
tot    0.000  0.009  0.404  0.009  0.000  0.000  0.000  0.000  0.000  0.422

band     4 # energy    5.60019872 # occ.  2.00000000

ion      s     py     pz     px    dxy    dyz    dz2    dxz  x2-y2    tot
    1  0.000  0.107  0.000  0.107  0.000  0.000  0.000  0.000  0.000  0.214
    2  0.000  0.107  0.000  0.107  0.000  0.000  0.000  0.000  0.000  0.214
tot    0.000  0.214  0.000  0.214  0.000  0.000  0.000  0.000  0.000  0.429

band     5 # energy    8.19976311 # occ.  0.00000000

ion      s     py     pz     px    dxy    dyz    dz2    dxz  x2-y2    tot
    1  0.000  0.075  0.000  0.075  0.000  0.000  0.000  0.000  0.000  0.151
    2  0.000  0.075  0.000  0.075  0.000  0.000  0.000  0.000  0.000  0.151
tot    0.000  0.151  0.000  0.151  0.000  0.000  0.000  0.000  0.000  0.301

band     6 # energy    8.22636365 # occ.  0.00000000

ion      s     py     pz     px    dxy    dyz    dz2    dxz  x2-y2    tot
    1  0.003  0.068  0.012  0.068  0.000  0.000  0.000  0.000  0.000  0.152
    2  0.003  0.068  0.012  0.068  0.000  0.000  0.000  0.000  0.000  0.152
tot    0.006  0.137  0.024  0.137  0.000  0.000  0.000  0.000  0.000  0.304

band     7 # energy    8.27951233 # occ.  0.00000000

ion      s     py     pz     px    dxy    dyz    dz2    dxz  x2-y2    tot
    1  0.021  0.002  0.138  0.002  0.000  0.000  0.000  0.000  0.000  0.164
    2  0.021  0.002  0.138  0.002  0.000  0.000  0.000  0.000  0.000  0.164
tot    0.042  0.005  0.276  0.005  0.000  0.000  0.000  0.000  0.000  0.327

band     8 # energy    8.96608099 # occ.  0.00000000

ion      s     py     pz     px    dxy    dyz    dz2    dxz  x2-y2    tot
    1  0.315  0.011  0.005  0.011  0.000  0.000  0.000  0.000  0.000  0.342
    2  0.315  0.011  0.005  0.011  0.000  0.000  0.000  0.000  0.000  0.342
tot    0.631  0.021  0.011  0.021  0.000  0.000  0.000  0.000  0.000  0.684


 k-point   165 :    0.03846154 0.03846154 0.07692308     weight = 0.00416667

band     1 # energy   -6.14896119 # occ.  2.00000000

ion      s     py     pz     px    dxy    dyz    dz2    dxz  x2-y2    tot
    1  0.212  0.000  0.000  0.000  0.000  0.000  0.000  0.000  0.000  0.212
    2  0.212  0.000  0.000  0.000  0.000  0.000  0.000  0.000  0.000  0.212
tot    0.423  0.001  0.000  0.001  0.000  0.000  0.000  0.000  0.000  0.425

band     2 # energy    5.13361373 # occ.  2.00000000

ion      s     py     pz     px    dxy    dyz    dz2    dxz  x2-y2    tot
    1  0.033  0.088  0.011  0.088  0.000  0.000  0.000  0.000  0.000  0.220
    2  0.033  0.088  0.011  0.088  0.000  0.000  0.000  0.000  0.000  0.220
tot    0.065  0.176  0.022  0.176  0.000  0.000  0.000  0.000  0.000  0.440

band     3 # energy    5.40410941 # occ.  2.00000000

ion      s     py     pz     px    dxy    dyz    dz2    dxz  x2-y2    tot
    1  0.000  0.007  0.194  0.007  0.000  0.000  0.000  0.000  0.000  0.209
    2  0.000  0.007  0.194  0.007  0.000  0.000  0.000  0.000  0.000  0.209
tot    0.000  0.015  0.388  0.015  0.000  0.000  0.000  0.000  0.000  0.418

band     4 # energy    5.58996114 # occ.  2.00000000

ion      s     py     pz     px    dxy    dyz    dz2    dxz  x2-y2    tot
    1  0.000  0.107  0.000  0.107  0.000  0.000  0.000  0.000  0.000  0.215
    2  0.000  0.107  0.000  0.107  0.000  0.000  0.000  0.000  0.000  0.215
tot    0.000  0.215  0.000  0.215  0.000  0.000  0.000  0.000  0.000  0.429

band     5 # energy    8.22268410 # occ.  0.00000000

ion      s     py     pz     px    dxy    dyz    dz2    dxz  x2-y2    tot
    1  0.000  0.075  0.000  0.075  0.000  0.000  0.000  0.000  0.000  0.151
    2  0.000  0.075  0.000  0.075  0.000  0.000  0.000  0.000  0.000  0.151
tot    0.000  0.151  0.000  0.151  0.000  0.000  0.000  0.000  0.000  0.301

band     6 # energy    8.26740404 # occ.  0.00000000

ion      s     py     pz     px    dxy    dyz    dz2    dxz  x2-y2    tot
    1  0.005  0.064  0.020  0.064  0.000  0.000  0.000  0.000  0.000  0.153
    2  0.005  0.064  0.020  0.064  0.000  0.000  0.000  0.000  0.000  0.153
tot    0.010  0.128  0.040  0.128  0.000  0.000  0.000  0.000  0.000  0.305

band     7 # energy    8.32534866 # occ.  0.00000000

ion      s     py     pz     px    dxy    dyz    dz2    dxz  x2-y2    tot
    1  0.042  0.002  0.129  0.002  0.000  0.000  0.000  0.000  0.000  0.175
    2  0.042  0.002  0.129  0.002  0.000  0.000  0.000  0.000  0.000  0.175
tot    0.085  0.004  0.258  0.004  0.000  0.000  0.000  0.000  0.000  0.351

band     8 # energy    9.14230238 # occ.  0.00000000

ion      s     py     pz     px    dxy    dyz    dz2    dxz  x2-y2    tot
    1  0.282  0.018  0.010  0.018  0.000  0.000  0.000  0.000  0.000  0.328
    2  0.282  0.018  0.010  0.018  0.000  0.000  0.000  0.000  0.000  0.328
tot    0.564  0.036  0.021  0.036  0.000  0.000  0.000  0.000  0.000  0.656


 k-point   166 :    0.04807692 0.04807692 0.09615385     weight = 0.00416667

band     1 # energy   -6.12041605 # occ.  2.00000000

ion      s     py     pz     px    dxy    dyz    dz2    dxz  x2-y2    tot
    1  0.212  0.000  0.000  0.000  0.000  0.000  0.000  0.000  0.000  0.212
    2  0.212  0.000  0.000  0.000  0.000  0.000  0.000  0.000  0.000  0.212
tot    0.423  0.001  0.000  0.001  0.000  0.000  0.000  0.000  0.000  0.425

band     2 # energy    4.91725529 # occ.  2.00000000

ion      s     py     pz     px    dxy    dyz    dz2    dxz  x2-y2    tot
    1  0.044  0.082  0.014  0.082  0.000  0.000  0.000  0.000  0.000  0.222
    2  0.044  0.082  0.014  0.082  0.000  0.000  0.000  0.000  0.000  0.222
tot    0.087  0.164  0.028  0.164  0.000  0.000  0.000  0.000  0.000  0.444

band     3 # energy    5.29542874 # occ.  2.00000000

ion      s     py     pz     px    dxy    dyz    dz2    dxz  x2-y2    tot
    1  0.001  0.010  0.185  0.010  0.000  0.000  0.000  0.000  0.000  0.206
    2  0.001  0.010  0.185  0.010  0.000  0.000  0.000  0.000  0.000  0.206
tot    0.001  0.021  0.370  0.021  0.000  0.000  0.000  0.000  0.000  0.413

band     4 # energy    5.57648932 # occ.  2.00000000

ion      s     py     pz     px    dxy    dyz    dz2    dxz  x2-y2    tot
    1  0.000  0.108  0.000  0.108  0.000  0.000  0.000  0.000  0.000  0.215
    2  0.000  0.108  0.000  0.108  0.000  0.000  0.000  0.000  0.000  0.215
tot    0.000  0.215  0.000  0.215  0.000  0.000  0.000  0.000  0.000  0.430

band     5 # energy    8.25214813 # occ.  0.00000000

ion      s     py     pz     px    dxy    dyz    dz2    dxz  x2-y2    tot
    1  0.000  0.075  0.000  0.075  0.000  0.000  0.000  0.000  0.000  0.151
    2  0.000  0.075  0.000  0.075  0.000  0.000  0.000  0.000  0.000  0.151
tot    0.000  0.151  0.000  0.151  0.000  0.000  0.000  0.000  0.000  0.301

band     6 # energy    8.31749370 # occ.  0.00000000

ion      s     py     pz     px    dxy    dyz    dz2    dxz  x2-y2    tot
    1  0.007  0.059  0.029  0.059  0.000  0.000  0.000  0.000  0.000  0.153
    2  0.007  0.059  0.029  0.059  0.000  0.000  0.000  0.000  0.000  0.153
tot    0.014  0.117  0.058  0.117  0.000  0.000  0.000  0.000  0.000  0.307

band     7 # energy    8.36429992 # occ.  0.00000000

ion      s     py     pz     px    dxy    dyz    dz2    dxz  x2-y2    tot
    1  0.062  0.001  0.121  0.001  0.000  0.000  0.000  0.000  0.000  0.186
    2  0.062  0.001  0.121  0.001  0.000  0.000  0.000  0.000  0.000  0.186
tot    0.125  0.003  0.242  0.003  0.000  0.000  0.000  0.000  0.000  0.373

band     8 # energy    9.35714704 # occ.  0.00000000

ion      s     py     pz     px    dxy    dyz    dz2    dxz  x2-y2    tot
    1  0.250  0.025  0.015  0.025  0.000  0.000  0.000  0.000  0.000  0.315
    2  0.250  0.025  0.015  0.025  0.000  0.000  0.000  0.000  0.000  0.315
tot    0.500  0.050  0.030  0.050  0.000  0.000  0.000  0.000  0.000  0.630


 k-point   167 :    0.05769231 0.05769231 0.11538462     weight = 0.00416667

band     1 # energy   -6.08557812 # occ.  2.00000000

ion      s     py     pz     px    dxy    dyz    dz2    dxz  x2-y2    tot
    1  0.211  0.001  0.000  0.001  0.000  0.000  0.000  0.000  0.000  0.213
    2  0.211  0.001  0.000  0.001  0.000  0.000  0.000  0.000  0.000  0.213
tot    0.423  0.001  0.000  0.001  0.000  0.000  0.000  0.000  0.000  0.425

band     2 # energy    4.68427031 # occ.  2.00000000

ion      s     py     pz     px    dxy    dyz    dz2    dxz  x2-y2    tot
    1  0.054  0.076  0.017  0.076  0.000  0.000  0.000  0.000  0.000  0.224
    2  0.054  0.076  0.017  0.076  0.000  0.000  0.000  0.000  0.000  0.224
tot    0.107  0.153  0.034  0.153  0.000  0.000  0.000  0.000  0.000  0.447

band     3 # energy    5.16973698 # occ.  2.00000000

ion      s     py     pz     px    dxy    dyz    dz2    dxz  x2-y2    tot
    1  0.001  0.014  0.176  0.014  0.000  0.000  0.000  0.000  0.000  0.204
    2  0.001  0.014  0.176  0.014  0.000  0.000  0.000  0.000  0.000  0.204
tot    0.002  0.027  0.352  0.027  0.000  0.000  0.000  0.000  0.000  0.408

band     4 # energy    5.55956740 # occ.  2.00000000

ion      s     py     pz     px    dxy    dyz    dz2    dxz  x2-y2    tot
    1  0.000  0.108  0.000  0.108  0.000  0.000  0.000  0.000  0.000  0.215
    2  0.000  0.108  0.000  0.108  0.000  0.000  0.000  0.000  0.000  0.215
tot    0.000  0.215  0.000  0.215  0.000  0.000  0.000  0.000  0.000  0.431

band     5 # energy    8.28814997 # occ.  0.00000000

ion      s     py     pz     px    dxy    dyz    dz2    dxz  x2-y2    tot
    1  0.000  0.075  0.000  0.075  0.000  0.000  0.000  0.000  0.000  0.151
    2  0.000  0.075  0.000  0.075  0.000  0.000  0.000  0.000  0.000  0.151
tot    0.000  0.151  0.000  0.151  0.000  0.000  0.000  0.000  0.000  0.301

band     6 # energy    8.37539871 # occ.  0.00000000

ion      s     py     pz     px    dxy    dyz    dz2    dxz  x2-y2    tot
    1  0.010  0.053  0.038  0.053  0.000  0.000  0.000  0.000  0.000  0.154
    2  0.010  0.053  0.038  0.053  0.000  0.000  0.000  0.000  0.000  0.154
tot    0.019  0.106  0.076  0.106  0.000  0.000  0.000  0.000  0.000  0.308

band     7 # energy    8.39817149 # occ.  0.00000000

ion      s     py     pz     px    dxy    dyz    dz2    dxz  x2-y2    tot
    1  0.078  0.001  0.115  0.001  0.000  0.000  0.000  0.000  0.000  0.195
    2  0.078  0.001  0.115  0.001  0.000  0.000  0.000  0.000  0.000  0.195
tot    0.156  0.002  0.230  0.002  0.000  0.000  0.000  0.000  0.000  0.390

band     8 # energy    9.59717871 # occ.  0.00000000

ion      s     py     pz     px    dxy    dyz    dz2    dxz  x2-y2    tot
    1  0.223  0.032  0.017  0.032  0.000  0.000  0.000  0.000  0.000  0.304
    2  0.223  0.032  0.017  0.032  0.000  0.000  0.000  0.000  0.000  0.304
tot    0.446  0.064  0.035  0.064  0.000  0.000  0.000  0.000  0.000  0.608


 k-point   168 :    0.06730769 0.06730769 0.13461538     weight = 0.00416667

band     1 # energy   -6.04449280 # occ.  2.00000000

ion      s     py     pz     px    dxy    dyz    dz2    dxz  x2-y2    tot
    1  0.211  0.001  0.000  0.001  0.000  0.000  0.000  0.000  0.000  0.213
    2  0.211  0.001  0.000  0.001  0.000  0.000  0.000  0.000  0.000  0.213
tot    0.422  0.002  0.000  0.002  0.000  0.000  0.000  0.000  0.000  0.426

band     2 # energy    4.44099850 # occ.  2.00000000

ion      s     py     pz     px    dxy    dyz    dz2    dxz  x2-y2    tot
    1  0.063  0.071  0.020  0.071  0.000  0.000  0.000  0.000  0.000  0.225
    2  0.063  0.071  0.020  0.071  0.000  0.000  0.000  0.000  0.000  0.225
tot    0.126  0.143  0.039  0.143  0.000  0.000  0.000  0.000  0.000  0.451

band     3 # energy    5.02991400 # occ.  2.00000000

ion      s     py     pz     px    dxy    dyz    dz2    dxz  x2-y2    tot
    1  0.002  0.017  0.167  0.017  0.000  0.000  0.000  0.000  0.000  0.201
    2  0.002  0.017  0.167  0.017  0.000  0.000  0.000  0.000  0.000  0.201
tot    0.003  0.033  0.334  0.033  0.000  0.000  0.000  0.000  0.000  0.403

band     4 # energy    5.53895165 # occ.  2.00000000

ion      s     py     pz     px    dxy    dyz    dz2    dxz  x2-y2    tot
    1  0.000  0.108  0.000  0.108  0.000  0.000  0.000  0.000  0.000  0.216
    2  0.000  0.108  0.000  0.108  0.000  0.000  0.000  0.000  0.000  0.216
tot    0.000  0.216  0.000  0.216  0.000  0.000  0.000  0.000  0.000  0.432

band     5 # energy    8.33068478 # occ.  0.00000000

ion      s     py     pz     px    dxy    dyz    dz2    dxz  x2-y2    tot
    1  0.000  0.075  0.000  0.075  0.000  0.000  0.000  0.000  0.000  0.150
    2  0.000  0.075  0.000  0.075  0.000  0.000  0.000  0.000  0.000  0.150
tot    0.000  0.150  0.000  0.150  0.000  0.000  0.000  0.000  0.000  0.301

band     6 # energy    8.42908732 # occ.  0.00000000

ion      s     py     pz     px    dxy    dyz    dz2    dxz  x2-y2    tot
    1  0.090  0.001  0.110  0.001  0.000  0.000  0.000  0.000  0.000  0.201
    2  0.090  0.001  0.110  0.001  0.000  0.000  0.000  0.000  0.000  0.201
tot    0.179  0.001  0.221  0.001  0.000  0.000  0.000  0.000  0.000  0.402

band     7 # energy    8.44011232 # occ.  0.00000000

ion      s     py     pz     px    dxy    dyz    dz2    dxz  x2-y2    tot
    1  0.012  0.048  0.047  0.048  0.000  0.000  0.000  0.000  0.000  0.155
    2  0.012  0.048  0.047  0.048  0.000  0.000  0.000  0.000  0.000  0.155
tot    0.024  0.095  0.094  0.095  0.000  0.000  0.000  0.000  0.000  0.309

band     8 # energy    9.85020402 # occ.  0.00000000

ion      s     py     pz     px    dxy    dyz    dz2    dxz  x2-y2    tot
    1  0.200  0.038  0.019  0.038  0.000  0.000  0.000  0.000  0.000  0.295
    2  0.200  0.038  0.019  0.038  0.000  0.000  0.000  0.000  0.000  0.295
tot    0.401  0.076  0.037  0.076  0.000  0.000  0.000  0.000  0.000  0.590


 k-point   169 :    0.07692308 0.07692308 0.15384615     weight = 0.00416667

band     1 # energy   -5.99719522 # occ.  2.00000000

ion      s     py     pz     px    dxy    dyz    dz2    dxz  x2-y2    tot
    1  0.211  0.001  0.000  0.001  0.000  0.000  0.000  0.000  0.000  0.213
    2  0.211  0.001  0.000  0.001  0.000  0.000  0.000  0.000  0.000  0.213
tot    0.422  0.002  0.000  0.002  0.000  0.000  0.000  0.000  0.000  0.426

band     2 # energy    4.19181098 # occ.  2.00000000

ion      s     py     pz     px    dxy    dyz    dz2    dxz  x2-y2    tot
    1  0.071  0.067  0.022  0.067  0.000  0.000  0.000  0.000  0.000  0.227
    2  0.071  0.067  0.022  0.067  0.000  0.000  0.000  0.000  0.000  0.227
tot    0.143  0.134  0.043  0.134  0.000  0.000  0.000  0.000  0.000  0.453

band     3 # energy    4.87858398 # occ.  2.00000000

ion      s     py     pz     px    dxy    dyz    dz2    dxz  x2-y2    tot
    1  0.002  0.019  0.158  0.019  0.000  0.000  0.000  0.000  0.000  0.199
    2  0.002  0.019  0.158  0.019  0.000  0.000  0.000  0.000  0.000  0.199
tot    0.005  0.038  0.316  0.038  0.000  0.000  0.000  0.000  0.000  0.398

band     4 # energy    5.51438014 # occ.  2.00000000

ion      s     py     pz     px    dxy    dyz    dz2    dxz  x2-y2    tot
    1  0.000  0.108  0.000  0.108  0.000  0.000  0.000  0.000  0.000  0.217
    2  0.000  0.108  0.000  0.108  0.000  0.000  0.000  0.000  0.000  0.217
tot    0.000  0.217  0.000  0.217  0.000  0.000  0.000  0.000  0.000  0.433

band     5 # energy    8.37974395 # occ.  0.00000000

ion      s     py     pz     px    dxy    dyz    dz2    dxz  x2-y2    tot
    1  0.000  0.075  0.000  0.075  0.000  0.000  0.000  0.000  0.000  0.150
    2  0.000  0.075  0.000  0.075  0.000  0.000  0.000  0.000  0.000  0.150
tot    0.000  0.150  0.000  0.150  0.000  0.000  0.000  0.000  0.000  0.301

band     6 # energy    8.45838475 # occ.  0.00000000

ion      s     py     pz     px    dxy    dyz    dz2    dxz  x2-y2    tot
    1  0.097  0.000  0.107  0.000  0.000  0.000  0.000  0.000  0.000  0.205
    2  0.097  0.000  0.107  0.000  0.000  0.000  0.000  0.000  0.000  0.205
tot    0.195  0.001  0.214  0.001  0.000  0.000  0.000  0.000  0.000  0.411

band     7 # energy    8.51088422 # occ.  0.00000000

ion      s     py     pz     px    dxy    dyz    dz2    dxz  x2-y2    tot
    1  0.015  0.042  0.055  0.042  0.000  0.000  0.000  0.000  0.000  0.155
    2  0.015  0.042  0.055  0.042  0.000  0.000  0.000  0.000  0.000  0.155
tot    0.029  0.085  0.111  0.085  0.000  0.000  0.000  0.000  0.000  0.310

band     8 # energy   10.10527242 # occ.  0.00000000

ion      s     py     pz     px    dxy    dyz    dz2    dxz  x2-y2    tot
    1  0.181  0.044  0.019  0.044  0.000  0.000  0.000  0.000  0.000  0.287
    2  0.181  0.044  0.019  0.044  0.000  0.000  0.000  0.000  0.000  0.287
tot    0.362  0.087  0.037  0.087  0.000  0.000  0.000  0.000  0.000  0.574


 k-point   170 :    0.08653846 0.08653846 0.17307692     weight = 0.00416667

band     1 # energy   -5.94372486 # occ.  2.00000000

ion      s     py     pz     px    dxy    dyz    dz2    dxz  x2-y2    tot
    1  0.211  0.001  0.000  0.001  0.000  0.000  0.000  0.000  0.000  0.213
    2  0.211  0.001  0.000  0.001  0.000  0.000  0.000  0.000  0.000  0.213
tot    0.422  0.003  0.000  0.003  0.000  0.000  0.000  0.000  0.000  0.427

band     2 # energy    3.93979643 # occ.  2.00000000

ion      s     py     pz     px    dxy    dyz    dz2    dxz  x2-y2    tot
    1  0.079  0.063  0.024  0.063  0.000  0.000  0.000  0.000  0.000  0.228
    2  0.079  0.063  0.024  0.063  0.000  0.000  0.000  0.000  0.000  0.228
tot    0.158  0.126  0.047  0.126  0.000  0.000  0.000  0.000  0.000  0.456

band     3 # energy    4.71821396 # occ.  2.00000000

ion      s     py     pz     px    dxy    dyz    dz2    dxz  x2-y2    tot
    1  0.003  0.022  0.150  0.022  0.000  0.000  0.000  0.000  0.000  0.196
    2  0.003  0.022  0.150  0.022  0.000  0.000  0.000  0.000  0.000  0.196
tot    0.006  0.043  0.300  0.043  0.000  0.000  0.000  0.000  0.000  0.393

band     4 # energy    5.48558241 # occ.  2.00000000

ion      s     py     pz     px    dxy    dyz    dz2    dxz  x2-y2    tot
    1  0.000  0.109  0.000  0.109  0.000  0.000  0.000  0.000  0.000  0.217
    2  0.000  0.109  0.000  0.109  0.000  0.000  0.000  0.000  0.000  0.217
tot    0.000  0.217  0.000  0.217  0.000  0.000  0.000  0.000  0.000  0.434

band     5 # energy    8.43532285 # occ.  0.00000000

ion      s     py     pz     px    dxy    dyz    dz2    dxz  x2-y2    tot
    1  0.000  0.075  0.000  0.075  0.000  0.000  0.000  0.000  0.000  0.150
    2  0.000  0.075  0.000  0.075  0.000  0.000  0.000  0.000  0.000  0.150
tot    0.000  0.150  0.000  0.150  0.000  0.000  0.000  0.000  0.000  0.301

band     6 # energy    8.48653796 # occ.  0.00000000

ion      s     py     pz     px    dxy    dyz    dz2    dxz  x2-y2    tot
    1  0.103  0.000  0.105  0.000  0.000  0.000  0.000  0.000  0.000  0.208
    2  0.103  0.000  0.105  0.000  0.000  0.000  0.000  0.000  0.000  0.208
tot    0.206  0.000  0.210  0.000  0.000  0.000  0.000  0.000  0.000  0.416

band     7 # energy    8.58721575 # occ.  0.00000000

ion      s     py     pz     px    dxy    dyz    dz2    dxz  x2-y2    tot
    1  0.017  0.037  0.063  0.037  0.000  0.000  0.000  0.000  0.000  0.155
    2  0.017  0.037  0.063  0.037  0.000  0.000  0.000  0.000  0.000  0.155
tot    0.034  0.075  0.126  0.075  0.000  0.000  0.000  0.000  0.000  0.310

band     8 # energy   10.35166320 # occ.  0.00000000

ion      s     py     pz     px    dxy    dyz    dz2    dxz  x2-y2    tot
    1  0.164  0.048  0.017  0.048  0.000  0.000  0.000  0.000  0.000  0.278
    2  0.164  0.048  0.017  0.048  0.000  0.000  0.000  0.000  0.000  0.278
tot    0.328  0.097  0.035  0.097  0.000  0.000  0.000  0.000  0.000  0.556


 k-point   171 :    0.09615385 0.09615385 0.19230769     weight = 0.00416667

band     1 # energy   -5.88413760 # occ.  2.00000000

ion      s     py     pz     px    dxy    dyz    dz2    dxz  x2-y2    tot
    1  0.211  0.002  0.000  0.002  0.000  0.000  0.000  0.000  0.000  0.214
    2  0.211  0.002  0.000  0.002  0.000  0.000  0.000  0.000  0.000  0.214
tot    0.421  0.003  0.000  0.003  0.000  0.000  0.000  0.000  0.000  0.428

band     2 # energy    3.68707780 # occ.  2.00000000

ion      s     py     pz     px    dxy    dyz    dz2    dxz  x2-y2    tot
    1  0.086  0.059  0.025  0.059  0.000  0.000  0.000  0.000  0.000  0.229
    2  0.086  0.059  0.025  0.059  0.000  0.000  0.000  0.000  0.000  0.229
tot    0.172  0.118  0.050  0.118  0.000  0.000  0.000  0.000  0.000  0.458

band     3 # energy    4.55087918 # occ.  2.00000000

ion      s     py     pz     px    dxy    dyz    dz2    dxz  x2-y2    tot
    1  0.004  0.024  0.143  0.024  0.000  0.000  0.000  0.000  0.000  0.194
    2  0.004  0.024  0.143  0.024  0.000  0.000  0.000  0.000  0.000  0.194
tot    0.008  0.048  0.285  0.048  0.000  0.000  0.000  0.000  0.000  0.388

band     4 # energy    5.45228462 # occ.  2.00000000

ion      s     py     pz     px    dxy    dyz    dz2    dxz  x2-y2    tot
    1  0.000  0.109  0.000  0.109  0.000  0.000  0.000  0.000  0.000  0.217
    2  0.000  0.109  0.000  0.109  0.000  0.000  0.000  0.000  0.000  0.217
tot    0.000  0.217  0.000  0.217  0.000  0.000  0.000  0.000  0.000  0.435

band     5 # energy    8.49738618 # occ.  0.00000000

ion      s     py     pz     px    dxy    dyz    dz2    dxz  x2-y2    tot
    1  0.000  0.075  0.000  0.075  0.000  0.000  0.000  0.000  0.000  0.150
    2  0.000  0.075  0.000  0.075  0.000  0.000  0.000  0.000  0.000  0.150
tot    0.000  0.150  0.000  0.150  0.000  0.000  0.000  0.000  0.000  0.300

band     6 # energy    8.51352160 # occ.  0.00000000

ion      s     py     pz     px    dxy    dyz    dz2    dxz  x2-y2    tot
    1  0.106  0.000  0.103  0.000  0.000  0.000  0.000  0.000  0.000  0.210
    2  0.106  0.000  0.103  0.000  0.000  0.000  0.000  0.000  0.000  0.210
tot    0.212  0.000  0.206  0.000  0.000  0.000  0.000  0.000  0.000  0.419

band     7 # energy    8.66876251 # occ.  0.00000000

ion      s     py     pz     px    dxy    dyz    dz2    dxz  x2-y2    tot
    1  0.019  0.033  0.070  0.033  0.000  0.000  0.000  0.000  0.000  0.155
    2  0.019  0.033  0.070  0.033  0.000  0.000  0.000  0.000  0.000  0.155
tot    0.039  0.066  0.140  0.066  0.000  0.000  0.000  0.000  0.000  0.310

band     8 # energy   10.57822202 # occ.  0.00000000

ion      s     py     pz     px    dxy    dyz    dz2    dxz  x2-y2    tot
    1  0.148  0.052  0.015  0.052  0.000  0.000  0.000  0.000  0.000  0.268
    2  0.148  0.052  0.015  0.052  0.000  0.000  0.000  0.000  0.000  0.268
tot    0.296  0.105  0.030  0.105  0.000  0.000  0.000  0.000  0.000  0.535


 k-point   172 :    0.10576923 0.10576923 0.21153846     weight = 0.00416667

band     1 # energy   -5.81849426 # occ.  2.00000000

ion      s     py     pz     px    dxy    dyz    dz2    dxz  x2-y2    tot
    1  0.210  0.002  0.000  0.002  0.000  0.000  0.000  0.000  0.000  0.214
    2  0.210  0.002  0.000  0.002  0.000  0.000  0.000  0.000  0.000  0.214
tot    0.420  0.004  0.000  0.004  0.000  0.000  0.000  0.000  0.000  0.429

band     2 # energy    3.43528381 # occ.  2.00000000

ion      s     py     pz     px    dxy    dyz    dz2    dxz  x2-y2    tot
    1  0.092  0.056  0.027  0.056  0.000  0.000  0.000  0.000  0.000  0.230
    2  0.092  0.056  0.027  0.056  0.000  0.000  0.000  0.000  0.000  0.230
tot    0.185  0.111  0.053  0.111  0.000  0.000  0.000  0.000  0.000  0.460

band     3 # energy    4.37844877 # occ.  2.00000000

ion      s     py     pz     px    dxy    dyz    dz2    dxz  x2-y2    tot
    1  0.005  0.026  0.136  0.026  0.000  0.000  0.000  0.000  0.000  0.192
    2  0.005  0.026  0.136  0.026  0.000  0.000  0.000  0.000  0.000  0.192
tot    0.010  0.051  0.271  0.051  0.000  0.000  0.000  0.000  0.000  0.384

band     4 # energy    5.41426884 # occ.  2.00000000

ion      s     py     pz     px    dxy    dyz    dz2    dxz  x2-y2    tot
    1  0.000  0.109  0.000  0.109  0.000  0.000  0.000  0.000  0.000  0.218
    2  0.000  0.109  0.000  0.109  0.000  0.000  0.000  0.000  0.000  0.218
tot    0.000  0.218  0.000  0.218  0.000  0.000  0.000  0.000  0.000  0.436

band     5 # energy    8.53888632 # occ.  0.00000000

ion      s     py     pz     px    dxy    dyz    dz2    dxz  x2-y2    tot
    1  0.108  0.000  0.102  0.000  0.000  0.000  0.000  0.000  0.000  0.210
    2  0.108  0.000  0.102  0.000  0.000  0.000  0.000  0.000  0.000  0.210
tot    0.216  0.000  0.204  0.000  0.000  0.000  0.000  0.000  0.000  0.420

band     6 # energy    8.56597120 # occ.  0.00000000

ion      s     py     pz     px    dxy    dyz    dz2    dxz  x2-y2    tot
    1  0.000  0.075  0.000  0.075  0.000  0.000  0.000  0.000  0.000  0.150
    2  0.000  0.075  0.000  0.075  0.000  0.000  0.000  0.000  0.000  0.150
tot    0.000  0.150  0.000  0.150  0.000  0.000  0.000  0.000  0.000  0.300

band     7 # energy    8.75546418 # occ.  0.00000000

ion      s     py     pz     px    dxy    dyz    dz2    dxz  x2-y2    tot
    1  0.021  0.029  0.076  0.029  0.000  0.000  0.000  0.000  0.000  0.155
    2  0.021  0.029  0.076  0.029  0.000  0.000  0.000  0.000  0.000  0.155
tot    0.043  0.057  0.153  0.057  0.000  0.000  0.000  0.000  0.000  0.310

band     8 # energy   10.77386613 # occ.  0.00000000

ion      s     py     pz     px    dxy    dyz    dz2    dxz  x2-y2    tot
    1  0.132  0.055  0.012  0.055  0.000  0.000  0.000  0.000  0.000  0.254
    2  0.132  0.055  0.012  0.055  0.000  0.000  0.000  0.000  0.000  0.254
tot    0.264  0.110  0.024  0.110  0.000  0.000  0.000  0.000  0.000  0.508


 k-point   173 :    0.11538462 0.11538462 0.23076923     weight = 0.00416667

band     1 # energy   -5.74687397 # occ.  2.00000000

ion      s     py     pz     px    dxy    dyz    dz2    dxz  x2-y2    tot
    1  0.210  0.002  0.000  0.002  0.000  0.000  0.000  0.000  0.000  0.215
    2  0.210  0.002  0.000  0.002  0.000  0.000  0.000  0.000  0.000  0.215
tot    0.420  0.005  0.000  0.005  0.000  0.000  0.000  0.000  0.000  0.429

band     2 # energy    3.18551603 # occ.  2.00000000

ion      s     py     pz     px    dxy    dyz    dz2    dxz  x2-y2    tot
    1  0.098  0.052  0.028  0.052  0.000  0.000  0.000  0.000  0.000  0.231
    2  0.098  0.052  0.028  0.052  0.000  0.000  0.000  0.000  0.000  0.231
tot    0.197  0.105  0.056  0.105  0.000  0.000  0.000  0.000  0.000  0.462

band     3 # energy    4.20250794 # occ.  2.00000000

ion      s     py     pz     px    dxy    dyz    dz2    dxz  x2-y2    tot
    1  0.006  0.027  0.129  0.027  0.000  0.000  0.000  0.000  0.000  0.190
    2  0.006  0.027  0.129  0.027  0.000  0.000  0.000  0.000  0.000  0.190
tot    0.012  0.054  0.258  0.054  0.000  0.000  0.000  0.000  0.000  0.379

band     4 # energy    5.37130343 # occ.  2.00000000

ion      s     py     pz     px    dxy    dyz    dz2    dxz  x2-y2    tot
    1  0.000  0.109  0.000  0.109  0.000  0.000  0.000  0.000  0.000  0.218
    2  0.000  0.109  0.000  0.109  0.000  0.000  0.000  0.000  0.000  0.218
tot    0.000  0.218  0.000  0.218  0.000  0.000  0.000  0.000  0.000  0.436

band     5 # energy    8.56182313 # occ.  0.00000000

ion      s     py     pz     px    dxy    dyz    dz2    dxz  x2-y2    tot
    1  0.109  0.000  0.101  0.000  0.000  0.000  0.000  0.000  0.000  0.210
    2  0.109  0.000  0.101  0.000  0.000  0.000  0.000  0.000  0.000  0.210
tot    0.218  0.000  0.201  0.000  0.000  0.000  0.000  0.000  0.000  0.419

band     6 # energy    8.64105271 # occ.  0.00000000

ion      s     py     pz     px    dxy    dyz    dz2    dxz  x2-y2    tot
    1  0.000  0.075  0.000  0.075  0.000  0.000  0.000  0.000  0.000  0.150
    2  0.000  0.075  0.000  0.075  0.000  0.000  0.000  0.000  0.000  0.150
tot    0.000  0.150  0.000  0.150  0.000  0.000  0.000  0.000  0.000  0.300

band     7 # energy    8.84726351 # occ.  0.00000000

ion      s     py     pz     px    dxy    dyz    dz2    dxz  x2-y2    tot
    1  0.023  0.025  0.082  0.025  0.000  0.000  0.000  0.000  0.000  0.155
    2  0.023  0.025  0.082  0.025  0.000  0.000  0.000  0.000  0.000  0.155
tot    0.046  0.050  0.164  0.050  0.000  0.000  0.000  0.000  0.000  0.310

band     8 # energy   10.92971816 # occ.  0.00000000

ion      s     py     pz     px    dxy    dyz    dz2    dxz  x2-y2    tot
    1  0.116  0.056  0.009  0.056  0.000  0.000  0.000  0.000  0.000  0.237
    2  0.116  0.056  0.009  0.056  0.000  0.000  0.000  0.000  0.000  0.237
tot    0.233  0.112  0.017  0.112  0.000  0.000  0.000  0.000  0.000  0.474


 k-point   174 :    0.12500000 0.12500000 0.25000000     weight = 0.00416667

band     1 # energy   -5.66936103 # occ.  2.00000000

ion      s     py     pz     px    dxy    dyz    dz2    dxz  x2-y2    tot
    1  0.210  0.003  0.000  0.003  0.000  0.000  0.000  0.000  0.000  0.215
    2  0.210  0.003  0.000  0.003  0.000  0.000  0.000  0.000  0.000  0.215
tot    0.419  0.005  0.000  0.005  0.000  0.000  0.000  0.000  0.000  0.430

band     2 # energy    2.93868048 # occ.  2.00000000

ion      s     py     pz     px    dxy    dyz    dz2    dxz  x2-y2    tot
    1  0.104  0.049  0.029  0.049  0.000  0.000  0.000  0.000  0.000  0.232
    2  0.104  0.049  0.029  0.049  0.000  0.000  0.000  0.000  0.000  0.232
tot    0.208  0.099  0.058  0.099  0.000  0.000  0.000  0.000  0.000  0.464

band     3 # energy    4.02453019 # occ.  2.00000000

ion      s     py     pz     px    dxy    dyz    dz2    dxz  x2-y2    tot
    1  0.007  0.028  0.124  0.028  0.000  0.000  0.000  0.000  0.000  0.187
    2  0.007  0.028  0.124  0.028  0.000  0.000  0.000  0.000  0.000  0.187
tot    0.014  0.057  0.247  0.057  0.000  0.000  0.000  0.000  0.000  0.375

band     4 # energy    5.32328776 # occ.  2.00000000

ion      s     py     pz     px    dxy    dyz    dz2    dxz  x2-y2    tot
    1  0.000  0.109  0.000  0.109  0.000  0.000  0.000  0.000  0.000  0.218
    2  0.000  0.109  0.000  0.109  0.000  0.000  0.000  0.000  0.000  0.218
tot    0.000  0.218  0.000  0.218  0.000  0.000  0.000  0.000  0.000  0.437

band     5 # energy    8.58125553 # occ.  0.00000000

ion      s     py     pz     px    dxy    dyz    dz2    dxz  x2-y2    tot
    1  0.109  0.000  0.099  0.000  0.000  0.000  0.000  0.000  0.000  0.208
    2  0.109  0.000  0.099  0.000  0.000  0.000  0.000  0.000  0.000  0.208
tot    0.217  0.000  0.199  0.000  0.000  0.000  0.000  0.000  0.000  0.416

band     6 # energy    8.72259702 # occ.  0.00000000

ion      s     py     pz     px    dxy    dyz    dz2    dxz  x2-y2    tot
    1  0.000  0.075  0.000  0.075  0.000  0.000  0.000  0.000  0.000  0.150
    2  0.000  0.075  0.000  0.075  0.000  0.000  0.000  0.000  0.000  0.150
tot    0.000  0.150  0.000  0.150  0.000  0.000  0.000  0.000  0.000  0.300

band     7 # energy    8.94410376 # occ.  0.00000000

ion      s     py     pz     px    dxy    dyz    dz2    dxz  x2-y2    tot
    1  0.025  0.021  0.087  0.021  0.000  0.000  0.000  0.000  0.000  0.154
    2  0.025  0.021  0.087  0.021  0.000  0.000  0.000  0.000  0.000  0.154
tot    0.050  0.043  0.174  0.043  0.000  0.000  0.000  0.000  0.000  0.309

band     8 # energy   11.04236314 # occ.  0.00000000

ion      s     py     pz     px    dxy    dyz    dz2    dxz  x2-y2    tot
    1  0.102  0.055  0.005  0.055  0.000  0.000  0.000  0.000  0.000  0.218
    2  0.102  0.055  0.005  0.055  0.000  0.000  0.000  0.000  0.000  0.218
tot    0.204  0.111  0.011  0.111  0.000  0.000  0.000  0.000  0.000  0.437


 k-point   175 :    0.13461538 0.13461538 0.26923077     weight = 0.00416667

band     1 # energy   -5.58606360 # occ.  2.00000000

ion      s     py     pz     px    dxy    dyz    dz2    dxz  x2-y2    tot
    1  0.209  0.003  0.000  0.003  0.000  0.000  0.000  0.000  0.000  0.216
    2  0.209  0.003  0.000  0.003  0.000  0.000  0.000  0.000  0.000  0.216
tot    0.419  0.006  0.000  0.006  0.000  0.000  0.000  0.000  0.000  0.432

band     2 # energy    2.69542249 # occ.  2.00000000

ion      s     py     pz     px    dxy    dyz    dz2    dxz  x2-y2    tot
    1  0.109  0.047  0.030  0.047  0.000  0.000  0.000  0.000  0.000  0.232
    2  0.109  0.047  0.030  0.047  0.000  0.000  0.000  0.000  0.000  0.232
tot    0.218  0.093  0.060  0.093  0.000  0.000  0.000  0.000  0.000  0.465

band     3 # energy    3.84572272 # occ.  2.00000000

ion      s     py     pz     px    dxy    dyz    dz2    dxz  x2-y2    tot
    1  0.008  0.030  0.118  0.030  0.000  0.000  0.000  0.000  0.000  0.185
    2  0.008  0.030  0.118  0.030  0.000  0.000  0.000  0.000  0.000  0.185
tot    0.016  0.059  0.237  0.059  0.000  0.000  0.000  0.000  0.000  0.371

band     4 # energy    5.27012833 # occ.  2.00000000

ion      s     py     pz     px    dxy    dyz    dz2    dxz  x2-y2    tot
    1  0.000  0.109  0.000  0.109  0.000  0.000  0.000  0.000  0.000  0.218
    2  0.000  0.109  0.000  0.109  0.000  0.000  0.000  0.000  0.000  0.218
tot    0.000  0.218  0.000  0.218  0.000  0.000  0.000  0.000  0.000  0.437

band     5 # energy    8.59589788 # occ.  0.00000000

ion      s     py     pz     px    dxy    dyz    dz2    dxz  x2-y2    tot
    1  0.107  0.000  0.098  0.000  0.000  0.000  0.000  0.000  0.000  0.206
    2  0.107  0.000  0.098  0.000  0.000  0.000  0.000  0.000  0.000  0.206
tot    0.215  0.000  0.196  0.000  0.000  0.000  0.000  0.000  0.000  0.411

band     6 # energy    8.81060025 # occ.  0.00000000

ion      s     py     pz     px    dxy    dyz    dz2    dxz  x2-y2    tot
    1  0.000  0.075  0.000  0.075  0.000  0.000  0.000  0.000  0.000  0.150
    2  0.000  0.075  0.000  0.075  0.000  0.000  0.000  0.000  0.000  0.150
tot    0.000  0.150  0.000  0.150  0.000  0.000  0.000  0.000  0.000  0.299

band     7 # energy    9.04609374 # occ.  0.00000000

ion      s     py     pz     px    dxy    dyz    dz2    dxz  x2-y2    tot
    1  0.026  0.018  0.091  0.018  0.000  0.000  0.000  0.000  0.000  0.154
    2  0.026  0.018  0.091  0.018  0.000  0.000  0.000  0.000  0.000  0.154
tot    0.052  0.037  0.182  0.037  0.000  0.000  0.000  0.000  0.000  0.308

band     8 # energy   11.11535354 # occ.  0.00000000

ion      s     py     pz     px    dxy    dyz    dz2    dxz  x2-y2    tot
    1  0.090  0.054  0.003  0.054  0.000  0.000  0.000  0.000  0.000  0.201
    2  0.090  0.054  0.003  0.054  0.000  0.000  0.000  0.000  0.000  0.201
tot    0.180  0.108  0.005  0.108  0.000  0.000  0.000  0.000  0.000  0.401


 k-point   176 :    0.14423077 0.14423077 0.28846154     weight = 0.00416667

band     1 # energy   -5.49707801 # occ.  2.00000000

ion      s     py     pz     px    dxy    dyz    dz2    dxz  x2-y2    tot
    1  0.209  0.004  0.000  0.004  0.000  0.000  0.000  0.000  0.000  0.216
    2  0.209  0.004  0.000  0.004  0.000  0.000  0.000  0.000  0.000  0.216
tot    0.418  0.007  0.000  0.007  0.000  0.000  0.000  0.000  0.000  0.433

band     2 # energy    2.45626369 # occ.  2.00000000

ion      s     py     pz     px    dxy    dyz    dz2    dxz  x2-y2    tot
    1  0.114  0.044  0.031  0.044  0.000  0.000  0.000  0.000  0.000  0.233
    2  0.114  0.044  0.031  0.044  0.000  0.000  0.000  0.000  0.000  0.233
tot    0.228  0.088  0.062  0.088  0.000  0.000  0.000  0.000  0.000  0.466

band     3 # energy    3.66717581 # occ.  2.00000000

ion      s     py     pz     px    dxy    dyz    dz2    dxz  x2-y2    tot
    1  0.009  0.030  0.114  0.030  0.000  0.000  0.000  0.000  0.000  0.184
    2  0.009  0.030  0.114  0.030  0.000  0.000  0.000  0.000  0.000  0.184
tot    0.018  0.061  0.227  0.061  0.000  0.000  0.000  0.000  0.000  0.367

band     4 # energy    5.21183868 # occ.  2.00000000

ion      s     py     pz     px    dxy    dyz    dz2    dxz  x2-y2    tot
    1  0.000  0.109  0.000  0.109  0.000  0.000  0.000  0.000  0.000  0.218
    2  0.000  0.109  0.000  0.109  0.000  0.000  0.000  0.000  0.000  0.218
tot    0.000  0.218  0.000  0.218  0.000  0.000  0.000  0.000  0.000  0.436

band     5 # energy    8.60430574 # occ.  0.00000000

ion      s     py     pz     px    dxy    dyz    dz2    dxz  x2-y2    tot
    1  0.105  0.000  0.097  0.000  0.000  0.000  0.000  0.000  0.000  0.202
    2  0.105  0.000  0.097  0.000  0.000  0.000  0.000  0.000  0.000  0.202
tot    0.211  0.000  0.194  0.000  0.000  0.000  0.000  0.000  0.000  0.405

band     6 # energy    8.90509412 # occ.  0.00000000

ion      s     py     pz     px    dxy    dyz    dz2    dxz  x2-y2    tot
    1  0.000  0.075  0.000  0.075  0.000  0.000  0.000  0.000  0.000  0.150
    2  0.000  0.075  0.000  0.075  0.000  0.000  0.000  0.000  0.000  0.150
tot    0.000  0.150  0.000  0.150  0.000  0.000  0.000  0.000  0.000  0.299

band     7 # energy    9.15333375 # occ.  0.00000000

ion      s     py     pz     px    dxy    dyz    dz2    dxz  x2-y2    tot
    1  0.027  0.016  0.095  0.016  0.000  0.000  0.000  0.000  0.000  0.153
    2  0.027  0.016  0.095  0.016  0.000  0.000  0.000  0.000  0.000  0.153
tot    0.055  0.031  0.189  0.031  0.000  0.000  0.000  0.000  0.000  0.306

band     8 # energy   11.15754113 # occ.  0.00000000

ion      s     py     pz     px    dxy    dyz    dz2    dxz  x2-y2    tot
    1  0.081  0.052  0.001  0.052  0.000  0.000  0.000  0.000  0.000  0.186
    2  0.081  0.052  0.001  0.052  0.000  0.000  0.000  0.000  0.000  0.186
tot    0.162  0.104  0.002  0.104  0.000  0.000  0.000  0.000  0.000  0.372


 k-point   177 :    0.15384615 0.15384615 0.30769231     weight = 0.00416667

band     1 # energy   -5.40253197 # occ.  2.00000000

ion      s     py     pz     px    dxy    dyz    dz2    dxz  x2-y2    tot
    1  0.209  0.004  0.000  0.004  0.000  0.000  0.000  0.000  0.000  0.217
    2  0.209  0.004  0.000  0.004  0.000  0.000  0.000  0.000  0.000  0.217
tot    0.418  0.008  0.000  0.008  0.000  0.000  0.000  0.000  0.000  0.434

band     2 # energy    2.22160630 # occ.  2.00000000

ion      s     py     pz     px    dxy    dyz    dz2    dxz  x2-y2    tot
    1  0.119  0.042  0.032  0.042  0.000  0.000  0.000  0.000  0.000  0.234
    2  0.119  0.042  0.032  0.042  0.000  0.000  0.000  0.000  0.000  0.234
tot    0.238  0.083  0.064  0.083  0.000  0.000  0.000  0.000  0.000  0.467

band     3 # energy    3.48984994 # occ.  2.00000000

ion      s     py     pz     px    dxy    dyz    dz2    dxz  x2-y2    tot
    1  0.010  0.031  0.109  0.031  0.000  0.000  0.000  0.000  0.000  0.182
    2  0.010  0.031  0.109  0.031  0.000  0.000  0.000  0.000  0.000  0.182
tot    0.020  0.063  0.219  0.063  0.000  0.000  0.000  0.000  0.000  0.363

band     4 # energy    5.14848722 # occ.  2.00000000

ion      s     py     pz     px    dxy    dyz    dz2    dxz  x2-y2    tot
    1  0.000  0.109  0.000  0.109  0.000  0.000  0.000  0.000  0.000  0.218
    2  0.000  0.109  0.000  0.109  0.000  0.000  0.000  0.000  0.000  0.218
tot    0.000  0.218  0.000  0.218  0.000  0.000  0.000  0.000  0.000  0.436

band     5 # energy    8.60497105 # occ.  0.00000000

ion      s     py     pz     px    dxy    dyz    dz2    dxz  x2-y2    tot
    1  0.103  0.000  0.095  0.000  0.000  0.000  0.000  0.000  0.000  0.198
    2  0.103  0.000  0.095  0.000  0.000  0.000  0.000  0.000  0.000  0.198
tot    0.206  0.000  0.190  0.000  0.000  0.000  0.000  0.000  0.000  0.396

band     6 # energy    9.00596343 # occ.  0.00000000

ion      s     py     pz     px    dxy    dyz    dz2    dxz  x2-y2    tot
    1  0.000  0.075  0.000  0.075  0.000  0.000  0.000  0.000  0.000  0.150
    2  0.000  0.075  0.000  0.075  0.000  0.000  0.000  0.000  0.000  0.150
tot    0.000  0.150  0.000  0.150  0.000  0.000  0.000  0.000  0.000  0.299

band     7 # energy    9.26590729 # occ.  0.00000000

ion      s     py     pz     px    dxy    dyz    dz2    dxz  x2-y2    tot
    1  0.029  0.013  0.098  0.013  0.000  0.000  0.000  0.000  0.000  0.152
    2  0.029  0.013  0.098  0.013  0.000  0.000  0.000  0.000  0.000  0.152
tot    0.057  0.026  0.195  0.026  0.000  0.000  0.000  0.000  0.000  0.305

band     8 # energy   11.17977323 # occ.  0.00000000

ion      s     py     pz     px    dxy    dyz    dz2    dxz  x2-y2    tot
    1  0.074  0.050  0.000  0.050  0.000  0.000  0.000  0.000  0.000  0.175
    2  0.074  0.050  0.000  0.050  0.000  0.000  0.000  0.000  0.000  0.175
tot    0.149  0.101  0.000  0.101  0.000  0.000  0.000  0.000  0.000  0.351


 k-point   178 :    0.16346154 0.16346154 0.32692308     weight = 0.00416667

band     1 # energy   -5.30256871 # occ.  2.00000000

ion      s     py     pz     px    dxy    dyz    dz2    dxz  x2-y2    tot
    1  0.209  0.004  0.000  0.004  0.000  0.000  0.000  0.000  0.000  0.218
    2  0.209  0.004  0.000  0.004  0.000  0.000  0.000  0.000  0.000  0.218
tot    0.417  0.009  0.001  0.009  0.000  0.000  0.000  0.000  0.000  0.435

band     2 # energy    1.99178507 # occ.  2.00000000

ion      s     py     pz     px    dxy    dyz    dz2    dxz  x2-y2    tot
    1  0.123  0.039  0.033  0.039  0.000  0.000  0.000  0.000  0.000  0.234
    2  0.123  0.039  0.033  0.039  0.000  0.000  0.000  0.000  0.000  0.234
tot    0.246  0.078  0.065  0.078  0.000  0.000  0.000  0.000  0.000  0.468

band     3 # energy    3.31460293 # occ.  2.00000000

ion      s     py     pz     px    dxy    dyz    dz2    dxz  x2-y2    tot
    1  0.011  0.032  0.105  0.032  0.000  0.000  0.000  0.000  0.000  0.180
    2  0.011  0.032  0.105  0.032  0.000  0.000  0.000  0.000  0.000  0.180
tot    0.022  0.064  0.211  0.064  0.000  0.000  0.000  0.000  0.000  0.360

band     4 # energy    5.08026144 # occ.  2.00000000

ion      s     py     pz     px    dxy    dyz    dz2    dxz  x2-y2    tot
    1  0.000  0.109  0.000  0.109  0.000  0.000  0.000  0.000  0.000  0.218
    2  0.000  0.109  0.000  0.109  0.000  0.000  0.000  0.000  0.000  0.218
tot    0.000  0.218  0.000  0.218  0.000  0.000  0.000  0.000  0.000  0.435

band     5 # energy    8.59645266 # occ.  0.00000000

ion      s     py     pz     px    dxy    dyz    dz2    dxz  x2-y2    tot
    1  0.100  0.000  0.093  0.000  0.000  0.000  0.000  0.000  0.000  0.193
    2  0.100  0.000  0.093  0.000  0.000  0.000  0.000  0.000  0.000  0.193
tot    0.199  0.000  0.186  0.000  0.000  0.000  0.000  0.000  0.000  0.385

band     6 # energy    9.11323547 # occ.  0.00000000

ion      s     py     pz     px    dxy    dyz    dz2    dxz  x2-y2    tot
    1  0.000  0.075  0.000  0.075  0.000  0.000  0.000  0.000  0.000  0.149
    2  0.000  0.075  0.000  0.075  0.000  0.000  0.000  0.000  0.000  0.149
tot    0.000  0.149  0.000  0.149  0.000  0.000  0.000  0.000  0.000  0.299

band     7 # energy    9.38386086 # occ.  0.00000000

ion      s     py     pz     px    dxy    dyz    dz2    dxz  x2-y2    tot
    1  0.029  0.011  0.100  0.011  0.000  0.000  0.000  0.000  0.000  0.151
    2  0.029  0.011  0.100  0.011  0.000  0.000  0.000  0.000  0.000  0.151
tot    0.059  0.022  0.200  0.022  0.000  0.000  0.000  0.000  0.000  0.303

band     8 # energy   11.19207694 # occ.  0.00000000

ion      s     py     pz     px    dxy    dyz    dz2    dxz  x2-y2    tot
    1  0.070  0.049  0.000  0.049  0.000  0.000  0.000  0.000  0.000  0.168
    2  0.071  0.049  0.000  0.049  0.000  0.000  0.000  0.000  0.000  0.169
tot    0.141  0.098  0.000  0.098  0.000  0.000  0.000  0.000  0.000  0.337


 k-point   179 :    0.17307692 0.17307692 0.34615385     weight = 0.00416667

band     1 # energy   -5.19735468 # occ.  2.00000000

ion      s     py     pz     px    dxy    dyz    dz2    dxz  x2-y2    tot
    1  0.208  0.005  0.000  0.005  0.000  0.000  0.000  0.000  0.000  0.219
    2  0.208  0.005  0.000  0.005  0.000  0.000  0.000  0.000  0.000  0.219
tot    0.417  0.010  0.001  0.010  0.000  0.000  0.000  0.000  0.000  0.437

band     2 # energy    1.76706347 # occ.  2.00000000

ion      s     py     pz     px    dxy    dyz    dz2    dxz  x2-y2    tot
    1  0.127  0.037  0.033  0.037  0.000  0.000  0.000  0.000  0.000  0.235
    2  0.127  0.037  0.033  0.037  0.000  0.000  0.000  0.000  0.000  0.235
tot    0.255  0.074  0.067  0.074  0.000  0.000  0.000  0.000  0.000  0.469

band     3 # energy    3.14221117 # occ.  2.00000000

ion      s     py     pz     px    dxy    dyz    dz2    dxz  x2-y2    tot
    1  0.012  0.032  0.102  0.032  0.000  0.000  0.000  0.000  0.000  0.178
    2  0.012  0.032  0.102  0.032  0.000  0.000  0.000  0.000  0.000  0.178
tot    0.023  0.065  0.203  0.065  0.000  0.000  0.000  0.000  0.000  0.356

band     4 # energy    5.00742873 # occ.  2.00000000

ion      s     py     pz     px    dxy    dyz    dz2    dxz  x2-y2    tot
    1  0.000  0.109  0.000  0.109  0.000  0.000  0.000  0.000  0.000  0.217
    2  0.000  0.109  0.000  0.109  0.000  0.000  0.000  0.000  0.000  0.217
tot    0.000  0.217  0.000  0.217  0.000  0.000  0.000  0.000  0.000  0.434

band     5 # energy    8.57753013 # occ.  0.00000000

ion      s     py     pz     px    dxy    dyz    dz2    dxz  x2-y2    tot
    1  0.096  0.000  0.090  0.000  0.000  0.000  0.000  0.000  0.000  0.186
    2  0.096  0.000  0.090  0.000  0.000  0.000  0.000  0.000  0.000  0.186
tot    0.192  0.000  0.180  0.000  0.000  0.000  0.000  0.000  0.000  0.373

band     6 # energy    9.22688661 # occ.  0.00000000

ion      s     py     pz     px    dxy    dyz    dz2    dxz  x2-y2    tot
    1  0.000  0.075  0.000  0.075  0.000  0.000  0.000  0.000  0.000  0.149
    2  0.000  0.075  0.000  0.075  0.000  0.000  0.000  0.000  0.000  0.149
tot    0.000  0.149  0.000  0.149  0.000  0.000  0.000  0.000  0.000  0.299

band     7 # energy    9.50730787 # occ.  0.00000000

ion      s     py     pz     px    dxy    dyz    dz2    dxz  x2-y2    tot
    1  0.030  0.009  0.102  0.009  0.000  0.000  0.000  0.000  0.000  0.150
    2  0.030  0.009  0.102  0.009  0.000  0.000  0.000  0.000  0.000  0.150
tot    0.060  0.018  0.204  0.018  0.000  0.000  0.000  0.000  0.000  0.301

band     8 # energy   11.20271655 # occ.  0.00000000

ion      s     py     pz     px    dxy    dyz    dz2    dxz  x2-y2    tot
    1  0.069  0.048  0.001  0.048  0.000  0.000  0.000  0.000  0.000  0.165
    2  0.069  0.048  0.001  0.048  0.000  0.000  0.000  0.000  0.000  0.165
tot    0.137  0.096  0.002  0.096  0.000  0.000  0.000  0.000  0.000  0.331


 k-point   180 :    0.18269231 0.18269231 0.36538462     weight = 0.00416667

band     1 # energy   -5.08707187 # occ.  2.00000000

ion      s     py     pz     px    dxy    dyz    dz2    dxz  x2-y2    tot
    1  0.208  0.005  0.000  0.005  0.000  0.000  0.000  0.000  0.000  0.219
    2  0.208  0.005  0.000  0.005  0.000  0.000  0.000  0.000  0.000  0.219
tot    0.416  0.011  0.001  0.011  0.000  0.000  0.000  0.000  0.000  0.439

band     2 # energy    1.54768674 # occ.  2.00000000

ion      s     py     pz     px    dxy    dyz    dz2    dxz  x2-y2    tot
    1  0.131  0.035  0.034  0.035  0.000  0.000  0.000  0.000  0.000  0.235
    2  0.131  0.035  0.034  0.035  0.000  0.000  0.000  0.000  0.000  0.235
tot    0.263  0.069  0.068  0.069  0.000  0.000  0.000  0.000  0.000  0.470

band     3 # energy    2.97339711 # occ.  2.00000000

ion      s     py     pz     px    dxy    dyz    dz2    dxz  x2-y2    tot
    1  0.012  0.033  0.098  0.033  0.000  0.000  0.000  0.000  0.000  0.177
    2  0.012  0.033  0.098  0.033  0.000  0.000  0.000  0.000  0.000  0.177
tot    0.024  0.066  0.197  0.066  0.000  0.000  0.000  0.000  0.000  0.353

band     4 # energy    4.93036545 # occ.  2.00000000

ion      s     py     pz     px    dxy    dyz    dz2    dxz  x2-y2    tot
    1  0.000  0.108  0.000  0.108  0.000  0.000  0.000  0.000  0.000  0.216
    2  0.000  0.108  0.000  0.108  0.000  0.000  0.000  0.000  0.000  0.216
tot    0.000  0.216  0.000  0.216  0.000  0.000  0.000  0.000  0.000  0.433

band     5 # energy    8.54736210 # occ.  0.00000000

ion      s     py     pz     px    dxy    dyz    dz2    dxz  x2-y2    tot
    1  0.092  0.000  0.087  0.000  0.000  0.000  0.000  0.000  0.000  0.179
    2  0.092  0.000  0.087  0.000  0.000  0.000  0.000  0.000  0.000  0.179
tot    0.183  0.001  0.174  0.001  0.000  0.000  0.000  0.000  0.000  0.359

band     6 # energy    9.34695744 # occ.  0.00000000

ion      s     py     pz     px    dxy    dyz    dz2    dxz  x2-y2    tot
    1  0.000  0.075  0.000  0.075  0.000  0.000  0.000  0.000  0.000  0.149
    2  0.000  0.075  0.000  0.075  0.000  0.000  0.000  0.000  0.000  0.149
tot    0.000  0.149  0.000  0.149  0.000  0.000  0.000  0.000  0.000  0.298

band     7 # energy    9.63639352 # occ.  0.00000000

ion      s     py     pz     px    dxy    dyz    dz2    dxz  x2-y2    tot
    1  0.031  0.007  0.104  0.007  0.000  0.000  0.000  0.000  0.000  0.149
    2  0.031  0.007  0.104  0.007  0.000  0.000  0.000  0.000  0.000  0.149
tot    0.061  0.015  0.207  0.015  0.000  0.000  0.000  0.000  0.000  0.299

band     8 # energy   11.21796065 # occ.  0.00000000

ion      s     py     pz     px    dxy    dyz    dz2    dxz  x2-y2    tot
    1  0.068  0.047  0.003  0.047  0.000  0.000  0.000  0.000  0.000  0.165
    2  0.068  0.047  0.003  0.047  0.000  0.000  0.000  0.000  0.000  0.165
tot    0.136  0.094  0.006  0.094  0.000  0.000  0.000  0.000  0.000  0.330


 k-point   181 :    0.19230769 0.19230769 0.38461538     weight = 0.00416667

band     1 # energy   -4.97196292 # occ.  2.00000000

ion      s     py     pz     px    dxy    dyz    dz2    dxz  x2-y2    tot
    1  0.208  0.006  0.001  0.006  0.000  0.000  0.000  0.000  0.000  0.220
    2  0.208  0.006  0.001  0.006  0.000  0.000  0.000  0.000  0.000  0.220
tot    0.416  0.012  0.001  0.012  0.000  0.000  0.000  0.000  0.000  0.440

band     2 # energy    1.33382350 # occ.  2.00000000

ion      s     py     pz     px    dxy    dyz    dz2    dxz  x2-y2    tot
    1  0.135  0.033  0.035  0.033  0.000  0.000  0.000  0.000  0.000  0.235
    2  0.135  0.033  0.035  0.033  0.000  0.000  0.000  0.000  0.000  0.235
tot    0.271  0.065  0.069  0.065  0.000  0.000  0.000  0.000  0.000  0.471

band     3 # energy    2.80883054 # occ.  2.00000000

ion      s     py     pz     px    dxy    dyz    dz2    dxz  x2-y2    tot
    1  0.013  0.033  0.095  0.033  0.000  0.000  0.000  0.000  0.000  0.175
    2  0.013  0.033  0.095  0.033  0.000  0.000  0.000  0.000  0.000  0.175
tot    0.025  0.067  0.191  0.067  0.000  0.000  0.000  0.000  0.000  0.350

band     4 # energy    4.84941496 # occ.  2.00000000

ion      s     py     pz     px    dxy    dyz    dz2    dxz  x2-y2    tot
    1  0.000  0.108  0.000  0.108  0.000  0.000  0.000  0.000  0.000  0.216
    2  0.000  0.108  0.000  0.108  0.000  0.000  0.000  0.000  0.000  0.216
tot    0.000  0.216  0.000  0.216  0.000  0.000  0.000  0.000  0.000  0.431

band     5 # energy    8.50558623 # occ.  0.00000000

ion      s     py     pz     px    dxy    dyz    dz2    dxz  x2-y2    tot
    1  0.087  0.000  0.084  0.000  0.000  0.000  0.000  0.000  0.000  0.172
    2  0.087  0.000  0.084  0.000  0.000  0.000  0.000  0.000  0.000  0.172
tot    0.175  0.001  0.168  0.001  0.000  0.000  0.000  0.000  0.000  0.344

band     6 # energy    9.47328669 # occ.  0.00000000

ion      s     py     pz     px    dxy    dyz    dz2    dxz  x2-y2    tot
    1  0.000  0.075  0.000  0.075  0.000  0.000  0.000  0.000  0.000  0.149
    2  0.000  0.075  0.000  0.075  0.000  0.000  0.000  0.000  0.000  0.149
tot    0.000  0.149  0.000  0.149  0.000  0.000  0.000  0.000  0.000  0.298

band     7 # energy    9.77101989 # occ.  0.00000000

ion      s     py     pz     px    dxy    dyz    dz2    dxz  x2-y2    tot
    1  0.031  0.006  0.105  0.006  0.000  0.000  0.000  0.000  0.000  0.148
    2  0.031  0.006  0.105  0.006  0.000  0.000  0.000  0.000  0.000  0.148
tot    0.062  0.012  0.210  0.012  0.000  0.000  0.000  0.000  0.000  0.296

band     8 # energy   11.24204853 # occ.  0.00000000

ion      s     py     pz     px    dxy    dyz    dz2    dxz  x2-y2    tot
    1  0.068  0.046  0.005  0.046  0.000  0.000  0.000  0.000  0.000  0.167
    2  0.069  0.047  0.005  0.047  0.000  0.000  0.000  0.000  0.000  0.167
tot    0.137  0.093  0.011  0.093  0.000  0.000  0.000  0.000  0.000  0.334


 k-point   182 :    0.20192308 0.20192308 0.40384615     weight = 0.00416667

band     1 # energy   -4.85225359 # occ.  2.00000000

ion      s     py     pz     px    dxy    dyz    dz2    dxz  x2-y2    tot
    1  0.208  0.006  0.001  0.006  0.000  0.000  0.000  0.000  0.000  0.221
    2  0.208  0.006  0.001  0.006  0.000  0.000  0.000  0.000  0.000  0.221
tot    0.416  0.012  0.002  0.012  0.000  0.000  0.000  0.000  0.000  0.442

band     2 # energy    1.12564627 # occ.  2.00000000

ion      s     py     pz     px    dxy    dyz    dz2    dxz  x2-y2    tot
    1  0.139  0.031  0.035  0.031  0.000  0.000  0.000  0.000  0.000  0.236
    2  0.139  0.031  0.035  0.031  0.000  0.000  0.000  0.000  0.000  0.236
tot    0.278  0.061  0.071  0.061  0.000  0.000  0.000  0.000  0.000  0.471

band     3 # energy    2.64913209 # occ.  2.00000000

ion      s     py     pz     px    dxy    dyz    dz2    dxz  x2-y2    tot
    1  0.013  0.034  0.093  0.034  0.000  0.000  0.000  0.000  0.000  0.173
    2  0.013  0.034  0.093  0.034  0.000  0.000  0.000  0.000  0.000  0.173
tot    0.026  0.068  0.185  0.068  0.000  0.000  0.000  0.000  0.000  0.347

band     4 # energy    4.76506920 # occ.  2.00000000

ion      s     py     pz     px    dxy    dyz    dz2    dxz  x2-y2    tot
    1  0.000  0.107  0.000  0.107  0.000  0.000  0.000  0.000  0.000  0.215
    2  0.000  0.107  0.000  0.107  0.000  0.000  0.000  0.000  0.000  0.215
tot    0.000  0.215  0.000  0.215  0.000  0.000  0.000  0.000  0.000  0.429

band     5 # energy    8.45228358 # occ.  0.00000000

ion      s     py     pz     px    dxy    dyz    dz2    dxz  x2-y2    tot
    1  0.083  0.001  0.080  0.001  0.000  0.000  0.000  0.000  0.000  0.164
    2  0.083  0.001  0.080  0.001  0.000  0.000  0.000  0.000  0.000  0.164
tot    0.166  0.001  0.160  0.001  0.000  0.000  0.000  0.000  0.000  0.329

band     6 # energy    9.60599089 # occ.  0.00000000

ion      s     py     pz     px    dxy    dyz    dz2    dxz  x2-y2    tot
    1  0.000  0.075  0.000  0.075  0.000  0.000  0.000  0.000  0.000  0.149
    2  0.000  0.075  0.000  0.075  0.000  0.000  0.000  0.000  0.000  0.149
tot    0.000  0.149  0.000  0.149  0.000  0.000  0.000  0.000  0.000  0.298

band     7 # energy    9.91124883 # occ.  0.00000000

ion      s     py     pz     px    dxy    dyz    dz2    dxz  x2-y2    tot
    1  0.031  0.005  0.106  0.005  0.000  0.000  0.000  0.000  0.000  0.147
    2  0.031  0.005  0.106  0.005  0.000  0.000  0.000  0.000  0.000  0.147
tot    0.063  0.009  0.212  0.009  0.000  0.000  0.000  0.000  0.000  0.293

band     8 # energy   11.27760259 # occ.  0.00000000

ion      s     py     pz     px    dxy    dyz    dz2    dxz  x2-y2    tot
    1  0.069  0.046  0.008  0.046  0.000  0.000  0.000  0.000  0.000  0.170
    2  0.069  0.046  0.008  0.046  0.000  0.000  0.000  0.000  0.000  0.170
tot    0.139  0.093  0.016  0.092  0.000  0.000  0.000  0.000  0.000  0.340


 k-point   183 :    0.21153846 0.21153846 0.42307692     weight = 0.00416667

band     1 # energy   -4.72822529 # occ.  2.00000000

ion      s     py     pz     px    dxy    dyz    dz2    dxz  x2-y2    tot
    1  0.208  0.007  0.001  0.007  0.000  0.000  0.000  0.000  0.000  0.222
    2  0.208  0.007  0.001  0.007  0.000  0.000  0.000  0.000  0.000  0.222
tot    0.416  0.013  0.002  0.013  0.000  0.000  0.000  0.000  0.000  0.444

band     2 # energy    0.92328715 # occ.  2.00000000

ion      s     py     pz     px    dxy    dyz    dz2    dxz  x2-y2    tot
    1  0.143  0.029  0.036  0.029  0.000  0.000  0.000  0.000  0.000  0.236
    2  0.143  0.029  0.036  0.029  0.000  0.000  0.000  0.000  0.000  0.236
tot    0.285  0.057  0.072  0.057  0.000  0.000  0.000  0.000  0.000  0.472

band     3 # energy    2.49492755 # occ.  2.00000000

ion      s     py     pz     px    dxy    dyz    dz2    dxz  x2-y2    tot
    1  0.013  0.034  0.090  0.034  0.000  0.000  0.000  0.000  0.000  0.172
    2  0.013  0.034  0.090  0.034  0.000  0.000  0.000  0.000  0.000  0.172
tot    0.027  0.069  0.180  0.069  0.000  0.000  0.000  0.000  0.000  0.344

band     4 # energy    4.67785575 # occ.  2.00000000

ion      s     py     pz     px    dxy    dyz    dz2    dxz  x2-y2    tot
    1  0.000  0.107  0.000  0.107  0.000  0.000  0.000  0.000  0.000  0.214
    2  0.000  0.107  0.000  0.107  0.000  0.000  0.000  0.000  0.000  0.214
tot    0.000  0.214  0.000  0.214  0.000  0.000  0.000  0.000  0.000  0.427

band     5 # energy    8.38839270 # occ.  0.00000000

ion      s     py     pz     px    dxy    dyz    dz2    dxz  x2-y2    tot
    1  0.079  0.001  0.076  0.001  0.000  0.000  0.000  0.000  0.000  0.157
    2  0.079  0.001  0.076  0.001  0.000  0.000  0.000  0.000  0.000  0.157
tot    0.158  0.001  0.153  0.001  0.000  0.000  0.000  0.000  0.000  0.314

band     6 # energy    9.74486789 # occ.  0.00000000

ion      s     py     pz     px    dxy    dyz    dz2    dxz  x2-y2    tot
    1  0.000  0.075  0.000  0.075  0.000  0.000  0.000  0.000  0.000  0.149
    2  0.000  0.075  0.000  0.075  0.000  0.000  0.000  0.000  0.000  0.149
tot    0.000  0.149  0.000  0.149  0.000  0.000  0.000  0.000  0.000  0.298

band     7 # energy   10.05718454 # occ.  0.00000000

ion      s     py     pz     px    dxy    dyz    dz2    dxz  x2-y2    tot
    1  0.031  0.004  0.106  0.004  0.000  0.000  0.000  0.000  0.000  0.145
    2  0.031  0.004  0.106  0.004  0.000  0.000  0.000  0.000  0.000  0.145
tot    0.063  0.007  0.213  0.007  0.000  0.000  0.000  0.000  0.000  0.290

band     8 # energy   11.32642358 # occ.  0.00000000

ion      s     py     pz     px    dxy    dyz    dz2    dxz  x2-y2    tot
    1  0.071  0.046  0.011  0.046  0.000  0.000  0.000  0.000  0.000  0.174
    2  0.071  0.047  0.011  0.046  0.000  0.000  0.000  0.000  0.000  0.174
tot    0.141  0.093  0.022  0.092  0.000  0.000  0.000  0.000  0.000  0.348


 k-point   184 :    0.22115385 0.22115385 0.44230769     weight = 0.00416667

band     1 # energy   -4.60020502 # occ.  2.00000000

ion      s     py     pz     px    dxy    dyz    dz2    dxz  x2-y2    tot
    1  0.208  0.007  0.001  0.007  0.000  0.000  0.000  0.000  0.000  0.223
    2  0.208  0.007  0.001  0.007  0.000  0.000  0.000  0.000  0.000  0.223
tot    0.416  0.014  0.002  0.014  0.000  0.000  0.000  0.000  0.000  0.447

band     2 # energy    0.72684349 # occ.  2.00000000

ion      s     py     pz     px    dxy    dyz    dz2    dxz  x2-y2    tot
    1  0.146  0.027  0.037  0.027  0.000  0.000  0.000  0.000  0.000  0.236
    2  0.146  0.027  0.037  0.027  0.000  0.000  0.000  0.000  0.000  0.236
tot    0.292  0.054  0.073  0.054  0.000  0.000  0.000  0.000  0.000  0.472

band     3 # energy    2.34680237 # occ.  2.00000000

ion      s     py     pz     px    dxy    dyz    dz2    dxz  x2-y2    tot
    1  0.013  0.035  0.087  0.035  0.000  0.000  0.000  0.000  0.000  0.170
    2  0.013  0.035  0.087  0.035  0.000  0.000  0.000  0.000  0.000  0.170
tot    0.027  0.069  0.175  0.069  0.000  0.000  0.000  0.000  0.000  0.340

band     4 # energy    4.58830093 # occ.  2.00000000

ion      s     py     pz     px    dxy    dyz    dz2    dxz  x2-y2    tot
    1  0.000  0.106  0.000  0.106  0.000  0.000  0.000  0.000  0.000  0.213
    2  0.000  0.106  0.000  0.106  0.000  0.000  0.000  0.000  0.000  0.213
tot    0.000  0.213  0.000  0.213  0.000  0.000  0.000  0.000  0.000  0.425

band     5 # energy    8.31492332 # occ.  0.00000000

ion      s     py     pz     px    dxy    dyz    dz2    dxz  x2-y2    tot
    1  0.075  0.001  0.073  0.001  0.000  0.000  0.000  0.000  0.000  0.150
    2  0.075  0.001  0.073  0.001  0.000  0.000  0.000  0.000  0.000  0.150
tot    0.150  0.002  0.145  0.002  0.000  0.000  0.000  0.000  0.000  0.299

band     6 # energy    9.88996177 # occ.  0.00000000

ion      s     py     pz     px    dxy    dyz    dz2    dxz  x2-y2    tot
    1  0.000  0.075  0.000  0.075  0.000  0.000  0.000  0.000  0.000  0.149
    2  0.000  0.075  0.000  0.075  0.000  0.000  0.000  0.000  0.000  0.149
tot    0.000  0.149  0.000  0.149  0.000  0.000  0.000  0.000  0.000  0.298

band     7 # energy   10.20876133 # occ.  0.00000000

ion      s     py     pz     px    dxy    dyz    dz2    dxz  x2-y2    tot
    1  0.031  0.003  0.106  0.003  0.000  0.000  0.000  0.000  0.000  0.143
    2  0.031  0.003  0.106  0.003  0.000  0.000  0.000  0.000  0.000  0.143
tot    0.063  0.005  0.213  0.005  0.000  0.000  0.000  0.000  0.000  0.287

band     8 # energy   11.38861818 # occ.  0.00000000

ion      s     py     pz     px    dxy    dyz    dz2    dxz  x2-y2    tot
    1  0.072  0.047  0.014  0.046  0.000  0.000  0.000  0.000  0.000  0.179
    2  0.072  0.047  0.014  0.046  0.000  0.000  0.000  0.000  0.000  0.179
tot    0.143  0.093  0.028  0.093  0.000  0.000  0.000  0.000  0.000  0.357


 k-point   185 :    0.23076923 0.23076923 0.46153846     weight = 0.00416667

band     1 # energy   -4.46856387 # occ.  2.00000000

ion      s     py     pz     px    dxy    dyz    dz2    dxz  x2-y2    tot
    1  0.208  0.007  0.001  0.007  0.000  0.000  0.000  0.000  0.000  0.224
    2  0.208  0.007  0.001  0.007  0.000  0.000  0.000  0.000  0.000  0.224
tot    0.416  0.015  0.003  0.015  0.000  0.000  0.000  0.000  0.000  0.449

band     2 # energy    0.53646661 # occ.  2.00000000

ion      s     py     pz     px    dxy    dyz    dz2    dxz  x2-y2    tot
    1  0.149  0.025  0.037  0.025  0.000  0.000  0.000  0.000  0.000  0.236
    2  0.149  0.025  0.037  0.025  0.000  0.000  0.000  0.000  0.000  0.236
tot    0.298  0.050  0.074  0.050  0.000  0.000  0.000  0.000  0.000  0.473

band     3 # energy    2.20537380 # occ.  2.00000000

ion      s     py     pz     px    dxy    dyz    dz2    dxz  x2-y2    tot
    1  0.013  0.035  0.085  0.035  0.000  0.000  0.000  0.000  0.000  0.169
    2  0.013  0.035  0.085  0.035  0.000  0.000  0.000  0.000  0.000  0.169
tot    0.027  0.070  0.170  0.070  0.000  0.000  0.000  0.000  0.000  0.337

band     4 # energy    4.49695872 # occ.  2.00000000

ion      s     py     pz     px    dxy    dyz    dz2    dxz  x2-y2    tot
    1  0.000  0.106  0.000  0.106  0.000  0.000  0.000  0.000  0.000  0.211
    2  0.000  0.106  0.000  0.106  0.000  0.000  0.000  0.000  0.000  0.211
tot    0.000  0.211  0.000  0.211  0.000  0.000  0.000  0.000  0.000  0.423

band     5 # energy    8.23326086 # occ.  0.00000000

ion      s     py     pz     px    dxy    dyz    dz2    dxz  x2-y2    tot
    1  0.072  0.001  0.069  0.001  0.000  0.000  0.000  0.000  0.000  0.143
    2  0.072  0.001  0.069  0.001  0.000  0.000  0.000  0.000  0.000  0.143
tot    0.143  0.002  0.138  0.002  0.000  0.000  0.000  0.000  0.000  0.286

band     6 # energy   10.04123023 # occ.  0.00000000

ion      s     py     pz     px    dxy    dyz    dz2    dxz  x2-y2    tot
    1  0.000  0.075  0.000  0.075  0.000  0.000  0.000  0.000  0.000  0.149
    2  0.000  0.075  0.000  0.075  0.000  0.000  0.000  0.000  0.000  0.149
tot    0.000  0.149  0.000  0.149  0.000  0.000  0.000  0.000  0.000  0.298

band     7 # energy   10.36594160 # occ.  0.00000000

ion      s     py     pz     px    dxy    dyz    dz2    dxz  x2-y2    tot
    1  0.031  0.002  0.106  0.002  0.000  0.000  0.000  0.000  0.000  0.141
    2  0.031  0.002  0.106  0.002  0.000  0.000  0.000  0.000  0.000  0.141
tot    0.063  0.004  0.212  0.004  0.000  0.000  0.000  0.000  0.000  0.283

band     8 # energy   11.46438154 # occ.  0.00000000

ion      s     py     pz     px    dxy    dyz    dz2    dxz  x2-y2    tot
    1  0.072  0.047  0.017  0.047  0.000  0.000  0.000  0.000  0.000  0.183
    2  0.073  0.047  0.017  0.047  0.000  0.000  0.000  0.000  0.000  0.183
tot    0.145  0.093  0.034  0.094  0.000  0.000  0.000  0.000  0.000  0.367


 k-point   186 :    0.24038462 0.24038462 0.48076923     weight = 0.00416667

band     1 # energy   -4.33373541 # occ.  2.00000000

ion      s     py     pz     px    dxy    dyz    dz2    dxz  x2-y2    tot
    1  0.208  0.008  0.002  0.008  0.000  0.000  0.000  0.000  0.000  0.226
    2  0.208  0.008  0.002  0.008  0.000  0.000  0.000  0.000  0.000  0.226
tot    0.416  0.016  0.004  0.016  0.000  0.000  0.000  0.000  0.000  0.451

band     2 # energy    0.35222327 # occ.  2.00000000

ion      s     py     pz     px    dxy    dyz    dz2    dxz  x2-y2    tot
    1  0.152  0.023  0.038  0.023  0.000  0.000  0.000  0.000  0.000  0.237
    2  0.152  0.023  0.038  0.023  0.000  0.000  0.000  0.000  0.000  0.237
tot    0.305  0.047  0.075  0.047  0.000  0.000  0.000  0.000  0.000  0.473

band     3 # energy    2.07125407 # occ.  2.00000000

ion      s     py     pz     px    dxy    dyz    dz2    dxz  x2-y2    tot
    1  0.013  0.036  0.083  0.036  0.000  0.000  0.000  0.000  0.000  0.167
    2  0.013  0.036  0.083  0.036  0.000  0.000  0.000  0.000  0.000  0.167
tot    0.026  0.071  0.165  0.071  0.000  0.000  0.000  0.000  0.000  0.334

band     4 # energy    4.40437989 # occ.  2.00000000

ion      s     py     pz     px    dxy    dyz    dz2    dxz  x2-y2    tot
    1  0.000  0.105  0.000  0.105  0.000  0.000  0.000  0.000  0.000  0.210
    2  0.000  0.105  0.000  0.105  0.000  0.000  0.000  0.000  0.000  0.210
tot    0.000  0.210  0.000  0.210  0.000  0.000  0.000  0.000  0.000  0.421

band     5 # energy    8.14491478 # occ.  0.00000000

ion      s     py     pz     px    dxy    dyz    dz2    dxz  x2-y2    tot
    1  0.069  0.001  0.066  0.001  0.000  0.000  0.000  0.000  0.000  0.137
    2  0.069  0.001  0.066  0.001  0.000  0.000  0.000  0.000  0.000  0.137
tot    0.137  0.002  0.131  0.002  0.000  0.000  0.000  0.000  0.000  0.273

band     6 # energy   10.19862323 # occ.  0.00000000

ion      s     py     pz     px    dxy    dyz    dz2    dxz  x2-y2    tot
    1  0.000  0.075  0.000  0.075  0.000  0.000  0.000  0.000  0.000  0.149
    2  0.000  0.075  0.000  0.075  0.000  0.000  0.000  0.000  0.000  0.149
tot    0.000  0.149  0.000  0.149  0.000  0.000  0.000  0.000  0.000  0.298

band     7 # energy   10.52861658 # occ.  0.00000000

ion      s     py     pz     px    dxy    dyz    dz2    dxz  x2-y2    tot
    1  0.031  0.001  0.106  0.001  0.000  0.000  0.000  0.000  0.000  0.139
    2  0.031  0.001  0.106  0.001  0.000  0.000  0.000  0.000  0.000  0.139
tot    0.062  0.003  0.211  0.003  0.000  0.000  0.000  0.000  0.000  0.278

band     8 # energy   11.55400442 # occ.  0.00000000

ion      s     py     pz     px    dxy    dyz    dz2    dxz  x2-y2    tot
    1  0.073  0.047  0.020  0.048  0.000  0.000  0.000  0.000  0.000  0.189
    2  0.073  0.047  0.020  0.047  0.000  0.000  0.000  0.000  0.000  0.187
tot    0.146  0.094  0.040  0.095  0.000  0.000  0.000  0.000  0.000  0.375


 k-point   187 :    0.25000000 0.25000000 0.50000000     weight = 0.00416667

band     1 # energy   -4.19623295 # occ.  2.00000000

ion      s     py     pz     px    dxy    dyz    dz2    dxz  x2-y2    tot
    1  0.208  0.008  0.002  0.008  0.000  0.000  0.000  0.000  0.000  0.227
    2  0.208  0.008  0.002  0.008  0.000  0.000  0.000  0.000  0.000  0.227
tot    0.417  0.016  0.005  0.016  0.000  0.000  0.000  0.000  0.000  0.454

band     2 # energy    0.17418882 # occ.  2.00000000

ion      s     py     pz     px    dxy    dyz    dz2    dxz  x2-y2    tot
    1  0.155  0.022  0.038  0.022  0.000  0.000  0.000  0.000  0.000  0.237
    2  0.155  0.022  0.038  0.022  0.000  0.000  0.000  0.000  0.000  0.237
tot    0.311  0.043  0.076  0.043  0.000  0.000  0.000  0.000  0.000  0.473

band     3 # energy    1.94508749 # occ.  2.00000000

ion      s     py     pz     px    dxy    dyz    dz2    dxz  x2-y2    tot
    1  0.013  0.036  0.080  0.036  0.000  0.000  0.000  0.000  0.000  0.166
    2  0.013  0.036  0.080  0.036  0.000  0.000  0.000  0.000  0.000  0.166
tot    0.026  0.072  0.161  0.072  0.000  0.000  0.000  0.000  0.000  0.331

band     4 # energy    4.31108066 # occ.  2.00000000

ion      s     py     pz     px    dxy    dyz    dz2    dxz  x2-y2    tot
    1  0.000  0.105  0.000  0.105  0.000  0.000  0.000  0.000  0.000  0.209
    2  0.000  0.105  0.000  0.105  0.000  0.000  0.000  0.000  0.000  0.209
tot    0.000  0.209  0.000  0.209  0.000  0.000  0.000  0.000  0.000  0.418

band     5 # energy    8.05137248 # occ.  0.00000000

ion      s     py     pz     px    dxy    dyz    dz2    dxz  x2-y2    tot
    1  0.066  0.001  0.062  0.001  0.000  0.000  0.000  0.000  0.000  0.131
    2  0.066  0.001  0.062  0.001  0.000  0.000  0.000  0.000  0.000  0.131
tot    0.132  0.003  0.125  0.003  0.000  0.000  0.000  0.000  0.000  0.262

band     6 # energy   10.36203733 # occ.  0.00000000

ion      s     py     pz     px    dxy    dyz    dz2    dxz  x2-y2    tot
    1  0.000  0.075  0.000  0.075  0.000  0.000  0.000  0.000  0.000  0.149
    2  0.000  0.075  0.000  0.075  0.000  0.000  0.000  0.000  0.000  0.149
tot    0.000  0.149  0.000  0.149  0.000  0.000  0.000  0.000  0.000  0.298

band     7 # energy   10.69655992 # occ.  0.00000000

ion      s     py     pz     px    dxy    dyz    dz2    dxz  x2-y2    tot
    1  0.030  0.001  0.104  0.001  0.000  0.000  0.000  0.000  0.000  0.136
    2  0.030  0.001  0.104  0.001  0.000  0.000  0.000  0.000  0.000  0.136
tot    0.061  0.002  0.209  0.002  0.000  0.000  0.000  0.000  0.000  0.273

band     8 # energy   11.65400543 # occ.  0.00000000

ion      s     py     pz     px    dxy    dyz    dz2    dxz  x2-y2    tot
    1  0.073  0.048  0.023  0.048  0.000  0.000  0.000  0.000  0.000  0.192
    2  0.073  0.048  0.023  0.048  0.000  0.000  0.000  0.000  0.000  0.192
tot    0.147  0.097  0.046  0.095  0.000  0.000  0.000  0.000  0.000  0.384


 k-point   188 :    0.25961538 0.25961538 0.51923077     weight = 0.00416667

band     1 # energy   -4.05661042 # occ.  2.00000000

ion      s     py     pz     px    dxy    dyz    dz2    dxz  x2-y2    tot
    1  0.209  0.008  0.003  0.008  0.000  0.000  0.000  0.000  0.000  0.228
    2  0.209  0.008  0.003  0.008  0.000  0.000  0.000  0.000  0.000  0.228
tot    0.418  0.017  0.006  0.017  0.000  0.000  0.000  0.000  0.000  0.457

band     2 # energy    0.00244946 # occ.  2.00000000

ion      s     py     pz     px    dxy    dyz    dz2    dxz  x2-y2    tot
    1  0.158  0.020  0.039  0.020  0.000  0.000  0.000  0.000  0.000  0.237
    2  0.158  0.020  0.039  0.020  0.000  0.000  0.000  0.000  0.000  0.237
tot    0.316  0.040  0.077  0.040  0.000  0.000  0.000  0.000  0.000  0.474

band     3 # energy    1.82756180 # occ.  2.00000000

ion      s     py     pz     px    dxy    dyz    dz2    dxz  x2-y2    tot
    1  0.012  0.037  0.078  0.037  0.000  0.000  0.000  0.000  0.000  0.164
    2  0.012  0.037  0.078  0.037  0.000  0.000  0.000  0.000  0.000  0.164
tot    0.025  0.074  0.156  0.074  0.000  0.000  0.000  0.000  0.000  0.328

band     4 # energy    4.21766062 # occ.  2.00000000

ion      s     py     pz     px    dxy    dyz    dz2    dxz  x2-y2    tot
    1  0.000  0.104  0.000  0.104  0.000  0.000  0.000  0.000  0.000  0.208
    2  0.000  0.104  0.000  0.104  0.000  0.000  0.000  0.000  0.000  0.208
tot    0.000  0.208  0.000  0.208  0.000  0.000  0.000  0.000  0.000  0.416

band     5 # energy    7.95414584 # occ.  0.00000000

ion      s     py     pz     px    dxy    dyz    dz2    dxz  x2-y2    tot
    1  0.064  0.001  0.059  0.001  0.000  0.000  0.000  0.000  0.000  0.126
    2  0.064  0.001  0.059  0.001  0.000  0.000  0.000  0.000  0.000  0.126
tot    0.127  0.003  0.119  0.003  0.000  0.000  0.000  0.000  0.000  0.251

band     6 # energy   10.53151734 # occ.  0.00000000

ion      s     py     pz     px    dxy    dyz    dz2    dxz  x2-y2    tot
    1  0.000  0.075  0.000  0.075  0.000  0.000  0.000  0.000  0.000  0.149
    2  0.000  0.075  0.000  0.075  0.000  0.000  0.000  0.000  0.000  0.149
tot    0.000  0.149  0.000  0.149  0.000  0.000  0.000  0.000  0.000  0.299

band     7 # energy   10.86955277 # occ.  0.00000000

ion      s     py     pz     px    dxy    dyz    dz2    dxz  x2-y2    tot
    1  0.030  0.000  0.103  0.000  0.000  0.000  0.000  0.000  0.000  0.133
    2  0.030  0.000  0.103  0.000  0.000  0.000  0.000  0.000  0.000  0.133
tot    0.059  0.001  0.206  0.001  0.000  0.000  0.000  0.000  0.000  0.267

band     8 # energy   11.76581576 # occ.  0.00000000

ion      s     py     pz     px    dxy    dyz    dz2    dxz  x2-y2    tot
    1  0.073  0.049  0.025  0.049  0.000  0.000  0.000  0.000  0.000  0.196
    2  0.073  0.049  0.025  0.049  0.000  0.000  0.000  0.000  0.000  0.197
tot    0.147  0.098  0.050  0.098  0.000  0.000  0.000  0.000  0.000  0.393


 k-point   189 :    0.26923077 0.26923077 0.53846154     weight = 0.00416667

band     1 # energy   -3.91553240 # occ.  2.00000000

ion      s     py     pz     px    dxy    dyz    dz2    dxz  x2-y2    tot
    1  0.209  0.009  0.003  0.009  0.000  0.000  0.000  0.000  0.000  0.230
    2  0.209  0.009  0.003  0.009  0.000  0.000  0.000  0.000  0.000  0.230
tot    0.418  0.017  0.007  0.017  0.000  0.000  0.000  0.000  0.000  0.460

band     2 # energy   -0.16295642 # occ.  2.00000000

ion      s     py     pz     px    dxy    dyz    dz2    dxz  x2-y2    tot
    1  0.161  0.018  0.039  0.018  0.000  0.000  0.000  0.000  0.000  0.237
    2  0.161  0.018  0.039  0.018  0.000  0.000  0.000  0.000  0.000  0.237
tot    0.322  0.037  0.078  0.037  0.000  0.000  0.000  0.000  0.000  0.474

band     3 # energy    1.71940465 # occ.  2.00000000

ion      s     py     pz     px    dxy    dyz    dz2    dxz  x2-y2    tot
    1  0.012  0.038  0.076  0.038  0.000  0.000  0.000  0.000  0.000  0.163
    2  0.012  0.038  0.076  0.038  0.000  0.000  0.000  0.000  0.000  0.163
tot    0.023  0.075  0.152  0.075  0.000  0.000  0.000  0.000  0.000  0.325

band     4 # energy    4.12456445 # occ.  2.00000000

ion      s     py     pz     px    dxy    dyz    dz2    dxz  x2-y2    tot
    1  0.000  0.103  0.000  0.103  0.000  0.000  0.000  0.000  0.000  0.207
    2  0.000  0.103  0.000  0.103  0.000  0.000  0.000  0.000  0.000  0.207
tot    0.000  0.207  0.000  0.207  0.000  0.000  0.000  0.000  0.000  0.414

band     5 # energy    7.85451072 # occ.  0.00000000

ion      s     py     pz     px    dxy    dyz    dz2    dxz  x2-y2    tot
    1  0.062  0.001  0.057  0.001  0.000  0.000  0.000  0.000  0.000  0.121
    2  0.062  0.001  0.057  0.001  0.000  0.000  0.000  0.000  0.000  0.121
tot    0.123  0.003  0.113  0.003  0.000  0.000  0.000  0.000  0.000  0.242

band     6 # energy   10.70691888 # occ.  0.00000000

ion      s     py     pz     px    dxy    dyz    dz2    dxz  x2-y2    tot
    1  0.000  0.075  0.000  0.075  0.000  0.000  0.000  0.000  0.000  0.149
    2  0.000  0.075  0.000  0.075  0.000  0.000  0.000  0.000  0.000  0.149
tot    0.000  0.149  0.000  0.149  0.000  0.000  0.000  0.000  0.000  0.299

band     7 # energy   11.04690615 # occ.  0.00000000

ion      s     py     pz     px    dxy    dyz    dz2    dxz  x2-y2    tot
    1  0.029  0.000  0.101  0.000  0.000  0.000  0.000  0.000  0.000  0.129
    2  0.029  0.000  0.101  0.000  0.000  0.000  0.000  0.000  0.000  0.129
tot    0.057  0.000  0.201  0.000  0.000  0.000  0.000  0.000  0.000  0.259

band     8 # energy   11.88831445 # occ.  0.00000000

ion      s     py     pz     px    dxy    dyz    dz2    dxz  x2-y2    tot
    1  0.073  0.050  0.027  0.051  0.000  0.000  0.000  0.000  0.000  0.201
    2  0.073  0.050  0.027  0.051  0.000  0.000  0.000  0.000  0.000  0.202
tot    0.146  0.100  0.054  0.102  0.000  0.000  0.000  0.000  0.000  0.402


 k-point   190 :    0.27884615 0.27884615 0.55769231     weight = 0.00416667

band     1 # energy   -3.77374292 # occ.  2.00000000

ion      s     py     pz     px    dxy    dyz    dz2    dxz  x2-y2    tot
    1  0.210  0.009  0.004  0.009  0.000  0.000  0.000  0.000  0.000  0.231
    2  0.210  0.009  0.004  0.009  0.000  0.000  0.000  0.000  0.000  0.231
tot    0.420  0.018  0.008  0.018  0.000  0.000  0.000  0.000  0.000  0.463

band     2 # energy   -0.32194798 # occ.  2.00000000

ion      s     py     pz     px    dxy    dyz    dz2    dxz  x2-y2    tot
    1  0.164  0.017  0.039  0.017  0.000  0.000  0.000  0.000  0.000  0.237
    2  0.164  0.017  0.039  0.017  0.000  0.000  0.000  0.000  0.000  0.237
tot    0.327  0.034  0.079  0.034  0.000  0.000  0.000  0.000  0.000  0.474

band     3 # energy    1.62142033 # occ.  2.00000000

ion      s     py     pz     px    dxy    dyz    dz2    dxz  x2-y2    tot
    1  0.011  0.038  0.074  0.038  0.000  0.000  0.000  0.000  0.000  0.161
    2  0.011  0.038  0.074  0.038  0.000  0.000  0.000  0.000  0.000  0.161
tot    0.021  0.077  0.147  0.077  0.000  0.000  0.000  0.000  0.000  0.322

band     4 # energy    4.03228300 # occ.  2.00000000

ion      s     py     pz     px    dxy    dyz    dz2    dxz  x2-y2    tot
    1  0.000  0.103  0.000  0.103  0.000  0.000  0.000  0.000  0.000  0.206
    2  0.000  0.103  0.000  0.103  0.000  0.000  0.000  0.000  0.000  0.206
tot    0.000  0.206  0.000  0.206  0.000  0.000  0.000  0.000  0.000  0.412

band     5 # energy    7.75367797 # occ.  0.00000000

ion      s     py     pz     px    dxy    dyz    dz2    dxz  x2-y2    tot
    1  0.060  0.001  0.054  0.001  0.000  0.000  0.000  0.000  0.000  0.117
    2  0.060  0.001  0.054  0.001  0.000  0.000  0.000  0.000  0.000  0.117
tot    0.120  0.003  0.109  0.003  0.000  0.000  0.000  0.000  0.000  0.234

band     6 # energy   10.88818047 # occ.  0.00000000

ion      s     py     pz     px    dxy    dyz    dz2    dxz  x2-y2    tot
    1  0.000  0.075  0.000  0.075  0.000  0.000  0.000  0.000  0.000  0.150
    2  0.000  0.075  0.000  0.075  0.000  0.000  0.000  0.000  0.000  0.150
tot    0.000  0.150  0.000  0.150  0.000  0.000  0.000  0.000  0.000  0.299

band     7 # energy   11.22765840 # occ.  0.00000000

ion      s     py     pz     px    dxy    dyz    dz2    dxz  x2-y2    tot
    1  0.027  0.000  0.097  0.000  0.000  0.000  0.000  0.000  0.000  0.124
    2  0.027  0.000  0.097  0.000  0.000  0.000  0.000  0.000  0.000  0.124
tot    0.054  0.000  0.194  0.000  0.000  0.000  0.000  0.000  0.000  0.249

band     8 # energy   12.01978723 # occ.  0.00000000

ion      s     py     pz     px    dxy    dyz    dz2    dxz  x2-y2    tot
    1  0.072  0.051  0.029  0.052  0.000  0.000  0.000  0.000  0.000  0.205
    2  0.072  0.051  0.029  0.052  0.000  0.000  0.000  0.000  0.000  0.205
tot    0.144  0.103  0.059  0.104  0.000  0.000  0.000  0.000  0.000  0.409


 k-point   191 :    0.28846154 0.28846154 0.57692308     weight = 0.00416667

band     1 # energy   -3.63209162 # occ.  2.00000000

ion      s     py     pz     px    dxy    dyz    dz2    dxz  x2-y2    tot
    1  0.210  0.009  0.005  0.009  0.000  0.000  0.000  0.000  0.000  0.233
    2  0.210  0.009  0.005  0.009  0.000  0.000  0.000  0.000  0.000  0.233
tot    0.421  0.018  0.010  0.018  0.000  0.000  0.000  0.000  0.000  0.466

band     2 # energy   -0.47448434 # occ.  2.00000000

ion      s     py     pz     px    dxy    dyz    dz2    dxz  x2-y2    tot
    1  0.166  0.016  0.040  0.016  0.000  0.000  0.000  0.000  0.000  0.237
    2  0.166  0.016  0.040  0.016  0.000  0.000  0.000  0.000  0.000  0.237
tot    0.332  0.031  0.080  0.031  0.000  0.000  0.000  0.000  0.000  0.474

band     3 # energy    1.53447929 # occ.  2.00000000

ion      s     py     pz     px    dxy    dyz    dz2    dxz  x2-y2    tot
    1  0.010  0.039  0.071  0.039  0.000  0.000  0.000  0.000  0.000  0.160
    2  0.010  0.039  0.071  0.039  0.000  0.000  0.000  0.000  0.000  0.160
tot    0.019  0.079  0.143  0.079  0.000  0.000  0.000  0.000  0.000  0.319

band     4 # energy    3.94128145 # occ.  2.00000000

ion      s     py     pz     px    dxy    dyz    dz2    dxz  x2-y2    tot
    1  0.000  0.102  0.000  0.102  0.000  0.000  0.000  0.000  0.000  0.205
    2  0.000  0.102  0.000  0.102  0.000  0.000  0.000  0.000  0.000  0.205
tot    0.000  0.205  0.000  0.205  0.000  0.000  0.000  0.000  0.000  0.410

band     5 # energy    7.65263264 # occ.  0.00000000

ion      s     py     pz     px    dxy    dyz    dz2    dxz  x2-y2    tot
    1  0.058  0.001  0.052  0.001  0.000  0.000  0.000  0.000  0.000  0.113
    2  0.058  0.001  0.052  0.001  0.000  0.000  0.000  0.000  0.000  0.113
tot    0.117  0.003  0.104  0.003  0.000  0.000  0.000  0.000  0.000  0.227

band     6 # energy   11.07529889 # occ.  0.00000000

ion      s     py     pz     px    dxy    dyz    dz2    dxz  x2-y2    tot
    1  0.000  0.075  0.000  0.075  0.000  0.000  0.000  0.000  0.000  0.150
    2  0.000  0.075  0.000  0.075  0.000  0.000  0.000  0.000  0.000  0.150
tot    0.000  0.150  0.000  0.150  0.000  0.000  0.000  0.000  0.000  0.300

band     7 # energy   11.40913435 # occ.  0.00000000

ion      s     py     pz     px    dxy    dyz    dz2    dxz  x2-y2    tot
    1  0.025  0.000  0.092  0.000  0.000  0.000  0.000  0.000  0.000  0.117
    2  0.025  0.000  0.092  0.000  0.000  0.000  0.000  0.000  0.000  0.117
tot    0.050  0.000  0.184  0.000  0.000  0.000  0.000  0.000  0.000  0.235

band     8 # energy   12.16018912 # occ.  0.00000000

ion      s     py     pz     px    dxy    dyz    dz2    dxz  x2-y2    tot
    1  0.071  0.053  0.031  0.053  0.000  0.000  0.000  0.000  0.000  0.208
    2  0.071  0.053  0.031  0.053  0.000  0.000  0.000  0.000  0.000  0.208
tot    0.142  0.106  0.062  0.106  0.000  0.000  0.000  0.000  0.000  0.416


 k-point   192 :    0.29807692 0.29807692 0.59615385     weight = 0.00416667

band     1 # energy   -3.49155140 # occ.  2.00000000

ion      s     py     pz     px    dxy    dyz    dz2    dxz  x2-y2    tot
    1  0.211  0.009  0.006  0.009  0.000  0.000  0.000  0.000  0.000  0.235
    2  0.211  0.009  0.006  0.009  0.000  0.000  0.000  0.000  0.000  0.235
tot    0.422  0.017  0.012  0.017  0.000  0.000  0.000  0.000  0.000  0.469

band     2 # energy   -0.62051984 # occ.  2.00000000

ion      s     py     pz     px    dxy    dyz    dz2    dxz  x2-y2    tot
    1  0.169  0.014  0.040  0.014  0.000  0.000  0.000  0.000  0.000  0.237
    2  0.169  0.014  0.040  0.014  0.000  0.000  0.000  0.000  0.000  0.237
tot    0.337  0.028  0.080  0.028  0.000  0.000  0.000  0.000  0.000  0.474

band     3 # energy    1.45951345 # occ.  2.00000000

ion      s     py     pz     px    dxy    dyz    dz2    dxz  x2-y2    tot
    1  0.008  0.040  0.069  0.040  0.000  0.000  0.000  0.000  0.000  0.158
    2  0.008  0.040  0.069  0.040  0.000  0.000  0.000  0.000  0.000  0.158
tot    0.017  0.081  0.138  0.081  0.000  0.000  0.000  0.000  0.000  0.316

band     4 # energy    3.85194831 # occ.  2.00000000

ion      s     py     pz     px    dxy    dyz    dz2    dxz  x2-y2    tot
    1  0.000  0.102  0.000  0.102  0.000  0.000  0.000  0.000  0.000  0.204
    2  0.000  0.102  0.000  0.102  0.000  0.000  0.000  0.000  0.000  0.204
tot    0.000  0.204  0.000  0.204  0.000  0.000  0.000  0.000  0.000  0.408

band     5 # energy    7.55230548 # occ.  0.00000000

ion      s     py     pz     px    dxy    dyz    dz2    dxz  x2-y2    tot
    1  0.057  0.001  0.050  0.001  0.000  0.000  0.000  0.000  0.000  0.110
    2  0.057  0.001  0.050  0.001  0.000  0.000  0.000  0.000  0.000  0.110
tot    0.114  0.003  0.100  0.003  0.000  0.000  0.000  0.000  0.000  0.220

band     6 # energy   11.26801631 # occ.  0.00000000

ion      s     py     pz     px    dxy    dyz    dz2    dxz  x2-y2    tot
    1  0.000  0.075  0.000  0.075  0.000  0.000  0.000  0.000  0.000  0.151
    2  0.000  0.075  0.000  0.075  0.000  0.000  0.000  0.000  0.000  0.151
tot    0.000  0.151  0.000  0.151  0.000  0.000  0.000  0.000  0.000  0.301

band     7 # energy   11.58535093 # occ.  0.00000000

ion      s     py     pz     px    dxy    dyz    dz2    dxz  x2-y2    tot
    1  0.021  0.001  0.083  0.001  0.000  0.000  0.000  0.000  0.000  0.106
    2  0.021  0.001  0.083  0.001  0.000  0.000  0.000  0.000  0.000  0.106
tot    0.042  0.002  0.166  0.002  0.000  0.000  0.000  0.000  0.000  0.212

band     8 # energy   12.30858515 # occ.  0.00000000

ion      s     py     pz     px    dxy    dyz    dz2    dxz  x2-y2    tot
    1  0.070  0.055  0.032  0.054  0.000  0.000  0.000  0.000  0.000  0.211
    2  0.070  0.055  0.032  0.054  0.000  0.000  0.000  0.000  0.000  0.211
tot    0.139  0.110  0.065  0.108  0.000  0.000  0.000  0.000  0.000  0.422


 k-point   193 :    0.30769231 0.30769231 0.61538462     weight = 0.00416667

band     1 # energy   -3.35319657 # occ.  2.00000000

ion      s     py     pz     px    dxy    dyz    dz2    dxz  x2-y2    tot
    1  0.212  0.009  0.007  0.009  0.000  0.000  0.000  0.000  0.000  0.236
    2  0.212  0.009  0.007  0.009  0.000  0.000  0.000  0.000  0.000  0.236
tot    0.424  0.017  0.015  0.017  0.000  0.000  0.000  0.000  0.000  0.473

band     2 # energy   -0.76000847 # occ.  2.00000000

ion      s     py     pz     px    dxy    dyz    dz2    dxz  x2-y2    tot
    1  0.171  0.013  0.041  0.013  0.000  0.000  0.000  0.000  0.000  0.237
    2  0.171  0.013  0.041  0.013  0.000  0.000  0.000  0.000  0.000  0.237
tot    0.342  0.026  0.081  0.026  0.000  0.000  0.000  0.000  0.000  0.474

band     3 # energy    1.39754117 # occ.  2.00000000

ion      s     py     pz     px    dxy    dyz    dz2    dxz  x2-y2    tot
    1  0.007  0.042  0.066  0.042  0.000  0.000  0.000  0.000  0.000  0.157
    2  0.007  0.042  0.066  0.042  0.000  0.000  0.000  0.000  0.000  0.157
tot    0.014  0.083  0.133  0.083  0.000  0.000  0.000  0.000  0.000  0.314

band     4 # energy    3.76467279 # occ.  2.00000000

ion      s     py     pz     px    dxy    dyz    dz2    dxz  x2-y2    tot
    1  0.000  0.101  0.000  0.101  0.000  0.000  0.000  0.000  0.000  0.203
    2  0.000  0.101  0.000  0.101  0.000  0.000  0.000  0.000  0.000  0.203
tot    0.000  0.203  0.000  0.203  0.000  0.000  0.000  0.000  0.000  0.406

band     5 # energy    7.45345203 # occ.  0.00000000

ion      s     py     pz     px    dxy    dyz    dz2    dxz  x2-y2    tot
    1  0.056  0.001  0.048  0.001  0.000  0.000  0.000  0.000  0.000  0.107
    2  0.056  0.001  0.048  0.001  0.000  0.000  0.000  0.000  0.000  0.107
tot    0.112  0.003  0.097  0.003  0.000  0.000  0.000  0.000  0.000  0.214

band     6 # energy   11.46626277 # occ.  0.00000000

ion      s     py     pz     px    dxy    dyz    dz2    dxz  x2-y2    tot
    1  0.000  0.075  0.000  0.076  0.000  0.000  0.000  0.000  0.000  0.151
    2  0.000  0.076  0.000  0.076  0.000  0.000  0.000  0.000  0.000  0.151
tot    0.000  0.151  0.000  0.151  0.000  0.000  0.000  0.000  0.000  0.302

band     7 # energy   11.73682785 # occ.  0.00000000

ion      s     py     pz     px    dxy    dyz    dz2    dxz  x2-y2    tot
    1  0.014  0.005  0.064  0.005  0.000  0.000  0.000  0.000  0.000  0.087
    2  0.014  0.005  0.064  0.005  0.000  0.000  0.000  0.000  0.000  0.087
tot    0.028  0.009  0.127  0.009  0.000  0.000  0.000  0.000  0.000  0.174

band     8 # energy   12.46599531 # occ.  0.00000000

ion      s     py     pz     px    dxy    dyz    dz2    dxz  x2-y2    tot
    1  0.067  0.057  0.035  0.058  0.000  0.000  0.000  0.000  0.000  0.216
    2  0.068  0.055  0.032  0.055  0.000  0.000  0.000  0.000  0.000  0.211
tot    0.135  0.112  0.067  0.113  0.000  0.000  0.000  0.000  0.000  0.427


 k-point   194 :    0.31730769 0.31730769 0.63461538     weight = 0.00416667

band     1 # energy   -3.21819707 # occ.  2.00000000

ion      s     py     pz     px    dxy    dyz    dz2    dxz  x2-y2    tot
    1  0.212  0.008  0.009  0.008  0.000  0.000  0.000  0.000  0.000  0.238
    2  0.212  0.008  0.009  0.008  0.000  0.000  0.000  0.000  0.000  0.238
tot    0.425  0.017  0.018  0.017  0.000  0.000  0.000  0.000  0.000  0.476

band     2 # energy   -0.89290379 # occ.  2.00000000

ion      s     py     pz     px    dxy    dyz    dz2    dxz  x2-y2    tot
    1  0.173  0.012  0.041  0.012  0.000  0.000  0.000  0.000  0.000  0.237
    2  0.173  0.012  0.041  0.012  0.000  0.000  0.000  0.000  0.000  0.237
tot    0.346  0.023  0.082  0.023  0.000  0.000  0.000  0.000  0.000  0.474

band     3 # energy    1.34963363 # occ.  2.00000000

ion      s     py     pz     px    dxy    dyz    dz2    dxz  x2-y2    tot
    1  0.006  0.043  0.064  0.043  0.000  0.000  0.000  0.000  0.000  0.156
    2  0.006  0.043  0.064  0.043  0.000  0.000  0.000  0.000  0.000  0.156
tot    0.011  0.086  0.127  0.086  0.000  0.000  0.000  0.000  0.000  0.311

band     4 # energy    3.67983992 # occ.  2.00000000

ion      s     py     pz     px    dxy    dyz    dz2    dxz  x2-y2    tot
    1  0.000  0.101  0.000  0.101  0.000  0.000  0.000  0.000  0.000  0.202
    2  0.000  0.101  0.000  0.101  0.000  0.000  0.000  0.000  0.000  0.202
tot    0.000  0.202  0.000  0.202  0.000  0.000  0.000  0.000  0.000  0.404

band     5 # energy    7.35675714 # occ.  0.00000000

ion      s     py     pz     px    dxy    dyz    dz2    dxz  x2-y2    tot
    1  0.055  0.001  0.047  0.001  0.000  0.000  0.000  0.000  0.000  0.105
    2  0.055  0.001  0.047  0.001  0.000  0.000  0.000  0.000  0.000  0.105
tot    0.110  0.003  0.094  0.003  0.000  0.000  0.000  0.000  0.000  0.209

band     6 # energy   11.66985602 # occ.  0.00000000

ion      s     py     pz     px    dxy    dyz    dz2    dxz  x2-y2    tot
    1  0.000  0.076  0.000  0.076  0.000  0.000  0.000  0.000  0.000  0.152
    2  0.000  0.076  0.000  0.076  0.000  0.000  0.000  0.000  0.000  0.152
tot    0.000  0.152  0.000  0.152  0.000  0.000  0.000  0.000  0.000  0.303

band     7 # energy   11.78915225 # occ.  0.00000000

ion      s     py     pz     px    dxy    dyz    dz2    dxz  x2-y2    tot
    1  0.002  0.017  0.024  0.017  0.000  0.000  0.000  0.000  0.000  0.061
    2  0.002  0.017  0.024  0.017  0.000  0.000  0.000  0.000  0.000  0.061
tot    0.005  0.034  0.049  0.034  0.000  0.000  0.000  0.000  0.000  0.121

band     8 # energy   12.51866606 # occ.  0.00000000

ion      s     py     pz     px    dxy    dyz    dz2    dxz  x2-y2    tot
    1  0.048  0.026  0.103  0.026  0.000  0.000  0.000  0.000  0.000  0.202
    2  0.045  0.028  0.106  0.028  0.000  0.000  0.000  0.000  0.000  0.206
tot    0.093  0.053  0.209  0.054  0.000  0.000  0.000  0.000  0.000  0.408


 k-point   195 :    0.32692308 0.32692308 0.65384615     weight = 0.00416667

band     1 # energy   -3.08778923 # occ.  2.00000000

ion      s     py     pz     px    dxy    dyz    dz2    dxz  x2-y2    tot
    1  0.213  0.008  0.011  0.008  0.000  0.000  0.000  0.000  0.000  0.239
    2  0.213  0.008  0.011  0.008  0.000  0.000  0.000  0.000  0.000  0.239
tot    0.426  0.016  0.021  0.016  0.000  0.000  0.000  0.000  0.000  0.479

band     2 # energy   -1.01917319 # occ.  2.00000000

ion      s     py     pz     px    dxy    dyz    dz2    dxz  x2-y2    tot
    1  0.175  0.011  0.041  0.011  0.000  0.000  0.000  0.000  0.000  0.237
    2  0.175  0.011  0.041  0.011  0.000  0.000  0.000  0.000  0.000  0.237
tot    0.350  0.021  0.082  0.021  0.000  0.000  0.000  0.000  0.000  0.475

band     3 # energy    1.31689325 # occ.  2.00000000

ion      s     py     pz     px    dxy    dyz    dz2    dxz  x2-y2    tot
    1  0.004  0.045  0.061  0.045  0.000  0.000  0.000  0.000  0.000  0.155
    2  0.004  0.045  0.061  0.045  0.000  0.000  0.000  0.000  0.000  0.155
tot    0.009  0.090  0.121  0.090  0.000  0.000  0.000  0.000  0.000  0.309

band     4 # energy    3.59775768 # occ.  2.00000000

ion      s     py     pz     px    dxy    dyz    dz2    dxz  x2-y2    tot
    1  0.000  0.101  0.000  0.101  0.000  0.000  0.000  0.000  0.000  0.201
    2  0.000  0.101  0.000  0.101  0.000  0.000  0.000  0.000  0.000  0.201
tot    0.000  0.201  0.000  0.201  0.000  0.000  0.000  0.000  0.000  0.403

band     5 # energy    7.26278067 # occ.  0.00000000

ion      s     py     pz     px    dxy    dyz    dz2    dxz  x2-y2    tot
    1  0.054  0.001  0.045  0.001  0.000  0.000  0.000  0.000  0.000  0.102
    2  0.054  0.001  0.045  0.001  0.000  0.000  0.000  0.000  0.000  0.102
tot    0.109  0.003  0.091  0.003  0.000  0.000  0.000  0.000  0.000  0.205

band     6 # energy   11.60799558 # occ.  0.00000000

ion      s     py     pz     px    dxy    dyz    dz2    dxz  x2-y2    tot
    1  0.002  0.033  0.000  0.033  0.000  0.000  0.000  0.000  0.000  0.069
    2  0.002  0.034  0.000  0.034  0.000  0.000  0.000  0.000  0.000  0.070
tot    0.004  0.067  0.001  0.067  0.000  0.000  0.000  0.000  0.000  0.139

band     7 # energy   11.87871882 # occ.  0.00000000

ion      s     py     pz     px    dxy    dyz    dz2    dxz  x2-y2    tot
    1  0.000  0.076  0.000  0.076  0.000  0.000  0.000  0.000  0.000  0.152
    2  0.000  0.076  0.000  0.076  0.000  0.000  0.000  0.000  0.000  0.152
tot    0.000  0.152  0.000  0.152  0.000  0.000  0.000  0.000  0.000  0.305

band     8 # energy   12.49645912 # occ.  0.00000000

ion      s     py     pz     px    dxy    dyz    dz2    dxz  x2-y2    tot
    1  0.049  0.009  0.126  0.009  0.000  0.000  0.000  0.000  0.000  0.192
    2  0.047  0.009  0.128  0.009  0.000  0.000  0.000  0.000  0.000  0.193
tot    0.096  0.018  0.253  0.018  0.000  0.000  0.000  0.000  0.000  0.385


 k-point   196 :    0.33653846 0.33653846 0.67307692     weight = 0.00416667

band     1 # energy   -2.96325421 # occ.  2.00000000

ion      s     py     pz     px    dxy    dyz    dz2    dxz  x2-y2    tot
    1  0.214  0.007  0.012  0.007  0.000  0.000  0.000  0.000  0.000  0.241
    2  0.214  0.007  0.012  0.007  0.000  0.000  0.000  0.000  0.000  0.241
tot    0.427  0.015  0.025  0.015  0.000  0.000  0.000  0.000  0.000  0.482

band     2 # energy   -1.13877474 # occ.  2.00000000

ion      s     py     pz     px    dxy    dyz    dz2    dxz  x2-y2    tot
    1  0.177  0.009  0.041  0.009  0.000  0.000  0.000  0.000  0.000  0.237
    2  0.177  0.009  0.041  0.009  0.000  0.000  0.000  0.000  0.000  0.237
tot    0.354  0.019  0.083  0.019  0.000  0.000  0.000  0.000  0.000  0.475

band     3 # energy    1.30040505 # occ.  2.00000000

ion      s     py     pz     px    dxy    dyz    dz2    dxz  x2-y2    tot
    1  0.003  0.047  0.057  0.047  0.000  0.000  0.000  0.000  0.000  0.154
    2  0.003  0.047  0.057  0.047  0.000  0.000  0.000  0.000  0.000  0.154
tot    0.006  0.093  0.115  0.093  0.000  0.000  0.000  0.000  0.000  0.308

band     4 # energy    3.51871289 # occ.  2.00000000

ion      s     py     pz     px    dxy    dyz    dz2    dxz  x2-y2    tot
    1  0.000  0.100  0.000  0.100  0.000  0.000  0.000  0.000  0.000  0.201
    2  0.000  0.100  0.000  0.100  0.000  0.000  0.000  0.000  0.000  0.201
tot    0.000  0.201  0.000  0.201  0.000  0.000  0.000  0.000  0.000  0.401

band     5 # energy    7.17187270 # occ.  0.00000000

ion      s     py     pz     px    dxy    dyz    dz2    dxz  x2-y2    tot
    1  0.054  0.001  0.044  0.001  0.000  0.000  0.000  0.000  0.000  0.100
    2  0.054  0.001  0.044  0.001  0.000  0.000  0.000  0.000  0.000  0.100
tot    0.108  0.002  0.088  0.002  0.000  0.000  0.000  0.000  0.000  0.201

band     6 # energy   11.27087398 # occ.  0.00000000

ion      s     py     pz     px    dxy    dyz    dz2    dxz  x2-y2    tot
    1  0.009  0.039  0.003  0.039  0.000  0.000  0.000  0.000  0.000  0.089
    2  0.009  0.039  0.003  0.039  0.000  0.000  0.000  0.000  0.000  0.089
tot    0.018  0.077  0.005  0.077  0.000  0.000  0.000  0.000  0.000  0.178

band     7 # energy   12.09268355 # occ.  0.00000000

ion      s     py     pz     px    dxy    dyz    dz2    dxz  x2-y2    tot
    1  0.000  0.077  0.000  0.077  0.000  0.000  0.000  0.000  0.000  0.153
    2  0.000  0.077  0.000  0.077  0.000  0.000  0.000  0.000  0.000  0.153
tot    0.000  0.153  0.000  0.153  0.000  0.000  0.000  0.000  0.000  0.307

band     8 # energy   12.64102275 # occ.  0.00000000

ion      s     py     pz     px    dxy    dyz    dz2    dxz  x2-y2    tot
    1  0.042  0.003  0.123  0.003  0.000  0.000  0.000  0.000  0.000  0.171
    2  0.043  0.003  0.122  0.002  0.000  0.000  0.000  0.000  0.000  0.171
tot    0.085  0.005  0.245  0.006  0.000  0.000  0.000  0.000  0.000  0.341


 k-point   197 :    0.34615385 0.34615385 0.69230769     weight = 0.00416667

band     1 # energy   -2.84585570 # occ.  2.00000000

ion      s     py     pz     px    dxy    dyz    dz2    dxz  x2-y2    tot
    1  0.214  0.007  0.015  0.007  0.000  0.000  0.000  0.000  0.000  0.242
    2  0.214  0.007  0.015  0.007  0.000  0.000  0.000  0.000  0.000  0.242
tot    0.427  0.014  0.029  0.014  0.000  0.000  0.000  0.000  0.000  0.484

band     2 # energy   -1.25169649 # occ.  2.00000000

ion      s     py     pz     px    dxy    dyz    dz2    dxz  x2-y2    tot
    1  0.179  0.008  0.042  0.008  0.000  0.000  0.000  0.000  0.000  0.237
    2  0.179  0.008  0.042  0.008  0.000  0.000  0.000  0.000  0.000  0.237
tot    0.358  0.017  0.083  0.017  0.000  0.000  0.000  0.000  0.000  0.475

band     3 # energy    1.30117836 # occ.  2.00000000

ion      s     py     pz     px    dxy    dyz    dz2    dxz  x2-y2    tot
    1  0.002  0.049  0.054  0.049  0.000  0.000  0.000  0.000  0.000  0.153
    2  0.002  0.049  0.054  0.049  0.000  0.000  0.000  0.000  0.000  0.153
tot    0.004  0.097  0.108  0.097  0.000  0.000  0.000  0.000  0.000  0.307

band     4 # energy    3.44299261 # occ.  2.00000000

ion      s     py     pz     px    dxy    dyz    dz2    dxz  x2-y2    tot
    1  0.000  0.100  0.000  0.100  0.000  0.000  0.000  0.000  0.000  0.200
    2  0.000  0.100  0.000  0.100  0.000  0.000  0.000  0.000  0.000  0.200
tot    0.000  0.200  0.000  0.200  0.000  0.000  0.000  0.000  0.000  0.400

band     5 # energy    7.08471928 # occ.  0.00000000

ion      s     py     pz     px    dxy    dyz    dz2    dxz  x2-y2    tot
    1  0.053  0.001  0.043  0.001  0.000  0.000  0.000  0.000  0.000  0.099
    2  0.053  0.001  0.043  0.001  0.000  0.000  0.000  0.000  0.000  0.099
tot    0.107  0.002  0.086  0.002  0.000  0.000  0.000  0.000  0.000  0.197

band     6 # energy   10.89069797 # occ.  0.00000000

ion      s     py     pz     px    dxy    dyz    dz2    dxz  x2-y2    tot
    1  0.014  0.039  0.007  0.039  0.000  0.000  0.000  0.000  0.000  0.100
    2  0.014  0.039  0.007  0.039  0.000  0.000  0.000  0.000  0.000  0.100
tot    0.029  0.078  0.014  0.078  0.000  0.000  0.000  0.000  0.000  0.199

band     7 # energy   12.31142799 # occ.  0.00000000

ion      s     py     pz     px    dxy    dyz    dz2    dxz  x2-y2    tot
    1  0.000  0.077  0.000  0.077  0.000  0.000  0.000  0.000  0.000  0.155
    2  0.000  0.077  0.000  0.077  0.000  0.000  0.000  0.000  0.000  0.154
tot    0.000  0.155  0.000  0.154  0.000  0.000  0.000  0.000  0.000  0.309

band     8 # energy   12.84071563 # occ.  0.00000000

ion      s     py     pz     px    dxy    dyz    dz2    dxz  x2-y2    tot
    1  0.038  0.001  0.117  0.001  0.000  0.000  0.000  0.000  0.000  0.157
    2  0.039  0.001  0.115  0.001  0.000  0.000  0.000  0.000  0.000  0.155
tot    0.077  0.002  0.232  0.002  0.000  0.000  0.000  0.000  0.000  0.312


 k-point   198 :    0.35576923 0.35576923 0.71153846     weight = 0.00416667

band     1 # energy   -2.73676085 # occ.  2.00000000

ion      s     py     pz     px    dxy    dyz    dz2    dxz  x2-y2    tot
    1  0.214  0.006  0.017  0.006  0.000  0.000  0.000  0.000  0.000  0.243
    2  0.214  0.006  0.017  0.006  0.000  0.000  0.000  0.000  0.000  0.243
tot    0.427  0.012  0.034  0.012  0.000  0.000  0.000  0.000  0.000  0.486

band     2 # energy   -1.35790149 # occ.  2.00000000

ion      s     py     pz     px    dxy    dyz    dz2    dxz  x2-y2    tot
    1  0.181  0.007  0.042  0.007  0.000  0.000  0.000  0.000  0.000  0.237
    2  0.181  0.007  0.042  0.007  0.000  0.000  0.000  0.000  0.000  0.237
tot    0.361  0.015  0.084  0.015  0.000  0.000  0.000  0.000  0.000  0.475

band     3 # energy    1.32005168 # occ.  2.00000000

ion      s     py     pz     px    dxy    dyz    dz2    dxz  x2-y2    tot
    1  0.001  0.051  0.050  0.051  0.000  0.000  0.000  0.000  0.000  0.153
    2  0.001  0.051  0.050  0.051  0.000  0.000  0.000  0.000  0.000  0.153
tot    0.002  0.102  0.101  0.102  0.000  0.000  0.000  0.000  0.000  0.306

band     4 # energy    3.37083010 # occ.  2.00000000

ion      s     py     pz     px    dxy    dyz    dz2    dxz  x2-y2    tot
    1  0.000  0.100  0.000  0.100  0.000  0.000  0.000  0.000  0.000  0.199
    2  0.000  0.100  0.000  0.100  0.000  0.000  0.000  0.000  0.000  0.199
tot    0.000  0.199  0.000  0.199  0.000  0.000  0.000  0.000  0.000  0.398

band     5 # energy    7.00154419 # occ.  0.00000000

ion      s     py     pz     px    dxy    dyz    dz2    dxz  x2-y2    tot
    1  0.053  0.001  0.042  0.001  0.000  0.000  0.000  0.000  0.000  0.097
    2  0.053  0.001  0.042  0.001  0.000  0.000  0.000  0.000  0.000  0.097
tot    0.106  0.002  0.084  0.002  0.000  0.000  0.000  0.000  0.000  0.194

band     6 # energy   10.50073774 # occ.  0.00000000

ion      s     py     pz     px    dxy    dyz    dz2    dxz  x2-y2    tot
    1  0.018  0.038  0.010  0.038  0.000  0.000  0.000  0.000  0.000  0.105
    2  0.018  0.038  0.010  0.038  0.000  0.000  0.000  0.000  0.000  0.105
tot    0.036  0.077  0.021  0.077  0.000  0.000  0.000  0.000  0.000  0.211

band     7 # energy   12.53475380 # occ.  0.00000000

ion      s     py     pz     px    dxy    dyz    dz2    dxz  x2-y2    tot
    1  0.000  0.078  0.000  0.078  0.000  0.000  0.000  0.000  0.000  0.156
    2  0.000  0.078  0.000  0.078  0.000  0.000  0.000  0.000  0.000  0.156
tot    0.000  0.156  0.000  0.156  0.000  0.000  0.000  0.000  0.000  0.312

band     8 # energy   13.05806647 # occ.  0.00000000

ion      s     py     pz     px    dxy    dyz    dz2    dxz  x2-y2    tot
    1  0.039  0.000  0.107  0.000  0.000  0.000  0.000  0.000  0.000  0.147
    2  0.033  0.001  0.116  0.001  0.000  0.000  0.000  0.000  0.000  0.150
tot    0.072  0.001  0.223  0.001  0.000  0.000  0.000  0.000  0.000  0.297


 k-point   199 :    0.36538462 0.36538462 0.73076923     weight = 0.00416667

band     1 # energy   -2.63695822 # occ.  2.00000000

ion      s     py     pz     px    dxy    dyz    dz2    dxz  x2-y2    tot
    1  0.213  0.005  0.020  0.005  0.000  0.000  0.000  0.000  0.000  0.244
    2  0.213  0.005  0.020  0.005  0.000  0.000  0.000  0.000  0.000  0.244
tot    0.427  0.011  0.039  0.011  0.000  0.000  0.000  0.000  0.000  0.488

band     2 # energy   -1.45736586 # occ.  2.00000000

ion      s     py     pz     px    dxy    dyz    dz2    dxz  x2-y2    tot
    1  0.182  0.006  0.042  0.006  0.000  0.000  0.000  0.000  0.000  0.237
    2  0.182  0.006  0.042  0.006  0.000  0.000  0.000  0.000  0.000  0.237
tot    0.365  0.013  0.085  0.013  0.000  0.000  0.000  0.000  0.000  0.475

band     3 # energy    1.35759272 # occ.  2.00000000

ion      s     py     pz     px    dxy    dyz    dz2    dxz  x2-y2    tot
    1  0.000  0.053  0.047  0.053  0.000  0.000  0.000  0.000  0.000  0.154
    2  0.000  0.053  0.047  0.053  0.000  0.000  0.000  0.000  0.000  0.154
tot    0.001  0.107  0.093  0.107  0.000  0.000  0.000  0.000  0.000  0.307

band     4 # energy    3.30244197 # occ.  2.00000000

ion      s     py     pz     px    dxy    dyz    dz2    dxz  x2-y2    tot
    1  0.000  0.099  0.000  0.099  0.000  0.000  0.000  0.000  0.000  0.199
    2  0.000  0.099  0.000  0.099  0.000  0.000  0.000  0.000  0.000  0.199
tot    0.000  0.199  0.000  0.199  0.000  0.000  0.000  0.000  0.000  0.397

band     5 # energy    6.92265408 # occ.  0.00000000

ion      s     py     pz     px    dxy    dyz    dz2    dxz  x2-y2    tot
    1  0.053  0.001  0.041  0.001  0.000  0.000  0.000  0.000  0.000  0.096
    2  0.053  0.001  0.041  0.001  0.000  0.000  0.000  0.000  0.000  0.096
tot    0.105  0.002  0.082  0.002  0.000  0.000  0.000  0.000  0.000  0.191

band     6 # energy   10.11097791 # occ.  0.00000000

ion      s     py     pz     px    dxy    dyz    dz2    dxz  x2-y2    tot
    1  0.021  0.037  0.013  0.037  0.000  0.000  0.000  0.000  0.000  0.108
    2  0.021  0.037  0.013  0.037  0.000  0.000  0.000  0.000  0.000  0.108
tot    0.043  0.074  0.025  0.074  0.000  0.000  0.000  0.000  0.000  0.217

band     7 # energy   12.76230183 # occ.  0.00000000

ion      s     py     pz     px    dxy    dyz    dz2    dxz  x2-y2    tot
    1  0.000  0.079  0.000  0.079  0.000  0.000  0.000  0.000  0.000  0.157
    2  0.000  0.079  0.000  0.079  0.000  0.000  0.000  0.000  0.000  0.157
tot    0.000  0.157  0.000  0.157  0.000  0.000  0.000  0.000  0.000  0.315

band     8 # energy   13.29068883 # occ.  0.00000000

ion      s     py     pz     px    dxy    dyz    dz2    dxz  x2-y2    tot
    1  0.032  0.000  0.108  0.000  0.000  0.000  0.000  0.000  0.000  0.141
    2  0.035  0.000  0.105  0.000  0.000  0.000  0.000  0.000  0.000  0.140
tot    0.067  0.000  0.213  0.000  0.000  0.000  0.000  0.000  0.000  0.280


 k-point   200 :    0.37500000 0.37500000 0.75000000     weight = 0.00416667

band     1 # energy   -2.54718432 # occ.  2.00000000

ion      s     py     pz     px    dxy    dyz    dz2    dxz  x2-y2    tot
    1  0.212  0.005  0.022  0.005  0.000  0.000  0.000  0.000  0.000  0.244
    2  0.212  0.005  0.022  0.005  0.000  0.000  0.000  0.000  0.000  0.244
tot    0.425  0.009  0.045  0.009  0.000  0.000  0.000  0.000  0.000  0.488

band     2 # energy   -1.55006819 # occ.  2.00000000

ion      s     py     pz     px    dxy    dyz    dz2    dxz  x2-y2    tot
    1  0.184  0.006  0.042  0.006  0.000  0.000  0.000  0.000  0.000  0.237
    2  0.184  0.006  0.042  0.006  0.000  0.000  0.000  0.000  0.000  0.237
tot    0.368  0.011  0.085  0.011  0.000  0.000  0.000  0.000  0.000  0.475

band     3 # energy    1.41398740 # occ.  2.00000000

ion      s     py     pz     px    dxy    dyz    dz2    dxz  x2-y2    tot
    1  0.000  0.056  0.043  0.056  0.000  0.000  0.000  0.000  0.000  0.154
    2  0.000  0.056  0.043  0.056  0.000  0.000  0.000  0.000  0.000  0.154
tot    0.000  0.112  0.085  0.112  0.000  0.000  0.000  0.000  0.000  0.309

band     4 # energy    3.23802800 # occ.  2.00000000

ion      s     py     pz     px    dxy    dyz    dz2    dxz  x2-y2    tot
    1  0.000  0.099  0.000  0.099  0.000  0.000  0.000  0.000  0.000  0.198
    2  0.000  0.099  0.000  0.099  0.000  0.000  0.000  0.000  0.000  0.198
tot    0.000  0.198  0.000  0.198  0.000  0.000  0.000  0.000  0.000  0.396

band     5 # energy    6.84830692 # occ.  0.00000000

ion      s     py     pz     px    dxy    dyz    dz2    dxz  x2-y2    tot
    1  0.052  0.001  0.040  0.001  0.000  0.000  0.000  0.000  0.000  0.094
    2  0.052  0.001  0.040  0.001  0.000  0.000  0.000  0.000  0.000  0.094
tot    0.105  0.002  0.081  0.002  0.000  0.000  0.000  0.000  0.000  0.188

band     6 # energy    9.72584027 # occ.  0.00000000

ion      s     py     pz     px    dxy    dyz    dz2    dxz  x2-y2    tot
    1  0.024  0.036  0.015  0.036  0.000  0.000  0.000  0.000  0.000  0.110
    2  0.024  0.036  0.015  0.036  0.000  0.000  0.000  0.000  0.000  0.110
tot    0.049  0.071  0.029  0.071  0.000  0.000  0.000  0.000  0.000  0.221

band     7 # energy   12.99392405 # occ.  0.00000000

ion      s     py     pz     px    dxy    dyz    dz2    dxz  x2-y2    tot
    1  0.000  0.080  0.000  0.079  0.000  0.000  0.000  0.000  0.000  0.159
    2  0.000  0.079  0.000  0.080  0.000  0.000  0.000  0.000  0.000  0.159
tot    0.000  0.159  0.000  0.159  0.000  0.000  0.000  0.000  0.000  0.318

band     8 # energy   13.52987225 # occ.  0.00000000

ion      s     py     pz     px    dxy    dyz    dz2    dxz  x2-y2    tot
    1  0.035  0.000  0.099  0.000  0.000  0.000  0.000  0.000  0.000  0.134
    2  0.029  0.000  0.107  0.000  0.000  0.000  0.000  0.000  0.000  0.137
tot    0.064  0.000  0.206  0.000  0.000  0.000  0.000  0.000  0.000  0.271


 k-point   201 :    0.37500000 0.37500000 0.75000000     weight = 0.00416667

band     1 # energy   -2.54718432 # occ.  2.00000000

ion      s     py     pz     px    dxy    dyz    dz2    dxz  x2-y2    tot
    1  0.212  0.005  0.022  0.005  0.000  0.000  0.000  0.000  0.000  0.244
    2  0.212  0.005  0.022  0.005  0.000  0.000  0.000  0.000  0.000  0.244
tot    0.425  0.009  0.045  0.009  0.000  0.000  0.000  0.000  0.000  0.488

band     2 # energy   -1.55006819 # occ.  2.00000000

ion      s     py     pz     px    dxy    dyz    dz2    dxz  x2-y2    tot
    1  0.184  0.006  0.042  0.006  0.000  0.000  0.000  0.000  0.000  0.237
    2  0.184  0.006  0.042  0.006  0.000  0.000  0.000  0.000  0.000  0.237
tot    0.368  0.011  0.085  0.011  0.000  0.000  0.000  0.000  0.000  0.475

band     3 # energy    1.41398740 # occ.  2.00000000

ion      s     py     pz     px    dxy    dyz    dz2    dxz  x2-y2    tot
    1  0.000  0.056  0.043  0.056  0.000  0.000  0.000  0.000  0.000  0.154
    2  0.000  0.056  0.043  0.056  0.000  0.000  0.000  0.000  0.000  0.154
tot    0.000  0.112  0.085  0.112  0.000  0.000  0.000  0.000  0.000  0.309

band     4 # energy    3.23802800 # occ.  2.00000000

ion      s     py     pz     px    dxy    dyz    dz2    dxz  x2-y2    tot
    1  0.000  0.099  0.000  0.099  0.000  0.000  0.000  0.000  0.000  0.198
    2  0.000  0.099  0.000  0.099  0.000  0.000  0.000  0.000  0.000  0.198
tot    0.000  0.198  0.000  0.198  0.000  0.000  0.000  0.000  0.000  0.396

band     5 # energy    6.84830692 # occ.  0.00000000

ion      s     py     pz     px    dxy    dyz    dz2    dxz  x2-y2    tot
    1  0.052  0.001  0.040  0.001  0.000  0.000  0.000  0.000  0.000  0.094
    2  0.052  0.001  0.040  0.001  0.000  0.000  0.000  0.000  0.000  0.094
tot    0.105  0.002  0.081  0.002  0.000  0.000  0.000  0.000  0.000  0.188

band     6 # energy    9.72584027 # occ.  0.00000000

ion      s     py     pz     px    dxy    dyz    dz2    dxz  x2-y2    tot
    1  0.024  0.036  0.015  0.036  0.000  0.000  0.000  0.000  0.000  0.110
    2  0.024  0.036  0.015  0.036  0.000  0.000  0.000  0.000  0.000  0.110
tot    0.049  0.071  0.029  0.071  0.000  0.000  0.000  0.000  0.000  0.221

band     7 # energy   12.99381262 # occ.  0.00000000

ion      s     py     pz     px    dxy    dyz    dz2    dxz  x2-y2    tot
    1  0.000  0.079  0.000  0.081  0.000  0.000  0.000  0.000  0.000  0.160
    2  0.000  0.080  0.000  0.078  0.000  0.000  0.000  0.000  0.000  0.159
tot    0.000  0.159  0.000  0.159  0.000  0.000  0.000  0.000  0.000  0.319

band     8 # energy   13.52991849 # occ.  0.00000000

ion      s     py     pz     px    dxy    dyz    dz2    dxz  x2-y2    tot
    1  0.029  0.000  0.108  0.000  0.000  0.000  0.000  0.000  0.000  0.137
    2  0.035  0.000  0.099  0.000  0.000  0.000  0.000  0.000  0.000  0.134
tot    0.064  0.000  0.207  0.000  0.000  0.000  0.000  0.000  0.000  0.271


 k-point   202 :    0.37820513 0.36538462 0.74358974     weight = 0.00416667

band     1 # energy   -2.57446097 # occ.  2.00000000

ion      s     py     pz     px    dxy    dyz    dz2    dxz  x2-y2    tot
    1  0.213  0.005  0.021  0.004  0.000  0.000  0.000  0.000  0.000  0.244
    2  0.213  0.005  0.021  0.004  0.000  0.000  0.000  0.000  0.000  0.244
tot    0.425  0.011  0.043  0.009  0.000  0.000  0.000  0.000  0.000  0.488

band     2 # energy   -1.52056095 # occ.  2.00000000

ion      s     py     pz     px    dxy    dyz    dz2    dxz  x2-y2    tot
    1  0.183  0.006  0.042  0.005  0.000  0.000  0.000  0.000  0.000  0.237
    2  0.183  0.006  0.042  0.005  0.000  0.000  0.000  0.000  0.000  0.237
tot    0.367  0.013  0.085  0.011  0.000  0.000  0.000  0.000  0.000  0.475

band     3 # energy    1.39429745 # occ.  2.00000000

ion      s     py     pz     px    dxy    dyz    dz2    dxz  x2-y2    tot
    1  0.000  0.054  0.044  0.056  0.000  0.000  0.000  0.000  0.000  0.154
    2  0.000  0.054  0.044  0.056  0.000  0.000  0.000  0.000  0.000  0.154
tot    0.000  0.109  0.088  0.111  0.000  0.000  0.000  0.000  0.000  0.308

band     4 # energy    3.24968229 # occ.  2.00000000

ion      s     py     pz     px    dxy    dyz    dz2    dxz  x2-y2    tot
    1  0.000  0.099  0.000  0.099  0.000  0.000  0.000  0.000  0.000  0.198
    2  0.000  0.099  0.000  0.099  0.000  0.000  0.000  0.000  0.000  0.198
tot    0.000  0.197  0.001  0.198  0.000  0.000  0.000  0.000  0.000  0.396

band     5 # energy    6.88658150 # occ.  0.00000000

ion      s     py     pz     px    dxy    dyz    dz2    dxz  x2-y2    tot
    1  0.052  0.000  0.040  0.002  0.000  0.000  0.000  0.000  0.000  0.095
    2  0.052  0.000  0.040  0.002  0.000  0.000  0.000  0.000  0.000  0.095
tot    0.104  0.000  0.081  0.005  0.000  0.000  0.000  0.000  0.000  0.190

band     6 # energy    9.85449157 # occ.  0.00000000

ion      s     py     pz     px    dxy    dyz    dz2    dxz  x2-y2    tot
    1  0.023  0.035  0.014  0.038  0.000  0.000  0.000  0.000  0.000  0.110
    2  0.023  0.035  0.014  0.038  0.000  0.000  0.000  0.000  0.000  0.110
tot    0.047  0.070  0.028  0.075  0.000  0.000  0.000  0.000  0.000  0.220

band     7 # energy   12.87197715 # occ.  0.00000000

ion      s     py     pz     px    dxy    dyz    dz2    dxz  x2-y2    tot
    1  0.003  0.073  0.007  0.074  0.000  0.000  0.000  0.000  0.000  0.157
    2  0.003  0.074  0.007  0.073  0.000  0.000  0.000  0.000  0.000  0.157
tot    0.006  0.147  0.014  0.147  0.000  0.000  0.000  0.000  0.000  0.314

band     8 # energy   13.50545226 # occ.  0.00000000

ion      s     py     pz     px    dxy    dyz    dz2    dxz  x2-y2    tot
    1  0.052  0.024  0.054  0.010  0.000  0.000  0.000  0.000  0.000  0.140
    2  0.013  0.006  0.113  0.032  0.000  0.000  0.000  0.000  0.000  0.164
tot    0.066  0.030  0.167  0.042  0.000  0.000  0.000  0.000  0.000  0.304


 k-point   203 :    0.38141026 0.35576923 0.73717949     weight = 0.00416667

band     1 # energy   -2.59988567 # occ.  2.00000000

ion      s     py     pz     px    dxy    dyz    dz2    dxz  x2-y2    tot
    1  0.213  0.006  0.021  0.004  0.000  0.000  0.000  0.000  0.000  0.244
    2  0.213  0.006  0.021  0.004  0.000  0.000  0.000  0.000  0.000  0.244
tot    0.426  0.013  0.041  0.008  0.000  0.000  0.000  0.000  0.000  0.488

band     2 # energy   -1.49159960 # occ.  2.00000000

ion      s     py     pz     px    dxy    dyz    dz2    dxz  x2-y2    tot
    1  0.183  0.007  0.042  0.005  0.000  0.000  0.000  0.000  0.000  0.237
    2  0.183  0.007  0.042  0.005  0.000  0.000  0.000  0.000  0.000  0.237
tot    0.366  0.014  0.084  0.010  0.000  0.000  0.000  0.000  0.000  0.475

band     3 # energy    1.37908947 # occ.  2.00000000

ion      s     py     pz     px    dxy    dyz    dz2    dxz  x2-y2    tot
    1  0.000  0.053  0.045  0.055  0.000  0.000  0.000  0.000  0.000  0.154
    2  0.000  0.053  0.045  0.055  0.000  0.000  0.000  0.000  0.000  0.154
tot    0.000  0.106  0.091  0.111  0.000  0.000  0.000  0.000  0.000  0.308

band     4 # energy    3.24360665 # occ.  2.00000000

ion      s     py     pz     px    dxy    dyz    dz2    dxz  x2-y2    tot
    1  0.000  0.097  0.001  0.098  0.000  0.000  0.000  0.000  0.000  0.197
    2  0.000  0.097  0.001  0.098  0.000  0.000  0.000  0.000  0.000  0.197
tot    0.001  0.195  0.002  0.196  0.000  0.000  0.000  0.000  0.000  0.394

band     5 # energy    6.95297954 # occ.  0.00000000

ion      s     py     pz     px    dxy    dyz    dz2    dxz  x2-y2    tot
    1  0.052  0.000  0.040  0.005  0.000  0.000  0.000  0.000  0.000  0.096
    2  0.052  0.000  0.040  0.005  0.000  0.000  0.000  0.000  0.000  0.096
tot    0.103  0.000  0.080  0.009  0.000  0.000  0.000  0.000  0.000  0.193

band     6 # energy    9.98569398 # occ.  0.00000000

ion      s     py     pz     px    dxy    dyz    dz2    dxz  x2-y2    tot
    1  0.022  0.034  0.013  0.040  0.000  0.000  0.000  0.000  0.000  0.109
    2  0.022  0.034  0.013  0.040  0.000  0.000  0.000  0.000  0.000  0.109
tot    0.045  0.067  0.027  0.080  0.000  0.000  0.000  0.000  0.000  0.218

band     7 # energy   12.68920017 # occ.  0.00000000

ion      s     py     pz     px    dxy    dyz    dz2    dxz  x2-y2    tot
    1  0.008  0.065  0.018  0.064  0.000  0.000  0.000  0.000  0.000  0.155
    2  0.008  0.066  0.018  0.063  0.000  0.000  0.000  0.000  0.000  0.155
tot    0.016  0.131  0.036  0.127  0.000  0.000  0.000  0.000  0.000  0.310

band     8 # energy   13.32457300 # occ.  0.00000000

ion      s     py     pz     px    dxy    dyz    dz2    dxz  x2-y2    tot
    1  0.047  0.039  0.012  0.053  0.000  0.000  0.000  0.000  0.000  0.151
    2  0.026  0.023  0.047  0.077  0.000  0.000  0.000  0.000  0.000  0.172
tot    0.073  0.062  0.059  0.130  0.000  0.000  0.000  0.000  0.000  0.324


 k-point   204 :    0.38461538 0.34615385 0.73076923     weight = 0.00416667

band     1 # energy   -2.62346662 # occ.  2.00000000

ion      s     py     pz     px    dxy    dyz    dz2    dxz  x2-y2    tot
    1  0.213  0.007  0.020  0.004  0.000  0.000  0.000  0.000  0.000  0.244
    2  0.213  0.007  0.020  0.004  0.000  0.000  0.000  0.000  0.000  0.244
tot    0.426  0.014  0.039  0.008  0.000  0.000  0.000  0.000  0.000  0.488

band     2 # energy   -1.46324297 # occ.  2.00000000

ion      s     py     pz     px    dxy    dyz    dz2    dxz  x2-y2    tot
    1  0.183  0.008  0.042  0.005  0.000  0.000  0.000  0.000  0.000  0.238
    2  0.183  0.008  0.042  0.005  0.000  0.000  0.000  0.000  0.000  0.238
tot    0.366  0.016  0.083  0.010  0.000  0.000  0.000  0.000  0.000  0.475

band     3 # energy    1.36837255 # occ.  2.00000000

ion      s     py     pz     px    dxy    dyz    dz2    dxz  x2-y2    tot
    1  0.000  0.052  0.047  0.055  0.000  0.000  0.000  0.000  0.000  0.154
    2  0.000  0.052  0.047  0.055  0.000  0.000  0.000  0.000  0.000  0.154
tot    0.001  0.103  0.093  0.110  0.000  0.000  0.000  0.000  0.000  0.307

band     4 # energy    3.22124533 # occ.  2.00000000

ion      s     py     pz     px    dxy    dyz    dz2    dxz  x2-y2    tot
    1  0.001  0.096  0.002  0.097  0.000  0.000  0.000  0.000  0.000  0.195
    2  0.001  0.096  0.002  0.097  0.000  0.000  0.000  0.000  0.000  0.195
tot    0.002  0.191  0.005  0.193  0.000  0.000  0.000  0.000  0.000  0.391

band     5 # energy    7.04582529 # occ.  0.00000000

ion      s     py     pz     px    dxy    dyz    dz2    dxz  x2-y2    tot
    1  0.051  0.001  0.039  0.007  0.000  0.000  0.000  0.000  0.000  0.098
    2  0.051  0.001  0.039  0.007  0.000  0.000  0.000  0.000  0.000  0.098
tot    0.101  0.001  0.079  0.015  0.000  0.000  0.000  0.000  0.000  0.196

band     6 # energy   10.11889042 # occ.  0.00000000

ion      s     py     pz     px    dxy    dyz    dz2    dxz  x2-y2    tot
    1  0.021  0.032  0.012  0.042  0.000  0.000  0.000  0.000  0.000  0.108
    2  0.021  0.032  0.012  0.043  0.000  0.000  0.000  0.000  0.000  0.108
tot    0.042  0.064  0.025  0.085  0.000  0.000  0.000  0.000  0.000  0.216

band     7 # energy   12.48020480 # occ.  0.00000000

ion      s     py     pz     px    dxy    dyz    dz2    dxz  x2-y2    tot
    1  0.013  0.060  0.027  0.054  0.000  0.000  0.000  0.000  0.000  0.154
    2  0.013  0.060  0.027  0.054  0.000  0.000  0.000  0.000  0.000  0.154
tot    0.026  0.119  0.054  0.108  0.000  0.000  0.000  0.000  0.000  0.307

band     8 # energy   13.06409541 # occ.  0.00000000

ion      s     py     pz     px    dxy    dyz    dz2    dxz  x2-y2    tot
    1  0.037  0.029  0.024  0.061  0.000  0.000  0.000  0.000  0.000  0.151
    2  0.035  0.027  0.028  0.064  0.000  0.000  0.000  0.000  0.000  0.154
tot    0.072  0.056  0.052  0.125  0.000  0.000  0.000  0.000  0.000  0.305


 k-point   205 :    0.38782051 0.33653846 0.72435897     weight = 0.00416667

band     1 # energy   -2.64519925 # occ.  2.00000000

ion      s     py     pz     px    dxy    dyz    dz2    dxz  x2-y2    tot
    1  0.213  0.008  0.019  0.004  0.000  0.000  0.000  0.000  0.000  0.244
    2  0.213  0.008  0.019  0.004  0.000  0.000  0.000  0.000  0.000  0.244
tot    0.426  0.016  0.037  0.007  0.000  0.000  0.000  0.000  0.000  0.487

band     2 # energy   -1.43559799 # occ.  2.00000000

ion      s     py     pz     px    dxy    dyz    dz2    dxz  x2-y2    tot
    1  0.183  0.009  0.041  0.005  0.000  0.000  0.000  0.000  0.000  0.238
    2  0.183  0.009  0.041  0.005  0.000  0.000  0.000  0.000  0.000  0.238
tot    0.366  0.018  0.082  0.010  0.000  0.000  0.000  0.000  0.000  0.476

band     3 # energy    1.36214705 # occ.  2.00000000

ion      s     py     pz     px    dxy    dyz    dz2    dxz  x2-y2    tot
    1  0.001  0.050  0.048  0.055  0.000  0.000  0.000  0.000  0.000  0.154
    2  0.001  0.050  0.048  0.055  0.000  0.000  0.000  0.000  0.000  0.154
tot    0.001  0.100  0.096  0.110  0.000  0.000  0.000  0.000  0.000  0.307

band     4 # energy    3.18471528 # occ.  2.00000000

ion      s     py     pz     px    dxy    dyz    dz2    dxz  x2-y2    tot
    1  0.001  0.093  0.004  0.095  0.000  0.000  0.000  0.000  0.000  0.193
    2  0.001  0.093  0.004  0.095  0.000  0.000  0.000  0.000  0.000  0.193
tot    0.003  0.186  0.008  0.190  0.000  0.000  0.000  0.000  0.000  0.386

band     5 # energy    7.16312176 # occ.  0.00000000

ion      s     py     pz     px    dxy    dyz    dz2    dxz  x2-y2    tot
    1  0.049  0.002  0.038  0.011  0.000  0.000  0.000  0.000  0.000  0.100
    2  0.049  0.002  0.038  0.011  0.000  0.000  0.000  0.000  0.000  0.100
tot    0.099  0.003  0.077  0.022  0.000  0.000  0.000  0.000  0.000  0.201

band     6 # energy   10.25308336 # occ.  0.00000000

ion      s     py     pz     px    dxy    dyz    dz2    dxz  x2-y2    tot
    1  0.019  0.030  0.011  0.046  0.000  0.000  0.000  0.000  0.000  0.107
    2  0.019  0.030  0.011  0.046  0.000  0.000  0.000  0.000  0.000  0.107
tot    0.039  0.060  0.023  0.091  0.000  0.000  0.000  0.000  0.000  0.213

band     7 # energy   12.26212137 # occ.  0.00000000

ion      s     py     pz     px    dxy    dyz    dz2    dxz  x2-y2    tot
    1  0.017  0.057  0.033  0.047  0.000  0.000  0.000  0.000  0.000  0.154
    2  0.017  0.057  0.033  0.047  0.000  0.000  0.000  0.000  0.000  0.154
tot    0.034  0.114  0.065  0.094  0.000  0.000  0.000  0.000  0.000  0.308

band     8 # energy   12.80642419 # occ.  0.00000000

ion      s     py     pz     px    dxy    dyz    dz2    dxz  x2-y2    tot
    1  0.035  0.026  0.026  0.058  0.000  0.000  0.000  0.000  0.000  0.145
    2  0.035  0.025  0.026  0.059  0.000  0.000  0.000  0.000  0.000  0.145
tot    0.071  0.051  0.052  0.117  0.000  0.000  0.000  0.000  0.000  0.291


 k-point   206 :    0.39102564 0.32692308 0.71794872     weight = 0.00416667

band     1 # energy   -2.66506608 # occ.  2.00000000

ion      s     py     pz     px    dxy    dyz    dz2    dxz  x2-y2    tot
    1  0.213  0.009  0.018  0.003  0.000  0.000  0.000  0.000  0.000  0.243
    2  0.213  0.009  0.018  0.003  0.000  0.000  0.000  0.000  0.000  0.243
tot    0.426  0.018  0.036  0.007  0.000  0.000  0.000  0.000  0.000  0.487

band     2 # energy   -1.40879958 # occ.  2.00000000

ion      s     py     pz     px    dxy    dyz    dz2    dxz  x2-y2    tot
    1  0.183  0.010  0.041  0.005  0.000  0.000  0.000  0.000  0.000  0.238
    2  0.183  0.010  0.041  0.005  0.000  0.000  0.000  0.000  0.000  0.238
tot    0.367  0.020  0.081  0.009  0.000  0.000  0.000  0.000  0.000  0.477

band     3 # energy    1.36040720 # occ.  2.00000000

ion      s     py     pz     px    dxy    dyz    dz2    dxz  x2-y2    tot
    1  0.001  0.049  0.049  0.055  0.000  0.000  0.000  0.000  0.000  0.154
    2  0.001  0.049  0.049  0.055  0.000  0.000  0.000  0.000  0.000  0.154
tot    0.001  0.097  0.099  0.110  0.000  0.000  0.000  0.000  0.000  0.307

band     4 # energy    3.13650415 # occ.  2.00000000

ion      s     py     pz     px    dxy    dyz    dz2    dxz  x2-y2    tot
    1  0.002  0.090  0.006  0.093  0.000  0.000  0.000  0.000  0.000  0.191
    2  0.002  0.090  0.006  0.093  0.000  0.000  0.000  0.000  0.000  0.191
tot    0.004  0.180  0.012  0.186  0.000  0.000  0.000  0.000  0.000  0.382

band     5 # energy    7.30247554 # occ.  0.00000000

ion      s     py     pz     px    dxy    dyz    dz2    dxz  x2-y2    tot
    1  0.048  0.003  0.037  0.014  0.000  0.000  0.000  0.000  0.000  0.103
    2  0.048  0.003  0.037  0.014  0.000  0.000  0.000  0.000  0.000  0.103
tot    0.096  0.006  0.074  0.029  0.000  0.000  0.000  0.000  0.000  0.205

band     6 # energy   10.38678264 # occ.  0.00000000

ion      s     py     pz     px    dxy    dyz    dz2    dxz  x2-y2    tot
    1  0.017  0.027  0.010  0.050  0.000  0.000  0.000  0.000  0.000  0.104
    2  0.017  0.027  0.010  0.050  0.000  0.000  0.000  0.000  0.000  0.104
tot    0.035  0.055  0.019  0.100  0.000  0.000  0.000  0.000  0.000  0.209

band     7 # energy   12.04275661 # occ.  0.00000000

ion      s     py     pz     px    dxy    dyz    dz2    dxz  x2-y2    tot
    1  0.021  0.057  0.037  0.041  0.000  0.000  0.000  0.000  0.000  0.155
    2  0.021  0.057  0.037  0.041  0.000  0.000  0.000  0.000  0.000  0.155
tot    0.042  0.113  0.074  0.081  0.000  0.000  0.000  0.000  0.000  0.311

band     8 # energy   12.54762344 # occ.  0.00000000

ion      s     py     pz     px    dxy    dyz    dz2    dxz  x2-y2    tot
    1  0.035  0.024  0.026  0.055  0.000  0.000  0.000  0.000  0.000  0.140
    2  0.035  0.024  0.026  0.055  0.000  0.000  0.000  0.000  0.000  0.140
tot    0.071  0.048  0.052  0.110  0.000  0.000  0.000  0.000  0.000  0.280


 k-point   207 :    0.39423077 0.31730769 0.71153846     weight = 0.00416667

band     1 # energy   -2.68306577 # occ.  2.00000000

ion      s     py     pz     px    dxy    dyz    dz2    dxz  x2-y2    tot
    1  0.213  0.010  0.017  0.003  0.000  0.000  0.000  0.000  0.000  0.243
    2  0.213  0.010  0.017  0.003  0.000  0.000  0.000  0.000  0.000  0.243
tot    0.426  0.020  0.034  0.007  0.000  0.000  0.000  0.000  0.000  0.486

band     2 # energy   -1.38301701 # occ.  2.00000000

ion      s     py     pz     px    dxy    dyz    dz2    dxz  x2-y2    tot
    1  0.184  0.011  0.040  0.004  0.000  0.000  0.000  0.000  0.000  0.239
    2  0.184  0.011  0.040  0.004  0.000  0.000  0.000  0.000  0.000  0.239
tot    0.367  0.022  0.080  0.009  0.000  0.000  0.000  0.000  0.000  0.478

band     3 # energy    1.36313271 # occ.  2.00000000

ion      s     py     pz     px    dxy    dyz    dz2    dxz  x2-y2    tot
    1  0.001  0.047  0.051  0.055  0.000  0.000  0.000  0.000  0.000  0.154
    2  0.001  0.047  0.051  0.055  0.000  0.000  0.000  0.000  0.000  0.154
tot    0.002  0.094  0.101  0.110  0.000  0.000  0.000  0.000  0.000  0.307

band     4 # energy    3.07918438 # occ.  2.00000000

ion      s     py     pz     px    dxy    dyz    dz2    dxz  x2-y2    tot
    1  0.002  0.087  0.008  0.091  0.000  0.000  0.000  0.000  0.000  0.188
    2  0.002  0.087  0.008  0.091  0.000  0.000  0.000  0.000  0.000  0.188
tot    0.005  0.174  0.017  0.181  0.000  0.000  0.000  0.000  0.000  0.377

band     5 # energy    7.46127872 # occ.  0.00000000

ion      s     py     pz     px    dxy    dyz    dz2    dxz  x2-y2    tot
    1  0.046  0.005  0.036  0.018  0.000  0.000  0.000  0.000  0.000  0.105
    2  0.046  0.005  0.036  0.018  0.000  0.000  0.000  0.000  0.000  0.105
tot    0.093  0.009  0.072  0.036  0.000  0.000  0.000  0.000  0.000  0.210

band     6 # energy   10.51669068 # occ.  0.00000000

ion      s     py     pz     px    dxy    dyz    dz2    dxz  x2-y2    tot
    1  0.015  0.023  0.008  0.056  0.000  0.000  0.000  0.000  0.000  0.101
    2  0.015  0.023  0.008  0.056  0.000  0.000  0.000  0.000  0.000  0.101
tot    0.029  0.046  0.015  0.111  0.000  0.000  0.000  0.000  0.000  0.202

band     7 # energy   11.82819567 # occ.  0.00000000

ion      s     py     pz     px    dxy    dyz    dz2    dxz  x2-y2    tot
    1  0.026  0.059  0.041  0.033  0.000  0.000  0.000  0.000  0.000  0.158
    2  0.026  0.058  0.041  0.033  0.000  0.000  0.000  0.000  0.000  0.158
tot    0.051  0.117  0.082  0.066  0.000  0.000  0.000  0.000  0.000  0.316

band     8 # energy   12.28940031 # occ.  0.00000000

ion      s     py     pz     px    dxy    dyz    dz2    dxz  x2-y2    tot
    1  0.036  0.023  0.026  0.052  0.000  0.000  0.000  0.000  0.000  0.137
    2  0.036  0.023  0.026  0.052  0.000  0.000  0.000  0.000  0.000  0.137
tot    0.071  0.046  0.052  0.104  0.000  0.000  0.000  0.000  0.000  0.274


 k-point   208 :    0.39743590 0.30769231 0.70512821     weight = 0.00416667

band     1 # energy   -2.69917700 # occ.  2.00000000

ion      s     py     pz     px    dxy    dyz    dz2    dxz  x2-y2    tot
    1  0.213  0.011  0.016  0.003  0.000  0.000  0.000  0.000  0.000  0.243
    2  0.213  0.011  0.016  0.003  0.000  0.000  0.000  0.000  0.000  0.243
tot    0.425  0.022  0.032  0.006  0.000  0.000  0.000  0.000  0.000  0.486

band     2 # energy   -1.35845801 # occ.  2.00000000

ion      s     py     pz     px    dxy    dyz    dz2    dxz  x2-y2    tot
    1  0.184  0.012  0.039  0.004  0.000  0.000  0.000  0.000  0.000  0.239
    2  0.184  0.012  0.039  0.004  0.000  0.000  0.000  0.000  0.000  0.239
tot    0.368  0.024  0.078  0.008  0.000  0.000  0.000  0.000  0.000  0.479

band     3 # energy    1.37029615 # occ.  2.00000000

ion      s     py     pz     px    dxy    dyz    dz2    dxz  x2-y2    tot
    1  0.001  0.045  0.052  0.055  0.000  0.000  0.000  0.000  0.000  0.154
    2  0.001  0.045  0.052  0.055  0.000  0.000  0.000  0.000  0.000  0.154
tot    0.002  0.091  0.104  0.110  0.000  0.000  0.000  0.000  0.000  0.308

band     4 # energy    3.01529418 # occ.  2.00000000

ion      s     py     pz     px    dxy    dyz    dz2    dxz  x2-y2    tot
    1  0.003  0.084  0.011  0.089  0.000  0.000  0.000  0.000  0.000  0.186
    2  0.003  0.084  0.011  0.089  0.000  0.000  0.000  0.000  0.000  0.186
tot    0.005  0.167  0.022  0.178  0.000  0.000  0.000  0.000  0.000  0.372

band     5 # energy    7.63716455 # occ.  0.00000000

ion      s     py     pz     px    dxy    dyz    dz2    dxz  x2-y2    tot
    1  0.045  0.006  0.034  0.022  0.000  0.000  0.000  0.000  0.000  0.107
    2  0.045  0.006  0.034  0.022  0.000  0.000  0.000  0.000  0.000  0.107
tot    0.089  0.012  0.069  0.044  0.000  0.000  0.000  0.000  0.000  0.215

band     6 # energy   10.63524973 # occ.  0.00000000

ion      s     py     pz     px    dxy    dyz    dz2    dxz  x2-y2    tot
    1  0.010  0.016  0.004  0.064  0.000  0.000  0.000  0.000  0.000  0.096
    2  0.010  0.016  0.004  0.064  0.000  0.000  0.000  0.000  0.000  0.096
tot    0.021  0.033  0.009  0.129  0.000  0.000  0.000  0.000  0.000  0.191

band     7 # energy   11.62750615 # occ.  0.00000000

ion      s     py     pz     px    dxy    dyz    dz2    dxz  x2-y2    tot
    1  0.031  0.063  0.046  0.023  0.000  0.000  0.000  0.000  0.000  0.163
    2  0.031  0.063  0.046  0.023  0.000  0.000  0.000  0.000  0.000  0.163
tot    0.062  0.126  0.091  0.046  0.000  0.000  0.000  0.000  0.000  0.326

band     8 # energy   12.03273587 # occ.  0.00000000

ion      s     py     pz     px    dxy    dyz    dz2    dxz  x2-y2    tot
    1  0.036  0.023  0.026  0.049  0.000  0.000  0.000  0.000  0.000  0.134
    2  0.036  0.022  0.027  0.049  0.000  0.000  0.000  0.000  0.000  0.135
tot    0.072  0.045  0.053  0.099  0.000  0.000  0.000  0.000  0.000  0.269


 k-point   209 :    0.40064103 0.29807692 0.69871795     weight = 0.00416667

band     1 # energy   -2.71338711 # occ.  2.00000000

ion      s     py     pz     px    dxy    dyz    dz2    dxz  x2-y2    tot
    1  0.212  0.012  0.015  0.003  0.000  0.000  0.000  0.000  0.000  0.243
    2  0.212  0.012  0.015  0.003  0.000  0.000  0.000  0.000  0.000  0.243
tot    0.425  0.024  0.030  0.006  0.000  0.000  0.000  0.000  0.000  0.485

band     2 # energy   -1.33536389 # occ.  2.00000000

ion      s     py     pz     px    dxy    dyz    dz2    dxz  x2-y2    tot
    1  0.185  0.013  0.038  0.004  0.000  0.000  0.000  0.000  0.000  0.240
    2  0.185  0.013  0.038  0.004  0.000  0.000  0.000  0.000  0.000  0.240
tot    0.370  0.027  0.076  0.008  0.000  0.000  0.000  0.000  0.000  0.480

band     3 # energy    1.38185673 # occ.  2.00000000

ion      s     py     pz     px    dxy    dyz    dz2    dxz  x2-y2    tot
    1  0.001  0.044  0.053  0.055  0.000  0.000  0.000  0.000  0.000  0.154
    2  0.001  0.044  0.053  0.055  0.000  0.000  0.000  0.000  0.000  0.154
tot    0.003  0.088  0.107  0.111  0.000  0.000  0.000  0.000  0.000  0.308

band     4 # energy    2.94715092 # occ.  2.00000000

ion      s     py     pz     px    dxy    dyz    dz2    dxz  x2-y2    tot
    1  0.003  0.080  0.013  0.087  0.000  0.000  0.000  0.000  0.000  0.183
    2  0.003  0.080  0.013  0.087  0.000  0.000  0.000  0.000  0.000  0.183
tot    0.006  0.160  0.027  0.174  0.000  0.000  0.000  0.000  0.000  0.367

band     5 # energy    7.82785818 # occ.  0.00000000

ion      s     py     pz     px    dxy    dyz    dz2    dxz  x2-y2    tot
    1  0.043  0.008  0.033  0.026  0.000  0.000  0.000  0.000  0.000  0.109
    2  0.043  0.008  0.033  0.026  0.000  0.000  0.000  0.000  0.000  0.109
tot    0.085  0.015  0.066  0.052  0.000  0.000  0.000  0.000  0.000  0.219

band     6 # energy   10.72265632 # occ.  0.00000000

ion      s     py     pz     px    dxy    dyz    dz2    dxz  x2-y2    tot
    1  0.004  0.007  0.001  0.077  0.000  0.000  0.000  0.000  0.000  0.089
    2  0.004  0.007  0.001  0.077  0.000  0.000  0.000  0.000  0.000  0.089
tot    0.009  0.014  0.002  0.153  0.000  0.000  0.000  0.000  0.000  0.177

band     7 # energy   11.46127971 # occ.  0.00000000

ion      s     py     pz     px    dxy    dyz    dz2    dxz  x2-y2    tot
    1  0.038  0.071  0.050  0.010  0.000  0.000  0.000  0.000  0.000  0.169
    2  0.038  0.071  0.050  0.010  0.000  0.000  0.000  0.000  0.000  0.169
tot    0.077  0.142  0.100  0.020  0.000  0.000  0.000  0.000  0.000  0.339

band     8 # energy   11.77824205 # occ.  0.00000000

ion      s     py     pz     px    dxy    dyz    dz2    dxz  x2-y2    tot
    1  0.037  0.022  0.027  0.047  0.000  0.000  0.000  0.000  0.000  0.133
    2  0.037  0.022  0.027  0.047  0.000  0.000  0.000  0.000  0.000  0.133
tot    0.074  0.045  0.054  0.094  0.000  0.000  0.000  0.000  0.000  0.266


 k-point   210 :    0.40384615 0.28846154 0.69230769     weight = 0.00416667

band     1 # energy   -2.72567708 # occ.  2.00000000

ion      s     py     pz     px    dxy    dyz    dz2    dxz  x2-y2    tot
    1  0.212  0.013  0.014  0.003  0.000  0.000  0.000  0.000  0.000  0.242
    2  0.212  0.013  0.014  0.003  0.000  0.000  0.000  0.000  0.000  0.242
tot    0.424  0.027  0.029  0.005  0.000  0.000  0.000  0.000  0.000  0.485

band     2 # energy   -1.31401234 # occ.  2.00000000

ion      s     py     pz     px    dxy    dyz    dz2    dxz  x2-y2    tot
    1  0.186  0.015  0.037  0.004  0.000  0.000  0.000  0.000  0.000  0.241
    2  0.186  0.015  0.037  0.004  0.000  0.000  0.000  0.000  0.000  0.241
tot    0.371  0.029  0.073  0.008  0.000  0.000  0.000  0.000  0.000  0.481

band     3 # energy    1.39776691 # occ.  2.00000000

ion      s     py     pz     px    dxy    dyz    dz2    dxz  x2-y2    tot
    1  0.002  0.042  0.055  0.056  0.000  0.000  0.000  0.000  0.000  0.154
    2  0.002  0.042  0.055  0.056  0.000  0.000  0.000  0.000  0.000  0.154
tot    0.004  0.085  0.110  0.111  0.000  0.000  0.000  0.000  0.000  0.309

band     4 # energy    2.87683467 # occ.  2.00000000

ion      s     py     pz     px    dxy    dyz    dz2    dxz  x2-y2    tot
    1  0.003  0.077  0.016  0.085  0.000  0.000  0.000  0.000  0.000  0.181
    2  0.003  0.077  0.016  0.085  0.000  0.000  0.000  0.000  0.000  0.181
tot    0.006  0.153  0.032  0.170  0.000  0.000  0.000  0.000  0.000  0.362

band     5 # energy    8.03139441 # occ.  0.00000000

ion      s     py     pz     px    dxy    dyz    dz2    dxz  x2-y2    tot
    1  0.041  0.009  0.032  0.030  0.000  0.000  0.000  0.000  0.000  0.111
    2  0.041  0.009  0.032  0.030  0.000  0.000  0.000  0.000  0.000  0.111
tot    0.081  0.018  0.063  0.060  0.000  0.000  0.000  0.000  0.000  0.222

band     6 # energy   10.73433932 # occ.  0.00000000

ion      s     py     pz     px    dxy    dyz    dz2    dxz  x2-y2    tot
    1  0.000  0.000  0.001  0.086  0.000  0.000  0.000  0.000  0.000  0.087
    2  0.000  0.000  0.001  0.086  0.000  0.000  0.000  0.000  0.000  0.087
tot    0.000  0.000  0.002  0.172  0.000  0.000  0.000  0.000  0.000  0.174

band     7 # energy   11.37468488 # occ.  0.00000000

ion      s     py     pz     px    dxy    dyz    dz2    dxz  x2-y2    tot
    1  0.044  0.076  0.050  0.000  0.000  0.000  0.000  0.000  0.000  0.171
    2  0.044  0.076  0.050  0.000  0.000  0.000  0.000  0.000  0.000  0.171
tot    0.088  0.153  0.101  0.001  0.000  0.000  0.000  0.000  0.000  0.341

band     8 # energy   11.52656737 # occ.  0.00000000

ion      s     py     pz     px    dxy    dyz    dz2    dxz  x2-y2    tot
    1  0.038  0.022  0.027  0.044  0.000  0.000  0.000  0.000  0.000  0.132
    2  0.038  0.022  0.027  0.044  0.000  0.000  0.000  0.000  0.000  0.132
tot    0.076  0.045  0.055  0.088  0.000  0.000  0.000  0.000  0.000  0.264


 k-point   211 :    0.40705128 0.27884615 0.68589744     weight = 0.00416667

band     1 # energy   -2.73602611 # occ.  2.00000000

ion      s     py     pz     px    dxy    dyz    dz2    dxz  x2-y2    tot
    1  0.212  0.014  0.013  0.002  0.000  0.000  0.000  0.000  0.000  0.242
    2  0.212  0.014  0.013  0.002  0.000  0.000  0.000  0.000  0.000  0.242
tot    0.423  0.029  0.027  0.005  0.000  0.000  0.000  0.000  0.000  0.484

band     2 # energy   -1.29470722 # occ.  2.00000000

ion      s     py     pz     px    dxy    dyz    dz2    dxz  x2-y2    tot
    1  0.186  0.016  0.035  0.003  0.000  0.000  0.000  0.000  0.000  0.241
    2  0.186  0.016  0.035  0.003  0.000  0.000  0.000  0.000  0.000  0.241
tot    0.373  0.032  0.071  0.007  0.000  0.000  0.000  0.000  0.000  0.483

band     3 # energy    1.41796786 # occ.  2.00000000

ion      s     py     pz     px    dxy    dyz    dz2    dxz  x2-y2    tot
    1  0.002  0.041  0.056  0.056  0.000  0.000  0.000  0.000  0.000  0.155
    2  0.002  0.041  0.056  0.056  0.000  0.000  0.000  0.000  0.000  0.155
tot    0.004  0.082  0.112  0.112  0.000  0.000  0.000  0.000  0.000  0.310

band     4 # energy    2.80618435 # occ.  2.00000000

ion      s     py     pz     px    dxy    dyz    dz2    dxz  x2-y2    tot
    1  0.003  0.073  0.019  0.084  0.000  0.000  0.000  0.000  0.000  0.179
    2  0.003  0.073  0.019  0.084  0.000  0.000  0.000  0.000  0.000  0.179
tot    0.006  0.146  0.038  0.168  0.000  0.000  0.000  0.000  0.000  0.357

band     5 # energy    8.24568836 # occ.  0.00000000

ion      s     py     pz     px    dxy    dyz    dz2    dxz  x2-y2    tot
    1  0.038  0.010  0.030  0.034  0.000  0.000  0.000  0.000  0.000  0.112
    2  0.038  0.010  0.030  0.034  0.000  0.000  0.000  0.000  0.000  0.112
tot    0.076  0.020  0.060  0.068  0.000  0.000  0.000  0.000  0.000  0.225

band     6 # energy   10.63764200 # occ.  0.00000000

ion      s     py     pz     px    dxy    dyz    dz2    dxz  x2-y2    tot
    1  0.003  0.004  0.009  0.081  0.000  0.000  0.000  0.000  0.000  0.097
    2  0.003  0.004  0.009  0.081  0.000  0.000  0.000  0.000  0.000  0.097
tot    0.006  0.008  0.017  0.162  0.000  0.000  0.000  0.000  0.000  0.194

band     7 # energy   11.27827607 # occ.  0.00000000

ion      s     py     pz     px    dxy    dyz    dz2    dxz  x2-y2    tot
    1  0.039  0.023  0.028  0.041  0.000  0.000  0.000  0.000  0.000  0.132
    2  0.039  0.023  0.028  0.041  0.000  0.000  0.000  0.000  0.000  0.132
tot    0.079  0.046  0.056  0.082  0.000  0.000  0.000  0.000  0.000  0.263

band     8 # energy   11.40081345 # occ.  0.00000000

ion      s     py     pz     px    dxy    dyz    dz2    dxz  x2-y2    tot
    1  0.042  0.071  0.043  0.005  0.000  0.000  0.000  0.000  0.000  0.160
    2  0.042  0.071  0.043  0.005  0.000  0.000  0.000  0.000  0.000  0.160
tot    0.083  0.142  0.087  0.009  0.000  0.000  0.000  0.000  0.000  0.321


 k-point   212 :    0.41025641 0.26923077 0.67948718     weight = 0.00416667

band     1 # energy   -2.74441429 # occ.  2.00000000

ion      s     py     pz     px    dxy    dyz    dz2    dxz  x2-y2    tot
    1  0.211  0.016  0.013  0.002  0.000  0.000  0.000  0.000  0.000  0.242
    2  0.211  0.016  0.013  0.002  0.000  0.000  0.000  0.000  0.000  0.242
tot    0.422  0.031  0.025  0.004  0.000  0.000  0.000  0.000  0.000  0.483

band     2 # energy   -1.27777748 # occ.  2.00000000

ion      s     py     pz     px    dxy    dyz    dz2    dxz  x2-y2    tot
    1  0.187  0.018  0.034  0.003  0.000  0.000  0.000  0.000  0.000  0.242
    2  0.187  0.018  0.034  0.003  0.000  0.000  0.000  0.000  0.000  0.242
tot    0.375  0.035  0.068  0.006  0.000  0.000  0.000  0.000  0.000  0.484

band     3 # energy    1.44238819 # occ.  2.00000000

ion      s     py     pz     px    dxy    dyz    dz2    dxz  x2-y2    tot
    1  0.002  0.039  0.057  0.056  0.000  0.000  0.000  0.000  0.000  0.155
    2  0.002  0.039  0.057  0.056  0.000  0.000  0.000  0.000  0.000  0.155
tot    0.005  0.079  0.115  0.112  0.000  0.000  0.000  0.000  0.000  0.311

band     4 # energy    2.73680337 # occ.  2.00000000

ion      s     py     pz     px    dxy    dyz    dz2    dxz  x2-y2    tot
    1  0.003  0.069  0.022  0.083  0.000  0.000  0.000  0.000  0.000  0.177
    2  0.003  0.069  0.022  0.083  0.000  0.000  0.000  0.000  0.000  0.177
tot    0.006  0.139  0.044  0.165  0.000  0.000  0.000  0.000  0.000  0.353

band     5 # energy    8.46905282 # occ.  0.00000000

ion      s     py     pz     px    dxy    dyz    dz2    dxz  x2-y2    tot
    1  0.036  0.011  0.028  0.038  0.000  0.000  0.000  0.000  0.000  0.113
    2  0.036  0.011  0.028  0.038  0.000  0.000  0.000  0.000  0.000  0.113
tot    0.071  0.022  0.056  0.077  0.000  0.000  0.000  0.000  0.000  0.226

band     6 # energy   10.47005920 # occ.  0.00000000

ion      s     py     pz     px    dxy    dyz    dz2    dxz  x2-y2    tot
    1  0.009  0.011  0.015  0.072  0.000  0.000  0.000  0.000  0.000  0.107
    2  0.009  0.011  0.015  0.072  0.000  0.000  0.000  0.000  0.000  0.107
tot    0.018  0.022  0.031  0.144  0.000  0.000  0.000  0.000  0.000  0.214

band     7 # energy   11.03399694 # occ.  0.00000000

ion      s     py     pz     px    dxy    dyz    dz2    dxz  x2-y2    tot
    1  0.041  0.023  0.029  0.038  0.000  0.000  0.000  0.000  0.000  0.132
    2  0.041  0.023  0.029  0.038  0.000  0.000  0.000  0.000  0.000  0.132
tot    0.082  0.047  0.058  0.076  0.000  0.000  0.000  0.000  0.000  0.263

band     8 # energy   11.50244247 # occ.  0.00000000

ion      s     py     pz     px    dxy    dyz    dz2    dxz  x2-y2    tot
    1  0.037  0.063  0.037  0.014  0.000  0.000  0.000  0.000  0.000  0.150
    2  0.037  0.063  0.037  0.014  0.000  0.000  0.000  0.000  0.000  0.150
tot    0.074  0.126  0.073  0.027  0.000  0.000  0.000  0.000  0.000  0.301


 k-point   213 :    0.41346154 0.25961538 0.67307692     weight = 0.00416667

band     1 # energy   -2.75082017 # occ.  2.00000000

ion      s     py     pz     px    dxy    dyz    dz2    dxz  x2-y2    tot
    1  0.211  0.017  0.012  0.002  0.000  0.000  0.000  0.000  0.000  0.241
    2  0.211  0.017  0.012  0.002  0.000  0.000  0.000  0.000  0.000  0.241
tot    0.421  0.033  0.024  0.004  0.000  0.000  0.000  0.000  0.000  0.483

band     2 # energy   -1.26356327 # occ.  2.00000000

ion      s     py     pz     px    dxy    dyz    dz2    dxz  x2-y2    tot
    1  0.188  0.019  0.032  0.003  0.000  0.000  0.000  0.000  0.000  0.243
    2  0.188  0.019  0.032  0.003  0.000  0.000  0.000  0.000  0.000  0.243
tot    0.377  0.038  0.065  0.006  0.000  0.000  0.000  0.000  0.000  0.486

band     3 # energy    1.47094527 # occ.  2.00000000

ion      s     py     pz     px    dxy    dyz    dz2    dxz  x2-y2    tot
    1  0.003  0.038  0.059  0.057  0.000  0.000  0.000  0.000  0.000  0.156
    2  0.003  0.038  0.059  0.057  0.000  0.000  0.000  0.000  0.000  0.156
tot    0.005  0.075  0.118  0.113  0.000  0.000  0.000  0.000  0.000  0.312

band     4 # energy    2.67008669 # occ.  2.00000000

ion      s     py     pz     px    dxy    dyz    dz2    dxz  x2-y2    tot
    1  0.003  0.066  0.025  0.081  0.000  0.000  0.000  0.000  0.000  0.175
    2  0.003  0.066  0.025  0.081  0.000  0.000  0.000  0.000  0.000  0.175
tot    0.005  0.131  0.050  0.163  0.000  0.000  0.000  0.000  0.000  0.349

band     5 # energy    8.69937562 # occ.  0.00000000

ion      s     py     pz     px    dxy    dyz    dz2    dxz  x2-y2    tot
    1  0.032  0.011  0.026  0.043  0.000  0.000  0.000  0.000  0.000  0.113
    2  0.032  0.011  0.026  0.043  0.000  0.000  0.000  0.000  0.000  0.113
tot    0.065  0.023  0.052  0.086  0.000  0.000  0.000  0.000  0.000  0.226

band     6 # energy   10.27343085 # occ.  0.00000000

ion      s     py     pz     px    dxy    dyz    dz2    dxz  x2-y2    tot
    1  0.013  0.016  0.020  0.064  0.000  0.000  0.000  0.000  0.000  0.113
    2  0.013  0.016  0.020  0.064  0.000  0.000  0.000  0.000  0.000  0.113
tot    0.027  0.032  0.039  0.129  0.000  0.000  0.000  0.000  0.000  0.226

band     7 # energy   10.79496522 # occ.  0.00000000

ion      s     py     pz     px    dxy    dyz    dz2    dxz  x2-y2    tot
    1  0.043  0.024  0.030  0.034  0.000  0.000  0.000  0.000  0.000  0.132
    2  0.043  0.024  0.030  0.034  0.000  0.000  0.000  0.000  0.000  0.132
tot    0.087  0.049  0.061  0.069  0.000  0.000  0.000  0.000  0.000  0.265

band     8 # energy   11.63800424 # occ.  0.00000000

ion      s     py     pz     px    dxy    dyz    dz2    dxz  x2-y2    tot
    1  0.034  0.057  0.033  0.021  0.000  0.000  0.000  0.000  0.000  0.144
    2  0.033  0.057  0.033  0.021  0.000  0.000  0.000  0.000  0.000  0.144
tot    0.067  0.114  0.065  0.042  0.000  0.000  0.000  0.000  0.000  0.288


 k-point   214 :    0.41666667 0.25000000 0.66666667     weight = 0.00416667

band     1 # energy   -2.75521100 # occ.  2.00000000

ion      s     py     pz     px    dxy    dyz    dz2    dxz  x2-y2    tot
    1  0.210  0.018  0.011  0.002  0.000  0.000  0.000  0.000  0.000  0.241
    2  0.210  0.018  0.011  0.002  0.000  0.000  0.000  0.000  0.000  0.241
tot    0.420  0.036  0.022  0.004  0.000  0.000  0.000  0.000  0.000  0.482

band     2 # energy   -1.25241083 # occ.  2.00000000

ion      s     py     pz     px    dxy    dyz    dz2    dxz  x2-y2    tot
    1  0.189  0.021  0.031  0.003  0.000  0.000  0.000  0.000  0.000  0.243
    2  0.189  0.021  0.031  0.003  0.000  0.000  0.000  0.000  0.000  0.243
tot    0.379  0.042  0.061  0.005  0.000  0.000  0.000  0.000  0.000  0.487

band     3 # energy    1.50354709 # occ.  2.00000000

ion      s     py     pz     px    dxy    dyz    dz2    dxz  x2-y2    tot
    1  0.003  0.036  0.060  0.057  0.000  0.000  0.000  0.000  0.000  0.157
    2  0.003  0.036  0.060  0.057  0.000  0.000  0.000  0.000  0.000  0.157
tot    0.006  0.072  0.120  0.115  0.000  0.000  0.000  0.000  0.000  0.313

band     4 # energy    2.60724549 # occ.  2.00000000

ion      s     py     pz     px    dxy    dyz    dz2    dxz  x2-y2    tot
    1  0.002  0.062  0.028  0.081  0.000  0.000  0.000  0.000  0.000  0.173
    2  0.002  0.062  0.028  0.081  0.000  0.000  0.000  0.000  0.000  0.173
tot    0.005  0.124  0.056  0.161  0.000  0.000  0.000  0.000  0.000  0.346

band     5 # energy    8.93384891 # occ.  0.00000000

ion      s     py     pz     px    dxy    dyz    dz2    dxz  x2-y2    tot
    1  0.028  0.011  0.023  0.049  0.000  0.000  0.000  0.000  0.000  0.112
    2  0.028  0.011  0.023  0.049  0.000  0.000  0.000  0.000  0.000  0.112
tot    0.057  0.022  0.047  0.097  0.000  0.000  0.000  0.000  0.000  0.223

band     6 # energy   10.06578641 # occ.  0.00000000

ion      s     py     pz     px    dxy    dyz    dz2    dxz  x2-y2    tot
    1  0.017  0.019  0.022  0.059  0.000  0.000  0.000  0.000  0.000  0.117
    2  0.017  0.019  0.022  0.059  0.000  0.000  0.000  0.000  0.000  0.117
tot    0.034  0.038  0.044  0.118  0.000  0.000  0.000  0.000  0.000  0.233

band     7 # energy   10.56318091 # occ.  0.00000000

ion      s     py     pz     px    dxy    dyz    dz2    dxz  x2-y2    tot
    1  0.047  0.026  0.032  0.030  0.000  0.000  0.000  0.000  0.000  0.135
    2  0.047  0.026  0.032  0.030  0.000  0.000  0.000  0.000  0.000  0.135
tot    0.093  0.052  0.064  0.059  0.000  0.000  0.000  0.000  0.000  0.269

band     8 # energy   11.78957587 # occ.  0.00000000

ion      s     py     pz     px    dxy    dyz    dz2    dxz  x2-y2    tot
    1  0.031  0.053  0.030  0.026  0.000  0.000  0.000  0.000  0.000  0.140
    2  0.031  0.053  0.030  0.026  0.000  0.000  0.000  0.000  0.000  0.140
tot    0.062  0.106  0.061  0.053  0.000  0.000  0.000  0.000  0.000  0.281


 k-point   215 :    0.41987179 0.24038462 0.66025641     weight = 0.00416667

band     1 # energy   -2.75757778 # occ.  2.00000000

ion      s     py     pz     px    dxy    dyz    dz2    dxz  x2-y2    tot
    1  0.210  0.019  0.010  0.002  0.000  0.000  0.000  0.000  0.000  0.241
    2  0.210  0.019  0.010  0.002  0.000  0.000  0.000  0.000  0.000  0.241
tot    0.419  0.038  0.021  0.003  0.000  0.000  0.000  0.000  0.000  0.481

band     2 # energy   -1.24467094 # occ.  2.00000000

ion      s     py     pz     px    dxy    dyz    dz2    dxz  x2-y2    tot
    1  0.190  0.023  0.029  0.002  0.000  0.000  0.000  0.000  0.000  0.244
    2  0.190  0.023  0.029  0.002  0.000  0.000  0.000  0.000  0.000  0.244
tot    0.381  0.045  0.058  0.005  0.000  0.000  0.000  0.000  0.000  0.488

band     3 # energy    1.54008132 # occ.  2.00000000

ion      s     py     pz     px    dxy    dyz    dz2    dxz  x2-y2    tot
    1  0.003  0.035  0.061  0.058  0.000  0.000  0.000  0.000  0.000  0.157
    2  0.003  0.035  0.061  0.058  0.000  0.000  0.000  0.000  0.000  0.157
tot    0.007  0.069  0.123  0.116  0.000  0.000  0.000  0.000  0.000  0.315

band     4 # energy    2.54931172 # occ.  2.00000000

ion      s     py     pz     px    dxy    dyz    dz2    dxz  x2-y2    tot
    1  0.002  0.058  0.031  0.080  0.000  0.000  0.000  0.000  0.000  0.172
    2  0.002  0.058  0.031  0.080  0.000  0.000  0.000  0.000  0.000  0.172
tot    0.004  0.117  0.063  0.160  0.000  0.000  0.000  0.000  0.000  0.343

band     5 # energy    9.16679971 # occ.  0.00000000

ion      s     py     pz     px    dxy    dyz    dz2    dxz  x2-y2    tot
    1  0.022  0.010  0.019  0.056  0.000  0.000  0.000  0.000  0.000  0.107
    2  0.022  0.010  0.019  0.056  0.000  0.000  0.000  0.000  0.000  0.107
tot    0.044  0.019  0.039  0.112  0.000  0.000  0.000  0.000  0.000  0.215

band     6 # energy    9.85410648 # occ.  0.00000000

ion      s     py     pz     px    dxy    dyz    dz2    dxz  x2-y2    tot
    1  0.020  0.021  0.023  0.055  0.000  0.000  0.000  0.000  0.000  0.119
    2  0.020  0.021  0.023  0.055  0.000  0.000  0.000  0.000  0.000  0.119
tot    0.039  0.042  0.047  0.109  0.000  0.000  0.000  0.000  0.000  0.237

band     7 # energy   10.34361836 # occ.  0.00000000

ion      s     py     pz     px    dxy    dyz    dz2    dxz  x2-y2    tot
    1  0.052  0.029  0.036  0.023  0.000  0.000  0.000  0.000  0.000  0.139
    2  0.052  0.029  0.036  0.023  0.000  0.000  0.000  0.000  0.000  0.139
tot    0.104  0.058  0.071  0.046  0.000  0.000  0.000  0.000  0.000  0.279

band     8 # energy   11.95023741 # occ.  0.00000000

ion      s     py     pz     px    dxy    dyz    dz2    dxz  x2-y2    tot
    1  0.029  0.050  0.029  0.031  0.000  0.000  0.000  0.000  0.000  0.138
    2  0.029  0.050  0.029  0.031  0.000  0.000  0.000  0.000  0.000  0.138
tot    0.058  0.100  0.058  0.061  0.000  0.000  0.000  0.000  0.000  0.277


 k-point   216 :    0.42307692 0.23076923 0.65384615     weight = 0.00416667

band     1 # energy   -2.75788933 # occ.  2.00000000

ion      s     py     pz     px    dxy    dyz    dz2    dxz  x2-y2    tot
    1  0.209  0.020  0.010  0.002  0.000  0.000  0.000  0.000  0.000  0.240
    2  0.209  0.020  0.010  0.002  0.000  0.000  0.000  0.000  0.000  0.240
tot    0.418  0.041  0.019  0.003  0.000  0.000  0.000  0.000  0.000  0.481

band     2 # energy   -1.24066240 # occ.  2.00000000

ion      s     py     pz     px    dxy    dyz    dz2    dxz  x2-y2    tot
    1  0.191  0.025  0.027  0.002  0.000  0.000  0.000  0.000  0.000  0.245
    2  0.191  0.025  0.027  0.002  0.000  0.000  0.000  0.000  0.000  0.245
tot    0.383  0.049  0.054  0.004  0.000  0.000  0.000  0.000  0.000  0.490

band     3 # energy    1.58042716 # occ.  2.00000000

ion      s     py     pz     px    dxy    dyz    dz2    dxz  x2-y2    tot
    1  0.004  0.033  0.063  0.059  0.000  0.000  0.000  0.000  0.000  0.158
    2  0.004  0.033  0.063  0.059  0.000  0.000  0.000  0.000  0.000  0.158
tot    0.007  0.066  0.126  0.117  0.000  0.000  0.000  0.000  0.000  0.316

band     4 # energy    2.49716098 # occ.  2.00000000

ion      s     py     pz     px    dxy    dyz    dz2    dxz  x2-y2    tot
    1  0.001  0.055  0.035  0.080  0.000  0.000  0.000  0.000  0.000  0.170
    2  0.001  0.055  0.035  0.080  0.000  0.000  0.000  0.000  0.000  0.170
tot    0.003  0.110  0.069  0.159  0.000  0.000  0.000  0.000  0.000  0.341

band     5 # energy    9.38160679 # occ.  0.00000000

ion      s     py     pz     px    dxy    dyz    dz2    dxz  x2-y2    tot
    1  0.012  0.006  0.012  0.068  0.000  0.000  0.000  0.000  0.000  0.098
    2  0.012  0.006  0.012  0.068  0.000  0.000  0.000  0.000  0.000  0.098
tot    0.024  0.011  0.023  0.136  0.000  0.000  0.000  0.000  0.000  0.195

band     6 # energy    9.64186357 # occ.  0.00000000

ion      s     py     pz     px    dxy    dyz    dz2    dxz  x2-y2    tot
    1  0.022  0.023  0.024  0.051  0.000  0.000  0.000  0.000  0.000  0.120
    2  0.022  0.023  0.024  0.051  0.000  0.000  0.000  0.000  0.000  0.120
tot    0.044  0.045  0.048  0.102  0.000  0.000  0.000  0.000  0.000  0.239

band     7 # energy   10.15241361 # occ.  0.00000000

ion      s     py     pz     px    dxy    dyz    dz2    dxz  x2-y2    tot
    1  0.061  0.034  0.042  0.012  0.000  0.000  0.000  0.000  0.000  0.150
    2  0.061  0.034  0.042  0.012  0.000  0.000  0.000  0.000  0.000  0.150
tot    0.122  0.068  0.085  0.024  0.000  0.000  0.000  0.000  0.000  0.299

band     8 # energy   12.11691313 # occ.  0.00000000

ion      s     py     pz     px    dxy    dyz    dz2    dxz  x2-y2    tot
    1  0.028  0.047  0.028  0.034  0.000  0.000  0.000  0.000  0.000  0.137
    2  0.028  0.047  0.028  0.034  0.000  0.000  0.000  0.000  0.000  0.137
tot    0.055  0.095  0.057  0.068  0.000  0.000  0.000  0.000  0.000  0.275


 k-point   217 :    0.42628205 0.22115385 0.64743590     weight = 0.00416667

band     1 # energy   -2.75612196 # occ.  2.00000000

ion      s     py     pz     px    dxy    dyz    dz2    dxz  x2-y2    tot
    1  0.208  0.021  0.009  0.001  0.000  0.000  0.000  0.000  0.000  0.240
    2  0.208  0.021  0.009  0.001  0.000  0.000  0.000  0.000  0.000  0.240
tot    0.416  0.043  0.018  0.003  0.000  0.000  0.000  0.000  0.000  0.480

band     2 # energy   -1.24068214 # occ.  2.00000000

ion      s     py     pz     px    dxy    dyz    dz2    dxz  x2-y2    tot
    1  0.192  0.026  0.025  0.002  0.000  0.000  0.000  0.000  0.000  0.245
    2  0.192  0.026  0.025  0.002  0.000  0.000  0.000  0.000  0.000  0.245
tot    0.384  0.053  0.050  0.003  0.000  0.000  0.000  0.000  0.000  0.491

band     3 # energy    1.62444990 # occ.  2.00000000

ion      s     py     pz     px    dxy    dyz    dz2    dxz  x2-y2    tot
    1  0.004  0.031  0.064  0.059  0.000  0.000  0.000  0.000  0.000  0.159
    2  0.004  0.031  0.064  0.059  0.000  0.000  0.000  0.000  0.000  0.159
tot    0.008  0.063  0.128  0.119  0.000  0.000  0.000  0.000  0.000  0.318

band     4 # energy    2.45153263 # occ.  2.00000000

ion      s     py     pz     px    dxy    dyz    dz2    dxz  x2-y2    tot
    1  0.001  0.051  0.038  0.079  0.000  0.000  0.000  0.000  0.000  0.169
    2  0.001  0.051  0.038  0.079  0.000  0.000  0.000  0.000  0.000  0.169
tot    0.002  0.102  0.076  0.159  0.000  0.000  0.000  0.000  0.000  0.339

band     5 # energy    9.43064887 # occ.  0.00000000

ion      s     py     pz     px    dxy    dyz    dz2    dxz  x2-y2    tot
    1  0.024  0.024  0.024  0.048  0.000  0.000  0.000  0.000  0.000  0.120
    2  0.024  0.024  0.024  0.048  0.000  0.000  0.000  0.000  0.000  0.120
tot    0.048  0.047  0.049  0.097  0.000  0.000  0.000  0.000  0.000  0.240

band     6 # energy    9.51394580 # occ.  0.00000000

ion      s     py     pz     px    dxy    dyz    dz2    dxz  x2-y2    tot
    1  0.000  0.000  0.001  0.080  0.000  0.000  0.000  0.000  0.000  0.082
    2  0.000  0.000  0.001  0.080  0.000  0.000  0.000  0.000  0.000  0.082
tot    0.000  0.000  0.002  0.161  0.000  0.000  0.000  0.000  0.000  0.164

band     7 # energy   10.05350402 # occ.  0.00000000

ion      s     py     pz     px    dxy    dyz    dz2    dxz  x2-y2    tot
    1  0.072  0.041  0.053  0.000  0.000  0.000  0.000  0.000  0.000  0.166
    2  0.072  0.041  0.053  0.000  0.000  0.000  0.000  0.000  0.000  0.166
tot    0.144  0.082  0.105  0.000  0.000  0.000  0.000  0.000  0.000  0.332

band     8 # energy   12.28806441 # occ.  0.00000000

ion      s     py     pz     px    dxy    dyz    dz2    dxz  x2-y2    tot
    1  0.026  0.045  0.028  0.037  0.000  0.000  0.000  0.000  0.000  0.137
    2  0.026  0.045  0.028  0.037  0.000  0.000  0.000  0.000  0.000  0.137
tot    0.053  0.091  0.057  0.074  0.000  0.000  0.000  0.000  0.000  0.274


 k-point   218 :    0.42948718 0.21153846 0.64102564     weight = 0.00416667

band     1 # energy   -2.75225538 # occ.  2.00000000

ion      s     py     pz     px    dxy    dyz    dz2    dxz  x2-y2    tot
    1  0.207  0.023  0.008  0.001  0.000  0.000  0.000  0.000  0.000  0.240
    2  0.207  0.023  0.008  0.001  0.000  0.000  0.000  0.000  0.000  0.240
tot    0.415  0.045  0.016  0.003  0.000  0.000  0.000  0.000  0.000  0.479

band     2 # energy   -1.24496893 # occ.  2.00000000

ion      s     py     pz     px    dxy    dyz    dz2    dxz  x2-y2    tot
    1  0.193  0.028  0.023  0.001  0.000  0.000  0.000  0.000  0.000  0.246
    2  0.193  0.028  0.023  0.001  0.000  0.000  0.000  0.000  0.000  0.246
tot    0.386  0.057  0.046  0.003  0.000  0.000  0.000  0.000  0.000  0.491

band     3 # energy    1.67199295 # occ.  2.00000000

ion      s     py     pz     px    dxy    dyz    dz2    dxz  x2-y2    tot
    1  0.004  0.030  0.066  0.060  0.000  0.000  0.000  0.000  0.000  0.160
    2  0.004  0.030  0.066  0.060  0.000  0.000  0.000  0.000  0.000  0.160
tot    0.008  0.060  0.131  0.121  0.000  0.000  0.000  0.000  0.000  0.320

band     4 # energy    2.41300122 # occ.  2.00000000

ion      s     py     pz     px    dxy    dyz    dz2    dxz  x2-y2    tot
    1  0.001  0.048  0.041  0.079  0.000  0.000  0.000  0.000  0.000  0.169
    2  0.001  0.048  0.041  0.079  0.000  0.000  0.000  0.000  0.000  0.169
tot    0.001  0.095  0.083  0.158  0.000  0.000  0.000  0.000  0.000  0.337

band     5 # energy    9.22148556 # occ.  0.00000000

ion      s     py     pz     px    dxy    dyz    dz2    dxz  x2-y2    tot
    1  0.026  0.024  0.024  0.046  0.000  0.000  0.000  0.000  0.000  0.120
    2  0.026  0.024  0.024  0.046  0.000  0.000  0.000  0.000  0.000  0.120
tot    0.052  0.049  0.049  0.091  0.000  0.000  0.000  0.000  0.000  0.240

band     6 # energy    9.45832104 # occ.  0.00000000

ion      s     py     pz     px    dxy    dyz    dz2    dxz  x2-y2    tot
    1  0.009  0.005  0.003  0.069  0.000  0.000  0.000  0.000  0.000  0.086
    2  0.009  0.005  0.003  0.069  0.000  0.000  0.000  0.000  0.000  0.086
tot    0.017  0.010  0.007  0.138  0.000  0.000  0.000  0.000  0.000  0.172

band     7 # energy   10.15200686 # occ.  0.00000000

ion      s     py     pz     px    dxy    dyz    dz2    dxz  x2-y2    tot
    1  0.063  0.038  0.049  0.012  0.000  0.000  0.000  0.000  0.000  0.162
    2  0.063  0.038  0.049  0.012  0.000  0.000  0.000  0.000  0.000  0.162
tot    0.126  0.075  0.099  0.024  0.000  0.000  0.000  0.000  0.000  0.324

band     8 # energy   12.46274022 # occ.  0.00000000

ion      s     py     pz     px    dxy    dyz    dz2    dxz  x2-y2    tot
    1  0.025  0.044  0.028  0.040  0.000  0.000  0.000  0.000  0.000  0.137
    2  0.025  0.044  0.028  0.040  0.000  0.000  0.000  0.000  0.000  0.137
tot    0.051  0.087  0.057  0.080  0.000  0.000  0.000  0.000  0.000  0.275


 k-point   219 :    0.43269231 0.20192308 0.63461538     weight = 0.00416667

band     1 # energy   -2.74626915 # occ.  2.00000000

ion      s     py     pz     px    dxy    dyz    dz2    dxz  x2-y2    tot
    1  0.207  0.024  0.008  0.001  0.000  0.000  0.000  0.000  0.000  0.239
    2  0.207  0.024  0.008  0.001  0.000  0.000  0.000  0.000  0.000  0.239
tot    0.413  0.048  0.015  0.002  0.000  0.000  0.000  0.000  0.000  0.478

band     2 # energy   -1.25370877 # occ.  2.00000000

ion      s     py     pz     px    dxy    dyz    dz2    dxz  x2-y2    tot
    1  0.194  0.030  0.021  0.001  0.000  0.000  0.000  0.000  0.000  0.246
    2  0.194  0.030  0.021  0.001  0.000  0.000  0.000  0.000  0.000  0.246
tot    0.388  0.060  0.042  0.002  0.000  0.000  0.000  0.000  0.000  0.492

band     3 # energy    1.72288119 # occ.  2.00000000

ion      s     py     pz     px    dxy    dyz    dz2    dxz  x2-y2    tot
    1  0.004  0.028  0.067  0.061  0.000  0.000  0.000  0.000  0.000  0.161
    2  0.004  0.028  0.067  0.061  0.000  0.000  0.000  0.000  0.000  0.161
tot    0.009  0.057  0.134  0.123  0.000  0.000  0.000  0.000  0.000  0.322

band     4 # energy    2.38199581 # occ.  2.00000000

ion      s     py     pz     px    dxy    dyz    dz2    dxz  x2-y2    tot
    1  0.000  0.044  0.045  0.079  0.000  0.000  0.000  0.000  0.000  0.168
    2  0.000  0.044  0.045  0.079  0.000  0.000  0.000  0.000  0.000  0.168
tot    0.001  0.088  0.089  0.158  0.000  0.000  0.000  0.000  0.000  0.336

band     5 # energy    9.01509801 # occ.  0.00000000

ion      s     py     pz     px    dxy    dyz    dz2    dxz  x2-y2    tot
    1  0.028  0.025  0.024  0.043  0.000  0.000  0.000  0.000  0.000  0.120
    2  0.028  0.025  0.024  0.043  0.000  0.000  0.000  0.000  0.000  0.120
tot    0.055  0.050  0.048  0.086  0.000  0.000  0.000  0.000  0.000  0.240

band     6 # energy    9.29105296 # occ.  0.00000000

ion      s     py     pz     px    dxy    dyz    dz2    dxz  x2-y2    tot
    1  0.019  0.011  0.009  0.055  0.000  0.000  0.000  0.000  0.000  0.095
    2  0.019  0.011  0.009  0.055  0.000  0.000  0.000  0.000  0.000  0.095
tot    0.039  0.022  0.019  0.111  0.000  0.000  0.000  0.000  0.000  0.190

band     7 # energy   10.37130083 # occ.  0.00000000

ion      s     py     pz     px    dxy    dyz    dz2    dxz  x2-y2    tot
    1  0.051  0.033  0.043  0.026  0.000  0.000  0.000  0.000  0.000  0.153
    2  0.051  0.033  0.043  0.026  0.000  0.000  0.000  0.000  0.000  0.153
tot    0.103  0.065  0.086  0.052  0.000  0.000  0.000  0.000  0.000  0.306

band     8 # energy   12.64030675 # occ.  0.00000000

ion      s     py     pz     px    dxy    dyz    dz2    dxz  x2-y2    tot
    1  0.024  0.042  0.029  0.043  0.000  0.000  0.000  0.000  0.000  0.138
    2  0.024  0.042  0.029  0.043  0.000  0.000  0.000  0.000  0.000  0.138
tot    0.049  0.084  0.058  0.085  0.000  0.000  0.000  0.000  0.000  0.276


 k-point   220 :    0.43589744 0.19230769 0.62820513     weight = 0.00416667

band     1 # energy   -2.73814434 # occ.  2.00000000

ion      s     py     pz     px    dxy    dyz    dz2    dxz  x2-y2    tot
    1  0.206  0.025  0.007  0.001  0.000  0.000  0.000  0.000  0.000  0.239
    2  0.206  0.025  0.007  0.001  0.000  0.000  0.000  0.000  0.000  0.239
tot    0.412  0.050  0.014  0.002  0.000  0.000  0.000  0.000  0.000  0.478

band     2 # energy   -1.26700866 # occ.  2.00000000

ion      s     py     pz     px    dxy    dyz    dz2    dxz  x2-y2    tot
    1  0.194  0.032  0.019  0.001  0.000  0.000  0.000  0.000  0.000  0.246
    2  0.194  0.032  0.019  0.001  0.000  0.000  0.000  0.000  0.000  0.246
tot    0.389  0.064  0.038  0.002  0.000  0.000  0.000  0.000  0.000  0.492

band     3 # energy    1.77691544 # occ.  2.00000000

ion      s     py     pz     px    dxy    dyz    dz2    dxz  x2-y2    tot
    1  0.005  0.027  0.068  0.062  0.000  0.000  0.000  0.000  0.000  0.162
    2  0.005  0.027  0.068  0.062  0.000  0.000  0.000  0.000  0.000  0.162
tot    0.009  0.053  0.137  0.125  0.000  0.000  0.000  0.000  0.000  0.324

band     4 # energy    2.35879103 # occ.  2.00000000

ion      s     py     pz     px    dxy    dyz    dz2    dxz  x2-y2    tot
    1  0.000  0.040  0.048  0.079  0.000  0.000  0.000  0.000  0.000  0.168
    2  0.000  0.040  0.048  0.079  0.000  0.000  0.000  0.000  0.000  0.168
tot    0.000  0.081  0.096  0.159  0.000  0.000  0.000  0.000  0.000  0.336

band     5 # energy    8.81203927 # occ.  0.00000000

ion      s     py     pz     px    dxy    dyz    dz2    dxz  x2-y2    tot
    1  0.029  0.026  0.024  0.041  0.000  0.000  0.000  0.000  0.000  0.119
    2  0.029  0.026  0.024  0.041  0.000  0.000  0.000  0.000  0.000  0.119
tot    0.058  0.051  0.048  0.082  0.000  0.000  0.000  0.000  0.000  0.239

band     6 # energy    9.09544201 # occ.  0.00000000

ion      s     py     pz     px    dxy    dyz    dz2    dxz  x2-y2    tot
    1  0.025  0.014  0.013  0.047  0.000  0.000  0.000  0.000  0.000  0.100
    2  0.025  0.014  0.013  0.047  0.000  0.000  0.000  0.000  0.000  0.100
tot    0.051  0.028  0.025  0.095  0.000  0.000  0.000  0.000  0.000  0.199

band     7 # energy   10.62784404 # occ.  0.00000000

ion      s     py     pz     px    dxy    dyz    dz2    dxz  x2-y2    tot
    1  0.045  0.030  0.039  0.034  0.000  0.000  0.000  0.000  0.000  0.148
    2  0.045  0.030  0.039  0.034  0.000  0.000  0.000  0.000  0.000  0.148
tot    0.089  0.061  0.078  0.069  0.000  0.000  0.000  0.000  0.000  0.297

band     8 # energy   12.82035510 # occ.  0.00000000

ion      s     py     pz     px    dxy    dyz    dz2    dxz  x2-y2    tot
    1  0.023  0.040  0.030  0.045  0.000  0.000  0.000  0.000  0.000  0.139
    2  0.023  0.040  0.030  0.045  0.000  0.000  0.000  0.000  0.000  0.139
tot    0.047  0.081  0.059  0.091  0.000  0.000  0.000  0.000  0.000  0.278


 k-point   221 :    0.43910256 0.18269231 0.62179487     weight = 0.00416667

band     1 # energy   -2.72786732 # occ.  2.00000000

ion      s     py     pz     px    dxy    dyz    dz2    dxz  x2-y2    tot
    1  0.205  0.026  0.006  0.001  0.000  0.000  0.000  0.000  0.000  0.239
    2  0.205  0.026  0.006  0.001  0.000  0.000  0.000  0.000  0.000  0.239
tot    0.410  0.052  0.013  0.002  0.000  0.000  0.000  0.000  0.000  0.477

band     2 # energy   -1.28490194 # occ.  2.00000000

ion      s     py     pz     px    dxy    dyz    dz2    dxz  x2-y2    tot
    1  0.195  0.034  0.017  0.001  0.000  0.000  0.000  0.000  0.000  0.246
    2  0.195  0.034  0.017  0.001  0.000  0.000  0.000  0.000  0.000  0.246
tot    0.390  0.068  0.034  0.002  0.000  0.000  0.000  0.000  0.000  0.493

band     3 # energy    1.83387557 # occ.  2.00000000

ion      s     py     pz     px    dxy    dyz    dz2    dxz  x2-y2    tot
    1  0.005  0.025  0.070  0.064  0.000  0.000  0.000  0.000  0.000  0.163
    2  0.005  0.025  0.070  0.064  0.000  0.000  0.000  0.000  0.000  0.163
tot    0.009  0.050  0.140  0.127  0.000  0.000  0.000  0.000  0.000  0.327

band     4 # energy    2.34352072 # occ.  2.00000000

ion      s     py     pz     px    dxy    dyz    dz2    dxz  x2-y2    tot
    1  0.000  0.037  0.052  0.080  0.000  0.000  0.000  0.000  0.000  0.168
    2  0.000  0.037  0.052  0.080  0.000  0.000  0.000  0.000  0.000  0.168
tot    0.000  0.074  0.103  0.159  0.000  0.000  0.000  0.000  0.000  0.336

band     5 # energy    8.61281526 # occ.  0.00000000

ion      s     py     pz     px    dxy    dyz    dz2    dxz  x2-y2    tot
    1  0.031  0.026  0.023  0.039  0.000  0.000  0.000  0.000  0.000  0.119
    2  0.031  0.026  0.023  0.039  0.000  0.000  0.000  0.000  0.000  0.119
tot    0.061  0.052  0.046  0.077  0.000  0.000  0.000  0.000  0.000  0.237

band     6 # energy    8.89366291 # occ.  0.00000000

ion      s     py     pz     px    dxy    dyz    dz2    dxz  x2-y2    tot
    1  0.029  0.016  0.014  0.042  0.000  0.000  0.000  0.000  0.000  0.102
    2  0.029  0.016  0.014  0.042  0.000  0.000  0.000  0.000  0.000  0.102
tot    0.058  0.033  0.028  0.084  0.000  0.000  0.000  0.000  0.000  0.204

band     7 # energy   10.89936897 # occ.  0.00000000

ion      s     py     pz     px    dxy    dyz    dz2    dxz  x2-y2    tot
    1  0.040  0.029  0.037  0.040  0.000  0.000  0.000  0.000  0.000  0.146
    2  0.040  0.029  0.037  0.040  0.000  0.000  0.000  0.000  0.000  0.146
tot    0.080  0.058  0.074  0.080  0.000  0.000  0.000  0.000  0.000  0.292

band     8 # energy   13.00226462 # occ.  0.00000000

ion      s     py     pz     px    dxy    dyz    dz2    dxz  x2-y2    tot
    1  0.023  0.039  0.031  0.048  0.000  0.000  0.000  0.000  0.000  0.140
    2  0.023  0.039  0.031  0.048  0.000  0.000  0.000  0.000  0.000  0.140
tot    0.045  0.078  0.061  0.096  0.000  0.000  0.000  0.000  0.000  0.280


 k-point   222 :    0.44230769 0.17307692 0.61538462     weight = 0.00416667

band     1 # energy   -2.71542163 # occ.  2.00000000

ion      s     py     pz     px    dxy    dyz    dz2    dxz  x2-y2    tot
    1  0.204  0.027  0.006  0.001  0.000  0.000  0.000  0.000  0.000  0.238
    2  0.204  0.027  0.006  0.001  0.000  0.000  0.000  0.000  0.000  0.238
tot    0.409  0.055  0.011  0.002  0.000  0.000  0.000  0.000  0.000  0.476

band     2 # energy   -1.30731264 # occ.  2.00000000

ion      s     py     pz     px    dxy    dyz    dz2    dxz  x2-y2    tot
    1  0.195  0.036  0.015  0.001  0.000  0.000  0.000  0.000  0.000  0.246
    2  0.195  0.036  0.015  0.001  0.000  0.000  0.000  0.000  0.000  0.246
tot    0.390  0.071  0.030  0.001  0.000  0.000  0.000  0.000  0.000  0.492

band     3 # energy    1.89350377 # occ.  2.00000000

ion      s     py     pz     px    dxy    dyz    dz2    dxz  x2-y2    tot
    1  0.005  0.023  0.071  0.065  0.000  0.000  0.000  0.000  0.000  0.165
    2  0.005  0.023  0.071  0.065  0.000  0.000  0.000  0.000  0.000  0.165
tot    0.010  0.047  0.143  0.130  0.000  0.000  0.000  0.000  0.000  0.329

band     4 # energy    2.33616084 # occ.  2.00000000

ion      s     py     pz     px    dxy    dyz    dz2    dxz  x2-y2    tot
    1  0.000  0.034  0.055  0.080  0.000  0.000  0.000  0.000  0.000  0.169
    2  0.000  0.034  0.055  0.080  0.000  0.000  0.000  0.000  0.000  0.169
tot    0.000  0.067  0.110  0.160  0.000  0.000  0.000  0.000  0.000  0.337

band     5 # energy    8.41786912 # occ.  0.00000000

ion      s     py     pz     px    dxy    dyz    dz2    dxz  x2-y2    tot
    1  0.032  0.027  0.022  0.036  0.000  0.000  0.000  0.000  0.000  0.118
    2  0.032  0.027  0.022  0.036  0.000  0.000  0.000  0.000  0.000  0.118
tot    0.064  0.054  0.045  0.073  0.000  0.000  0.000  0.000  0.000  0.236

band     6 # energy    8.69216876 # occ.  0.00000000

ion      s     py     pz     px    dxy    dyz    dz2    dxz  x2-y2    tot
    1  0.032  0.018  0.015  0.038  0.000  0.000  0.000  0.000  0.000  0.103
    2  0.032  0.018  0.015  0.038  0.000  0.000  0.000  0.000  0.000  0.103
tot    0.064  0.036  0.030  0.077  0.000  0.000  0.000  0.000  0.000  0.206

band     7 # energy   11.17909908 # occ.  0.00000000

ion      s     py     pz     px    dxy    dyz    dz2    dxz  x2-y2    tot
    1  0.037  0.028  0.036  0.044  0.000  0.000  0.000  0.000  0.000  0.145
    2  0.037  0.028  0.036  0.044  0.000  0.000  0.000  0.000  0.000  0.145
tot    0.073  0.057  0.072  0.089  0.000  0.000  0.000  0.000  0.000  0.290

band     8 # energy   13.18565995 # occ.  0.00000000

ion      s     py     pz     px    dxy    dyz    dz2    dxz  x2-y2    tot
    1  0.022  0.037  0.032  0.051  0.000  0.000  0.000  0.000  0.000  0.142
    2  0.022  0.037  0.032  0.051  0.000  0.000  0.000  0.000  0.000  0.142
tot    0.043  0.074  0.064  0.102  0.000  0.000  0.000  0.000  0.000  0.285


 k-point   223 :    0.44551282 0.16346154 0.60897436     weight = 0.00416667

band     1 # energy   -2.70078946 # occ.  2.00000000

ion      s     py     pz     px    dxy    dyz    dz2    dxz  x2-y2    tot
    1  0.204  0.028  0.005  0.001  0.000  0.000  0.000  0.000  0.000  0.238
    2  0.204  0.028  0.005  0.001  0.000  0.000  0.000  0.000  0.000  0.238
tot    0.407  0.057  0.010  0.001  0.000  0.000  0.000  0.000  0.000  0.476

band     2 # energy   -1.33410343 # occ.  2.00000000

ion      s     py     pz     px    dxy    dyz    dz2    dxz  x2-y2    tot
    1  0.195  0.037  0.013  0.000  0.000  0.000  0.000  0.000  0.000  0.246
    2  0.195  0.037  0.013  0.000  0.000  0.000  0.000  0.000  0.000  0.246
tot    0.391  0.075  0.026  0.001  0.000  0.000  0.000  0.000  0.000  0.492

band     3 # energy    1.95551979 # occ.  2.00000000

ion      s     py     pz     px    dxy    dyz    dz2    dxz  x2-y2    tot
    1  0.005  0.022  0.073  0.066  0.000  0.000  0.000  0.000  0.000  0.166
    2  0.005  0.022  0.073  0.066  0.000  0.000  0.000  0.000  0.000  0.166
tot    0.010  0.044  0.146  0.133  0.000  0.000  0.000  0.000  0.000  0.332

band     4 # energy    2.33654072 # occ.  2.00000000

ion      s     py     pz     px    dxy    dyz    dz2    dxz  x2-y2    tot
    1  0.000  0.030  0.058  0.081  0.000  0.000  0.000  0.000  0.000  0.169
    2  0.000  0.030  0.058  0.081  0.000  0.000  0.000  0.000  0.000  0.169
tot    0.000  0.061  0.116  0.161  0.000  0.000  0.000  0.000  0.000  0.338

band     5 # energy    8.22766827 # occ.  0.00000000

ion      s     py     pz     px    dxy    dyz    dz2    dxz  x2-y2    tot
    1  0.034  0.027  0.022  0.034  0.000  0.000  0.000  0.000  0.000  0.117
    2  0.034  0.027  0.022  0.034  0.000  0.000  0.000  0.000  0.000  0.117
tot    0.067  0.055  0.043  0.068  0.000  0.000  0.000  0.000  0.000  0.234

band     6 # energy    8.49350735 # occ.  0.00000000

ion      s     py     pz     px    dxy    dyz    dz2    dxz  x2-y2    tot
    1  0.034  0.019  0.015  0.035  0.000  0.000  0.000  0.000  0.000  0.103
    2  0.034  0.019  0.015  0.035  0.000  0.000  0.000  0.000  0.000  0.103
tot    0.068  0.039  0.030  0.070  0.000  0.000  0.000  0.000  0.000  0.207

band     7 # energy   11.46452467 # occ.  0.00000000

ion      s     py     pz     px    dxy    dyz    dz2    dxz  x2-y2    tot
    1  0.034  0.028  0.035  0.048  0.000  0.000  0.000  0.000  0.000  0.145
    2  0.034  0.028  0.035  0.048  0.000  0.000  0.000  0.000  0.000  0.145
tot    0.068  0.056  0.070  0.096  0.000  0.000  0.000  0.000  0.000  0.289

band     8 # energy   13.37011063 # occ.  0.00000000

ion      s     py     pz     px    dxy    dyz    dz2    dxz  x2-y2    tot
    1  0.021  0.035  0.034  0.054  0.000  0.000  0.000  0.000  0.000  0.145
    2  0.021  0.035  0.034  0.054  0.000  0.000  0.000  0.000  0.000  0.145
tot    0.042  0.071  0.068  0.109  0.000  0.000  0.000  0.000  0.000  0.290


 k-point   224 :    0.44871795 0.15384615 0.60256410     weight = 0.00416667

band     1 # energy   -2.68397759 # occ.  2.00000000

ion      s     py     pz     px    dxy    dyz    dz2    dxz  x2-y2    tot
    1  0.203  0.030  0.005  0.001  0.000  0.000  0.000  0.000  0.000  0.238
    2  0.203  0.030  0.005  0.001  0.000  0.000  0.000  0.000  0.000  0.238
tot    0.406  0.059  0.009  0.001  0.000  0.000  0.000  0.000  0.000  0.475

band     2 # energy   -1.36505864 # occ.  2.00000000

ion      s     py     pz     px    dxy    dyz    dz2    dxz  x2-y2    tot
    1  0.195  0.039  0.011  0.000  0.000  0.000  0.000  0.000  0.000  0.246
    2  0.195  0.039  0.011  0.000  0.000  0.000  0.000  0.000  0.000  0.246
tot    0.391  0.078  0.022  0.001  0.000  0.000  0.000  0.000  0.000  0.491

band     3 # energy    2.01958345 # occ.  2.00000000

ion      s     py     pz     px    dxy    dyz    dz2    dxz  x2-y2    tot
    1  0.005  0.020  0.075  0.068  0.000  0.000  0.000  0.000  0.000  0.168
    2  0.005  0.020  0.075  0.068  0.000  0.000  0.000  0.000  0.000  0.168
tot    0.010  0.041  0.149  0.136  0.000  0.000  0.000  0.000  0.000  0.335

band     4 # energy    2.34434570 # occ.  2.00000000

ion      s     py     pz     px    dxy    dyz    dz2    dxz  x2-y2    tot
    1  0.000  0.027  0.061  0.081  0.000  0.000  0.000  0.000  0.000  0.170
    2  0.000  0.027  0.061  0.081  0.000  0.000  0.000  0.000  0.000  0.170
tot    0.000  0.055  0.123  0.162  0.000  0.000  0.000  0.000  0.000  0.340

band     5 # energy    8.04262230 # occ.  0.00000000

ion      s     py     pz     px    dxy    dyz    dz2    dxz  x2-y2    tot
    1  0.035  0.028  0.021  0.032  0.000  0.000  0.000  0.000  0.000  0.116
    2  0.035  0.028  0.021  0.032  0.000  0.000  0.000  0.000  0.000  0.116
tot    0.070  0.056  0.041  0.064  0.000  0.000  0.000  0.000  0.000  0.231

band     6 # energy    8.29898052 # occ.  0.00000000

ion      s     py     pz     px    dxy    dyz    dz2    dxz  x2-y2    tot
    1  0.035  0.021  0.015  0.032  0.000  0.000  0.000  0.000  0.000  0.103
    2  0.035  0.021  0.015  0.032  0.000  0.000  0.000  0.000  0.000  0.103
tot    0.071  0.041  0.030  0.064  0.000  0.000  0.000  0.000  0.000  0.206

band     7 # energy   11.75403344 # occ.  0.00000000

ion      s     py     pz     px    dxy    dyz    dz2    dxz  x2-y2    tot
    1  0.031  0.027  0.035  0.051  0.000  0.000  0.000  0.000  0.000  0.145
    2  0.031  0.027  0.035  0.051  0.000  0.000  0.000  0.000  0.000  0.145
tot    0.063  0.055  0.070  0.102  0.000  0.000  0.000  0.000  0.000  0.289

band     8 # energy   13.55502575 # occ.  0.00000000

ion      s     py     pz     px    dxy    dyz    dz2    dxz  x2-y2    tot
    1  0.020  0.034  0.036  0.058  0.000  0.000  0.000  0.000  0.000  0.148
    2  0.020  0.034  0.036  0.058  0.000  0.000  0.000  0.000  0.000  0.148
tot    0.040  0.067  0.072  0.116  0.000  0.000  0.000  0.000  0.000  0.295


 k-point   225 :    0.45192308 0.14423077 0.59615385     weight = 0.00416667

band     1 # energy   -2.66497424 # occ.  2.00000000

ion      s     py     pz     px    dxy    dyz    dz2    dxz  x2-y2    tot
    1  0.202  0.031  0.004  0.000  0.000  0.000  0.000  0.000  0.000  0.237
    2  0.202  0.031  0.004  0.000  0.000  0.000  0.000  0.000  0.000  0.237
tot    0.404  0.061  0.008  0.001  0.000  0.000  0.000  0.000  0.000  0.475

band     2 # energy   -1.39988681 # occ.  2.00000000

ion      s     py     pz     px    dxy    dyz    dz2    dxz  x2-y2    tot
    1  0.195  0.040  0.010  0.000  0.000  0.000  0.000  0.000  0.000  0.245
    2  0.195  0.040  0.010  0.000  0.000  0.000  0.000  0.000  0.000  0.245
tot    0.391  0.080  0.019  0.000  0.000  0.000  0.000  0.000  0.000  0.491

band     3 # energy    2.08532992 # occ.  2.00000000

ion      s     py     pz     px    dxy    dyz    dz2    dxz  x2-y2    tot
    1  0.005  0.019  0.076  0.069  0.000  0.000  0.000  0.000  0.000  0.169
    2  0.005  0.019  0.076  0.069  0.000  0.000  0.000  0.000  0.000  0.169
tot    0.010  0.037  0.152  0.139  0.000  0.000  0.000  0.000  0.000  0.338

band     4 # energy    2.35914068 # occ.  2.00000000

ion      s     py     pz     px    dxy    dyz    dz2    dxz  x2-y2    tot
    1  0.000  0.024  0.065  0.082  0.000  0.000  0.000  0.000  0.000  0.171
    2  0.000  0.024  0.065  0.082  0.000  0.000  0.000  0.000  0.000  0.171
tot    0.001  0.049  0.129  0.164  0.000  0.000  0.000  0.000  0.000  0.342

band     5 # energy    7.86328605 # occ.  0.00000000

ion      s     py     pz     px    dxy    dyz    dz2    dxz  x2-y2    tot
    1  0.037  0.028  0.020  0.030  0.000  0.000  0.000  0.000  0.000  0.114
    2  0.037  0.028  0.020  0.030  0.000  0.000  0.000  0.000  0.000  0.114
tot    0.073  0.057  0.039  0.059  0.000  0.000  0.000  0.000  0.000  0.228

band     6 # energy    8.10947682 # occ.  0.00000000

ion      s     py     pz     px    dxy    dyz    dz2    dxz  x2-y2    tot
    1  0.037  0.022  0.015  0.029  0.000  0.000  0.000  0.000  0.000  0.103
    2  0.037  0.022  0.015  0.029  0.000  0.000  0.000  0.000  0.000  0.103
tot    0.074  0.044  0.029  0.059  0.000  0.000  0.000  0.000  0.000  0.205

band     7 # energy   12.04681915 # occ.  0.00000000

ion      s     py     pz     px    dxy    dyz    dz2    dxz  x2-y2    tot
    1  0.029  0.027  0.035  0.054  0.000  0.000  0.000  0.000  0.000  0.145
    2  0.029  0.027  0.035  0.054  0.000  0.000  0.000  0.000  0.000  0.145
tot    0.058  0.054  0.070  0.108  0.000  0.000  0.000  0.000  0.000  0.290

band     8 # energy   13.73974796 # occ.  0.00000000

ion      s     py     pz     px    dxy    dyz    dz2    dxz  x2-y2    tot
    1  0.019  0.032  0.039  0.062  0.000  0.000  0.000  0.000  0.000  0.152
    2  0.019  0.032  0.039  0.062  0.000  0.000  0.000  0.000  0.000  0.152
tot    0.038  0.063  0.078  0.124  0.000  0.000  0.000  0.000  0.000  0.303


 k-point   226 :    0.45512821 0.13461538 0.58974359     weight = 0.00416667

band     1 # energy   -2.64378099 # occ.  2.00000000

ion      s     py     pz     px    dxy    dyz    dz2    dxz  x2-y2    tot
    1  0.201  0.032  0.004  0.000  0.000  0.000  0.000  0.000  0.000  0.237
    2  0.201  0.032  0.004  0.000  0.000  0.000  0.000  0.000  0.000  0.237
tot    0.402  0.064  0.007  0.001  0.000  0.000  0.000  0.000  0.000  0.474

band     2 # energy   -1.43825089 # occ.  2.00000000

ion      s     py     pz     px    dxy    dyz    dz2    dxz  x2-y2    tot
    1  0.195  0.041  0.008  0.000  0.000  0.000  0.000  0.000  0.000  0.245
    2  0.195  0.041  0.008  0.000  0.000  0.000  0.000  0.000  0.000  0.245
tot    0.390  0.083  0.016  0.000  0.000  0.000  0.000  0.000  0.000  0.490

band     3 # energy    2.15233179 # occ.  2.00000000

ion      s     py     pz     px    dxy    dyz    dz2    dxz  x2-y2    tot
    1  0.005  0.017  0.078  0.071  0.000  0.000  0.000  0.000  0.000  0.171
    2  0.005  0.017  0.078  0.071  0.000  0.000  0.000  0.000  0.000  0.171
tot    0.010  0.034  0.156  0.143  0.000  0.000  0.000  0.000  0.000  0.342

band     4 # energy    2.38036650 # occ.  2.00000000

ion      s     py     pz     px    dxy    dyz    dz2    dxz  x2-y2    tot
    1  0.001  0.022  0.068  0.083  0.000  0.000  0.000  0.000  0.000  0.173
    2  0.001  0.022  0.068  0.083  0.000  0.000  0.000  0.000  0.000  0.173
tot    0.001  0.043  0.135  0.166  0.000  0.000  0.000  0.000  0.000  0.345

band     5 # energy    7.69012220 # occ.  0.00000000

ion      s     py     pz     px    dxy    dyz    dz2    dxz  x2-y2    tot
    1  0.038  0.029  0.018  0.027  0.000  0.000  0.000  0.000  0.000  0.113
    2  0.038  0.029  0.018  0.027  0.000  0.000  0.000  0.000  0.000  0.113
tot    0.076  0.058  0.037  0.055  0.000  0.000  0.000  0.000  0.000  0.225

band     6 # energy    7.92565106 # occ.  0.00000000

ion      s     py     pz     px    dxy    dyz    dz2    dxz  x2-y2    tot
    1  0.038  0.023  0.014  0.027  0.000  0.000  0.000  0.000  0.000  0.102
    2  0.038  0.023  0.014  0.027  0.000  0.000  0.000  0.000  0.000  0.102
tot    0.077  0.046  0.028  0.053  0.000  0.000  0.000  0.000  0.000  0.204

band     7 # energy   12.34206514 # occ.  0.00000000

ion      s     py     pz     px    dxy    dyz    dz2    dxz  x2-y2    tot
    1  0.027  0.026  0.035  0.057  0.000  0.000  0.000  0.000  0.000  0.145
    2  0.027  0.026  0.035  0.057  0.000  0.000  0.000  0.000  0.000  0.145
tot    0.054  0.053  0.070  0.114  0.000  0.000  0.000  0.000  0.000  0.291

band     8 # energy   13.92348260 # occ.  0.00000000

ion      s     py     pz     px    dxy    dyz    dz2    dxz  x2-y2    tot
    1  0.018  0.029  0.043  0.066  0.000  0.000  0.000  0.000  0.000  0.156
    2  0.018  0.030  0.043  0.066  0.000  0.000  0.000  0.000  0.000  0.156
tot    0.036  0.059  0.085  0.132  0.000  0.000  0.000  0.000  0.000  0.312


 k-point   227 :    0.45833333 0.12500000 0.58333333     weight = 0.00416667

band     1 # energy   -2.62040229 # occ.  2.00000000

ion      s     py     pz     px    dxy    dyz    dz2    dxz  x2-y2    tot
    1  0.200  0.033  0.003  0.000  0.000  0.000  0.000  0.000  0.000  0.237
    2  0.200  0.033  0.003  0.000  0.000  0.000  0.000  0.000  0.000  0.237
tot    0.401  0.066  0.006  0.001  0.000  0.000  0.000  0.000  0.000  0.474

band     2 # energy   -1.47976649 # occ.  2.00000000

ion      s     py     pz     px    dxy    dyz    dz2    dxz  x2-y2    tot
    1  0.195  0.043  0.007  0.000  0.000  0.000  0.000  0.000  0.000  0.244
    2  0.195  0.043  0.007  0.000  0.000  0.000  0.000  0.000  0.000  0.244
tot    0.390  0.085  0.014  0.000  0.000  0.000  0.000  0.000  0.000  0.489

band     3 # energy    2.22010361 # occ.  2.00000000

ion      s     py     pz     px    dxy    dyz    dz2    dxz  x2-y2    tot
    1  0.005  0.015  0.080  0.073  0.000  0.000  0.000  0.000  0.000  0.173
    2  0.005  0.015  0.080  0.073  0.000  0.000  0.000  0.000  0.000  0.173
tot    0.009  0.031  0.159  0.146  0.000  0.000  0.000  0.000  0.000  0.346

band     4 # energy    2.40735480 # occ.  2.00000000

ion      s     py     pz     px    dxy    dyz    dz2    dxz  x2-y2    tot
    1  0.001  0.019  0.071  0.084  0.000  0.000  0.000  0.000  0.000  0.174
    2  0.001  0.019  0.071  0.084  0.000  0.000  0.000  0.000  0.000  0.174
tot    0.002  0.038  0.141  0.168  0.000  0.000  0.000  0.000  0.000  0.348

band     5 # energy    7.52378493 # occ.  0.00000000

ion      s     py     pz     px    dxy    dyz    dz2    dxz  x2-y2    tot
    1  0.039  0.030  0.017  0.025  0.000  0.000  0.000  0.000  0.000  0.111
    2  0.039  0.030  0.017  0.025  0.000  0.000  0.000  0.000  0.000  0.111
tot    0.079  0.059  0.034  0.050  0.000  0.000  0.000  0.000  0.000  0.222

band     6 # energy    7.74811630 # occ.  0.00000000

ion      s     py     pz     px    dxy    dyz    dz2    dxz  x2-y2    tot
    1  0.040  0.024  0.013  0.024  0.000  0.000  0.000  0.000  0.000  0.101
    2  0.040  0.024  0.013  0.024  0.000  0.000  0.000  0.000  0.000  0.101
tot    0.079  0.048  0.027  0.048  0.000  0.000  0.000  0.000  0.000  0.202

band     7 # energy   12.63909642 # occ.  0.00000000

ion      s     py     pz     px    dxy    dyz    dz2    dxz  x2-y2    tot
    1  0.025  0.026  0.036  0.060  0.000  0.000  0.000  0.000  0.000  0.146
    2  0.025  0.026  0.036  0.060  0.000  0.000  0.000  0.000  0.000  0.146
tot    0.050  0.052  0.071  0.120  0.000  0.000  0.000  0.000  0.000  0.293

band     8 # energy   14.10543923 # occ.  0.00000000

ion      s     py     pz     px    dxy    dyz    dz2    dxz  x2-y2    tot
    1  0.017  0.027  0.047  0.070  0.000  0.000  0.000  0.000  0.000  0.161
    2  0.017  0.027  0.047  0.070  0.000  0.000  0.000  0.000  0.000  0.161
tot    0.034  0.055  0.093  0.141  0.000  0.000  0.000  0.000  0.000  0.323


 k-point   228 :    0.46153846 0.11538462 0.57692308     weight = 0.00416667

band     1 # energy   -2.59484930 # occ.  2.00000000

ion      s     py     pz     px    dxy    dyz    dz2    dxz  x2-y2    tot
    1  0.200  0.034  0.003  0.000  0.000  0.000  0.000  0.000  0.000  0.237
    2  0.200  0.034  0.003  0.000  0.000  0.000  0.000  0.000  0.000  0.237
tot    0.399  0.068  0.005  0.001  0.000  0.000  0.000  0.000  0.000  0.473

band     2 # energy   -1.52403391 # occ.  2.00000000

ion      s     py     pz     px    dxy    dyz    dz2    dxz  x2-y2    tot
    1  0.195  0.043  0.006  0.000  0.000  0.000  0.000  0.000  0.000  0.244
    2  0.195  0.043  0.006  0.000  0.000  0.000  0.000  0.000  0.000  0.244
tot    0.389  0.087  0.011  0.000  0.000  0.000  0.000  0.000  0.000  0.487

band     3 # energy    2.28808281 # occ.  2.00000000

ion      s     py     pz     px    dxy    dyz    dz2    dxz  x2-y2    tot
    1  0.004  0.014  0.081  0.075  0.000  0.000  0.000  0.000  0.000  0.175
    2  0.004  0.014  0.081  0.075  0.000  0.000  0.000  0.000  0.000  0.175
tot    0.009  0.028  0.163  0.150  0.000  0.000  0.000  0.000  0.000  0.349

band     4 # energy    2.43933432 # occ.  2.00000000

ion      s     py     pz     px    dxy    dyz    dz2    dxz  x2-y2    tot
    1  0.001  0.016  0.073  0.085  0.000  0.000  0.000  0.000  0.000  0.176
    2  0.001  0.016  0.073  0.085  0.000  0.000  0.000  0.000  0.000  0.176
tot    0.002  0.033  0.147  0.170  0.000  0.000  0.000  0.000  0.000  0.352

band     5 # energy    7.36484834 # occ.  0.00000000

ion      s     py     pz     px    dxy    dyz    dz2    dxz  x2-y2    tot
    1  0.041  0.030  0.016  0.023  0.000  0.000  0.000  0.000  0.000  0.109
    2  0.041  0.030  0.016  0.023  0.000  0.000  0.000  0.000  0.000  0.109
tot    0.081  0.060  0.031  0.045  0.000  0.000  0.000  0.000  0.000  0.218

band     6 # energy    7.57747549 # occ.  0.00000000

ion      s     py     pz     px    dxy    dyz    dz2    dxz  x2-y2    tot
    1  0.041  0.025  0.012  0.022  0.000  0.000  0.000  0.000  0.000  0.100
    2  0.041  0.025  0.012  0.022  0.000  0.000  0.000  0.000  0.000  0.100
tot    0.081  0.050  0.025  0.043  0.000  0.000  0.000  0.000  0.000  0.200

band     7 # energy   12.93712358 # occ.  0.00000000

ion      s     py     pz     px    dxy    dyz    dz2    dxz  x2-y2    tot
    1  0.023  0.025  0.036  0.063  0.000  0.000  0.000  0.000  0.000  0.147
    2  0.023  0.025  0.036  0.063  0.000  0.000  0.000  0.000  0.000  0.147
tot    0.046  0.050  0.073  0.126  0.000  0.000  0.000  0.000  0.000  0.295

band     8 # energy   14.28355708 # occ.  0.00000000

ion      s     py     pz     px    dxy    dyz    dz2    dxz  x2-y2    tot
    1  0.016  0.024  0.053  0.076  0.000  0.000  0.000  0.000  0.000  0.169
    2  0.016  0.024  0.053  0.076  0.000  0.000  0.000  0.000  0.000  0.169
tot    0.032  0.048  0.106  0.152  0.000  0.000  0.000  0.000  0.000  0.338


 k-point   229 :    0.46474359 0.10576923 0.57051282     weight = 0.00416667

band     1 # energy   -2.56713984 # occ.  2.00000000

ion      s     py     pz     px    dxy    dyz    dz2    dxz  x2-y2    tot
    1  0.199  0.035  0.002  0.000  0.000  0.000  0.000  0.000  0.000  0.237
    2  0.199  0.035  0.002  0.000  0.000  0.000  0.000  0.000  0.000  0.237
tot    0.398  0.070  0.005  0.000  0.000  0.000  0.000  0.000  0.000  0.473

band     2 # energy   -1.57064001 # occ.  2.00000000

ion      s     py     pz     px    dxy    dyz    dz2    dxz  x2-y2    tot
    1  0.194  0.044  0.005  0.000  0.000  0.000  0.000  0.000  0.000  0.243
    2  0.194  0.044  0.005  0.000  0.000  0.000  0.000  0.000  0.000  0.243
tot    0.389  0.088  0.009  0.000  0.000  0.000  0.000  0.000  0.000  0.486

band     3 # energy    2.35563636 # occ.  2.00000000

ion      s     py     pz     px    dxy    dyz    dz2    dxz  x2-y2    tot
    1  0.004  0.012  0.083  0.077  0.000  0.000  0.000  0.000  0.000  0.177
    2  0.004  0.012  0.083  0.077  0.000  0.000  0.000  0.000  0.000  0.177
tot    0.008  0.024  0.166  0.154  0.000  0.000  0.000  0.000  0.000  0.353

band     4 # energy    2.47544013 # occ.  2.00000000

ion      s     py     pz     px    dxy    dyz    dz2    dxz  x2-y2    tot
    1  0.001  0.014  0.076  0.086  0.000  0.000  0.000  0.000  0.000  0.178
    2  0.001  0.014  0.076  0.086  0.000  0.000  0.000  0.000  0.000  0.178
tot    0.002  0.028  0.153  0.172  0.000  0.000  0.000  0.000  0.000  0.355

band     5 # energy    7.21404600 # occ.  0.00000000

ion      s     py     pz     px    dxy    dyz    dz2    dxz  x2-y2    tot
    1  0.042  0.031  0.014  0.020  0.000  0.000  0.000  0.000  0.000  0.107
    2  0.042  0.031  0.014  0.020  0.000  0.000  0.000  0.000  0.000  0.107
tot    0.084  0.062  0.028  0.040  0.000  0.000  0.000  0.000  0.000  0.214

band     6 # energy    7.41433872 # occ.  0.00000000

ion      s     py     pz     px    dxy    dyz    dz2    dxz  x2-y2    tot
    1  0.042  0.026  0.011  0.019  0.000  0.000  0.000  0.000  0.000  0.099
    2  0.042  0.026  0.011  0.019  0.000  0.000  0.000  0.000  0.000  0.099
tot    0.084  0.052  0.023  0.038  0.000  0.000  0.000  0.000  0.000  0.197

band     7 # energy   13.23526605 # occ.  0.00000000

ion      s     py     pz     px    dxy    dyz    dz2    dxz  x2-y2    tot
    1  0.021  0.024  0.038  0.066  0.000  0.000  0.000  0.000  0.000  0.149
    2  0.021  0.024  0.038  0.066  0.000  0.000  0.000  0.000  0.000  0.149
tot    0.042  0.048  0.076  0.132  0.000  0.000  0.000  0.000  0.000  0.298

band     8 # energy   14.45692266 # occ.  0.00000000

ion      s     py     pz     px    dxy    dyz    dz2    dxz  x2-y2    tot
    1  0.014  0.021  0.059  0.082  0.000  0.000  0.000  0.000  0.000  0.176
    2  0.014  0.022  0.059  0.082  0.000  0.000  0.000  0.000  0.000  0.176
tot    0.029  0.043  0.118  0.163  0.000  0.000  0.000  0.000  0.000  0.353


 k-point   230 :    0.46794872 0.09615385 0.56410256     weight = 0.00416667

band     1 # energy   -2.53729094 # occ.  2.00000000

ion      s     py     pz     px    dxy    dyz    dz2    dxz  x2-y2    tot
    1  0.198  0.036  0.002  0.000  0.000  0.000  0.000  0.000  0.000  0.236
    2  0.198  0.036  0.002  0.000  0.000  0.000  0.000  0.000  0.000  0.236
tot    0.396  0.072  0.004  0.000  0.000  0.000  0.000  0.000  0.000  0.473

band     2 # energy   -1.61916874 # occ.  2.00000000

ion      s     py     pz     px    dxy    dyz    dz2    dxz  x2-y2    tot
    1  0.194  0.045  0.004  0.000  0.000  0.000  0.000  0.000  0.000  0.242
    2  0.194  0.045  0.004  0.000  0.000  0.000  0.000  0.000  0.000  0.242
tot    0.388  0.090  0.007  0.000  0.000  0.000  0.000  0.000  0.000  0.485

band     3 # energy    2.42204352 # occ.  2.00000000

ion      s     py     pz     px    dxy    dyz    dz2    dxz  x2-y2    tot
    1  0.004  0.011  0.085  0.079  0.000  0.000  0.000  0.000  0.000  0.179
    2  0.004  0.011  0.085  0.079  0.000  0.000  0.000  0.000  0.000  0.179
tot    0.007  0.021  0.170  0.159  0.000  0.000  0.000  0.000  0.000  0.358

band     4 # energy    2.51471572 # occ.  2.00000000

ion      s     py     pz     px    dxy    dyz    dz2    dxz  x2-y2    tot
    1  0.001  0.012  0.079  0.087  0.000  0.000  0.000  0.000  0.000  0.180
    2  0.001  0.012  0.079  0.087  0.000  0.000  0.000  0.000  0.000  0.180
tot    0.003  0.024  0.158  0.175  0.000  0.000  0.000  0.000  0.000  0.359

band     5 # energy    7.07219853 # occ.  0.00000000

ion      s     py     pz     px    dxy    dyz    dz2    dxz  x2-y2    tot
    1  0.043  0.032  0.013  0.018  0.000  0.000  0.000  0.000  0.000  0.105
    2  0.043  0.032  0.013  0.018  0.000  0.000  0.000  0.000  0.000  0.105
tot    0.087  0.063  0.025  0.035  0.000  0.000  0.000  0.000  0.000  0.210

band     6 # energy    7.25945991 # occ.  0.00000000

ion      s     py     pz     px    dxy    dyz    dz2    dxz  x2-y2    tot
    1  0.043  0.027  0.010  0.017  0.000  0.000  0.000  0.000  0.000  0.097
    2  0.043  0.027  0.010  0.017  0.000  0.000  0.000  0.000  0.000  0.097
tot    0.086  0.054  0.021  0.034  0.000  0.000  0.000  0.000  0.000  0.195

band     7 # energy   13.53244432 # occ.  0.00000000

ion      s     py     pz     px    dxy    dyz    dz2    dxz  x2-y2    tot
    1  0.019  0.023  0.040  0.070  0.000  0.000  0.000  0.000  0.000  0.151
    2  0.019  0.023  0.040  0.070  0.000  0.000  0.000  0.000  0.000  0.151
tot    0.038  0.046  0.079  0.139  0.000  0.000  0.000  0.000  0.000  0.302

band     8 # energy   14.62300115 # occ.  0.00000000

ion      s     py     pz     px    dxy    dyz    dz2    dxz  x2-y2    tot
    1  0.013  0.018  0.067  0.088  0.000  0.000  0.000  0.000  0.000  0.186
    2  0.013  0.018  0.067  0.088  0.000  0.000  0.000  0.000  0.000  0.186
tot    0.025  0.036  0.134  0.176  0.000  0.000  0.000  0.000  0.000  0.372


 k-point   231 :    0.47115385 0.08653846 0.55769231     weight = 0.00416667

band     1 # energy   -2.50534122 # occ.  2.00000000

ion      s     py     pz     px    dxy    dyz    dz2    dxz  x2-y2    tot
    1  0.198  0.037  0.002  0.000  0.000  0.000  0.000  0.000  0.000  0.236
    2  0.198  0.037  0.002  0.000  0.000  0.000  0.000  0.000  0.000  0.236
tot    0.395  0.074  0.003  0.000  0.000  0.000  0.000  0.000  0.000  0.473

band     2 # energy   -1.66922293 # occ.  2.00000000

ion      s     py     pz     px    dxy    dyz    dz2    dxz  x2-y2    tot
    1  0.194  0.045  0.003  0.000  0.000  0.000  0.000  0.000  0.000  0.242
    2  0.194  0.045  0.003  0.000  0.000  0.000  0.000  0.000  0.000  0.242
tot    0.387  0.090  0.006  0.000  0.000  0.000  0.000  0.000  0.000  0.483

band     3 # energy    2.48648901 # occ.  2.00000000

ion      s     py     pz     px    dxy    dyz    dz2    dxz  x2-y2    tot
    1  0.003  0.009  0.087  0.082  0.000  0.000  0.000  0.000  0.000  0.181
    2  0.003  0.009  0.087  0.082  0.000  0.000  0.000  0.000  0.000  0.181
tot    0.007  0.018  0.174  0.163  0.000  0.000  0.000  0.000  0.000  0.362

band     4 # energy    2.55610710 # occ.  2.00000000

ion      s     py     pz     px    dxy    dyz    dz2    dxz  x2-y2    tot
    1  0.001  0.010  0.082  0.089  0.000  0.000  0.000  0.000  0.000  0.182
    2  0.001  0.010  0.082  0.089  0.000  0.000  0.000  0.000  0.000  0.182
tot    0.003  0.020  0.163  0.177  0.000  0.000  0.000  0.000  0.000  0.363

band     5 # energy    6.94009301 # occ.  0.00000000

ion      s     py     pz     px    dxy    dyz    dz2    dxz  x2-y2    tot
    1  0.045  0.032  0.011  0.015  0.000  0.000  0.000  0.000  0.000  0.103
    2  0.045  0.032  0.011  0.015  0.000  0.000  0.000  0.000  0.000  0.103
tot    0.089  0.065  0.022  0.030  0.000  0.000  0.000  0.000  0.000  0.206

band     6 # energy    7.11350462 # occ.  0.00000000

ion      s     py     pz     px    dxy    dyz    dz2    dxz  x2-y2    tot
    1  0.044  0.028  0.009  0.014  0.000  0.000  0.000  0.000  0.000  0.096
    2  0.044  0.028  0.009  0.014  0.000  0.000  0.000  0.000  0.000  0.096
tot    0.088  0.057  0.018  0.029  0.000  0.000  0.000  0.000  0.000  0.192

band     7 # energy   13.82708953 # occ.  0.00000000

ion      s     py     pz     px    dxy    dyz    dz2    dxz  x2-y2    tot
    1  0.017  0.022  0.042  0.074  0.000  0.000  0.000  0.000  0.000  0.154
    2  0.017  0.021  0.042  0.074  0.000  0.000  0.000  0.000  0.000  0.154
tot    0.034  0.043  0.084  0.147  0.000  0.000  0.000  0.000  0.000  0.308

band     8 # energy   14.77960795 # occ.  0.00000000

ion      s     py     pz     px    dxy    dyz    dz2    dxz  x2-y2    tot
    1  0.011  0.015  0.076  0.094  0.000  0.000  0.000  0.000  0.000  0.195
    2  0.011  0.015  0.075  0.094  0.000  0.000  0.000  0.000  0.000  0.195
tot    0.022  0.030  0.151  0.188  0.000  0.000  0.000  0.000  0.000  0.390


 k-point   232 :    0.47435897 0.07692308 0.55128205     weight = 0.00416667

band     1 # energy   -2.47132136 # occ.  2.00000000

ion      s     py     pz     px    dxy    dyz    dz2    dxz  x2-y2    tot
    1  0.197  0.038  0.001  0.000  0.000  0.000  0.000  0.000  0.000  0.236
    2  0.197  0.038  0.001  0.000  0.000  0.000  0.000  0.000  0.000  0.236
tot    0.394  0.076  0.003  0.000  0.000  0.000  0.000  0.000  0.000  0.472

band     2 # energy   -1.72040886 # occ.  2.00000000

ion      s     py     pz     px    dxy    dyz    dz2    dxz  x2-y2    tot
    1  0.193  0.045  0.002  0.000  0.000  0.000  0.000  0.000  0.000  0.241
    2  0.193  0.045  0.002  0.000  0.000  0.000  0.000  0.000  0.000  0.241
tot    0.387  0.091  0.004  0.000  0.000  0.000  0.000  0.000  0.000  0.482

band     3 # energy    2.54807723 # occ.  2.00000000

ion      s     py     pz     px    dxy    dyz    dz2    dxz  x2-y2    tot
    1  0.003  0.007  0.089  0.084  0.000  0.000  0.000  0.000  0.000  0.183
    2  0.003  0.007  0.089  0.084  0.000  0.000  0.000  0.000  0.000  0.183
tot    0.006  0.015  0.178  0.168  0.000  0.000  0.000  0.000  0.000  0.366

band     4 # energy    2.59848775 # occ.  2.00000000

ion      s     py     pz     px    dxy    dyz    dz2    dxz  x2-y2    tot
    1  0.001  0.008  0.084  0.090  0.000  0.000  0.000  0.000  0.000  0.184
    2  0.001  0.008  0.084  0.090  0.000  0.000  0.000  0.000  0.000  0.184
tot    0.003  0.016  0.168  0.180  0.000  0.000  0.000  0.000  0.000  0.367

band     5 # energy    6.81882838 # occ.  0.00000000

ion      s     py     pz     px    dxy    dyz    dz2    dxz  x2-y2    tot
    1  0.046  0.033  0.009  0.013  0.000  0.000  0.000  0.000  0.000  0.101
    2  0.046  0.033  0.009  0.013  0.000  0.000  0.000  0.000  0.000  0.101
tot    0.092  0.066  0.018  0.025  0.000  0.000  0.000  0.000  0.000  0.201

band     6 # energy    6.97743771 # occ.  0.00000000

ion      s     py     pz     px    dxy    dyz    dz2    dxz  x2-y2    tot
    1  0.045  0.029  0.008  0.012  0.000  0.000  0.000  0.000  0.000  0.095
    2  0.045  0.029  0.008  0.012  0.000  0.000  0.000  0.000  0.000  0.095
tot    0.090  0.059  0.016  0.024  0.000  0.000  0.000  0.000  0.000  0.189

band     7 # energy   14.11724173 # occ.  0.00000000

ion      s     py     pz     px    dxy    dyz    dz2    dxz  x2-y2    tot
    1  0.015  0.020  0.045  0.078  0.000  0.000  0.000  0.000  0.000  0.158
    2  0.015  0.020  0.045  0.078  0.000  0.000  0.000  0.000  0.000  0.158
tot    0.030  0.039  0.090  0.156  0.000  0.000  0.000  0.000  0.000  0.316

band     8 # energy   14.92483090 # occ.  0.00000000

ion      s     py     pz     px    dxy    dyz    dz2    dxz  x2-y2    tot
    1  0.009  0.012  0.085  0.100  0.000  0.000  0.000  0.000  0.000  0.206
    2  0.009  0.011  0.086  0.099  0.000  0.000  0.000  0.000  0.000  0.205
tot    0.018  0.023  0.171  0.199  0.000  0.000  0.000  0.000  0.000  0.411


 k-point   233 :    0.47756410 0.06730769 0.54487179     weight = 0.00416667

band     1 # energy   -2.43527769 # occ.  2.00000000

ion      s     py     pz     px    dxy    dyz    dz2    dxz  x2-y2    tot
    1  0.196  0.039  0.001  0.000  0.000  0.000  0.000  0.000  0.000  0.236
    2  0.196  0.039  0.001  0.000  0.000  0.000  0.000  0.000  0.000  0.236
tot    0.393  0.078  0.002  0.000  0.000  0.000  0.000  0.000  0.000  0.472

band     2 # energy   -1.77236516 # occ.  2.00000000

ion      s     py     pz     px    dxy    dyz    dz2    dxz  x2-y2    tot
    1  0.193  0.046  0.002  0.000  0.000  0.000  0.000  0.000  0.000  0.240
    2  0.193  0.046  0.002  0.000  0.000  0.000  0.000  0.000  0.000  0.240
tot    0.386  0.091  0.003  0.000  0.000  0.000  0.000  0.000  0.000  0.481

band     3 # energy    2.60583027 # occ.  2.00000000

ion      s     py     pz     px    dxy    dyz    dz2    dxz  x2-y2    tot
    1  0.002  0.006  0.091  0.086  0.000  0.000  0.000  0.000  0.000  0.185
    2  0.002  0.006  0.091  0.086  0.000  0.000  0.000  0.000  0.000  0.185
tot    0.005  0.012  0.181  0.173  0.000  0.000  0.000  0.000  0.000  0.371

band     4 # energy    2.64064303 # occ.  2.00000000

ion      s     py     pz     px    dxy    dyz    dz2    dxz  x2-y2    tot
    1  0.001  0.006  0.087  0.092  0.000  0.000  0.000  0.000  0.000  0.186
    2  0.001  0.006  0.087  0.092  0.000  0.000  0.000  0.000  0.000  0.186
tot    0.002  0.013  0.173  0.183  0.000  0.000  0.000  0.000  0.000  0.372

band     5 # energy    6.70936919 # occ.  0.00000000

ion      s     py     pz     px    dxy    dyz    dz2    dxz  x2-y2    tot
    1  0.047  0.034  0.007  0.010  0.000  0.000  0.000  0.000  0.000  0.098
    2  0.047  0.034  0.007  0.010  0.000  0.000  0.000  0.000  0.000  0.098
tot    0.094  0.068  0.015  0.021  0.000  0.000  0.000  0.000  0.000  0.197

band     6 # energy    6.85213599 # occ.  0.00000000

ion      s     py     pz     px    dxy    dyz    dz2    dxz  x2-y2    tot
    1  0.046  0.031  0.006  0.010  0.000  0.000  0.000  0.000  0.000  0.093
    2  0.046  0.031  0.006  0.010  0.000  0.000  0.000  0.000  0.000  0.093
tot    0.093  0.061  0.013  0.019  0.000  0.000  0.000  0.000  0.000  0.186

band     7 # energy   14.39991495 # occ.  0.00000000

ion      s     py     pz     px    dxy    dyz    dz2    dxz  x2-y2    tot
    1  0.013  0.017  0.049  0.084  0.000  0.000  0.000  0.000  0.000  0.163
    2  0.013  0.018  0.049  0.084  0.000  0.000  0.000  0.000  0.000  0.163
tot    0.025  0.035  0.099  0.167  0.000  0.000  0.000  0.000  0.000  0.326

band     8 # energy   15.05506114 # occ.  0.00000000

ion      s     py     pz     px    dxy    dyz    dz2    dxz  x2-y2    tot
    1  0.007  0.008  0.095  0.104  0.000  0.000  0.000  0.000  0.000  0.215
    2  0.007  0.008  0.095  0.104  0.000  0.000  0.000  0.000  0.000  0.214
tot    0.014  0.017  0.190  0.208  0.000  0.000  0.000  0.000  0.000  0.429


 k-point   234 :    0.48076923 0.05769231 0.53846154     weight = 0.00416667

band     1 # energy   -2.39726683 # occ.  2.00000000

ion      s     py     pz     px    dxy    dyz    dz2    dxz  x2-y2    tot
    1  0.196  0.040  0.001  0.000  0.000  0.000  0.000  0.000  0.000  0.236
    2  0.196  0.040  0.001  0.000  0.000  0.000  0.000  0.000  0.000  0.236
tot    0.391  0.079  0.002  0.000  0.000  0.000  0.000  0.000  0.000  0.472

band     2 # energy   -1.82475185 # occ.  2.00000000

ion      s     py     pz     px    dxy    dyz    dz2    dxz  x2-y2    tot
    1  0.193  0.046  0.001  0.000  0.000  0.000  0.000  0.000  0.000  0.240
    2  0.193  0.046  0.001  0.000  0.000  0.000  0.000  0.000  0.000  0.240
tot    0.386  0.091  0.002  0.000  0.000  0.000  0.000  0.000  0.000  0.480

band     3 # energy    2.65870211 # occ.  2.00000000

ion      s     py     pz     px    dxy    dyz    dz2    dxz  x2-y2    tot
    1  0.002  0.005  0.092  0.089  0.000  0.000  0.000  0.000  0.000  0.188
    2  0.002  0.005  0.092  0.089  0.000  0.000  0.000  0.000  0.000  0.188
tot    0.004  0.009  0.185  0.177  0.000  0.000  0.000  0.000  0.000  0.375

band     4 # energy    2.68127919 # occ.  2.00000000

ion      s     py     pz     px    dxy    dyz    dz2    dxz  x2-y2    tot
    1  0.001  0.005  0.089  0.093  0.000  0.000  0.000  0.000  0.000  0.188
    2  0.001  0.005  0.089  0.093  0.000  0.000  0.000  0.000  0.000  0.188
tot    0.002  0.010  0.178  0.186  0.000  0.000  0.000  0.000  0.000  0.376

band     5 # energy    6.61289561 # occ.  0.00000000

ion      s     py     pz     px    dxy    dyz    dz2    dxz  x2-y2    tot
    1  0.048  0.034  0.006  0.008  0.000  0.000  0.000  0.000  0.000  0.096
    2  0.048  0.034  0.006  0.008  0.000  0.000  0.000  0.000  0.000  0.096
tot    0.096  0.069  0.012  0.016  0.000  0.000  0.000  0.000  0.000  0.192

band     6 # energy    6.73859617 # occ.  0.00000000

ion      s     py     pz     px    dxy    dyz    dz2    dxz  x2-y2    tot
    1  0.047  0.032  0.005  0.008  0.000  0.000  0.000  0.000  0.000  0.092
    2  0.047  0.032  0.005  0.008  0.000  0.000  0.000  0.000  0.000  0.092
tot    0.095  0.063  0.010  0.015  0.000  0.000  0.000  0.000  0.000  0.183

band     7 # energy   14.67112921 # occ.  0.00000000

ion      s     py     pz     px    dxy    dyz    dz2    dxz  x2-y2    tot
    1  0.010  0.015  0.055  0.091  0.000  0.000  0.000  0.000  0.000  0.171
    2  0.010  0.015  0.056  0.091  0.000  0.000  0.000  0.000  0.000  0.171
tot    0.020  0.029  0.111  0.181  0.000  0.000  0.000  0.000  0.000  0.342

band     8 # energy   15.17217233 # occ.  0.00000000

ion      s     py     pz     px    dxy    dyz    dz2    dxz  x2-y2    tot
    1  0.005  0.006  0.101  0.107  0.000  0.000  0.000  0.000  0.000  0.220
    2  0.005  0.006  0.103  0.107  0.000  0.000  0.000  0.000  0.000  0.221
tot    0.011  0.012  0.204  0.214  0.000  0.000  0.000  0.000  0.000  0.441


 k-point   235 :    0.48397436 0.04807692 0.53205128     weight = 0.00416667

band     1 # energy   -2.35735053 # occ.  2.00000000

ion      s     py     pz     px    dxy    dyz    dz2    dxz  x2-y2    tot
    1  0.195  0.041  0.001  0.000  0.000  0.000  0.000  0.000  0.000  0.236
    2  0.195  0.041  0.001  0.000  0.000  0.000  0.000  0.000  0.000  0.236
tot    0.390  0.081  0.001  0.000  0.000  0.000  0.000  0.000  0.000  0.473

band     2 # energy   -1.87725254 # occ.  2.00000000

ion      s     py     pz     px    dxy    dyz    dz2    dxz  x2-y2    tot
    1  0.193  0.046  0.001  0.000  0.000  0.000  0.000  0.000  0.000  0.239
    2  0.193  0.046  0.001  0.000  0.000  0.000  0.000  0.000  0.000  0.239
tot    0.386  0.091  0.001  0.000  0.000  0.000  0.000  0.000  0.000  0.479

band     3 # energy    2.70562902 # occ.  2.00000000

ion      s     py     pz     px    dxy    dyz    dz2    dxz  x2-y2    tot
    1  0.001  0.003  0.094  0.091  0.000  0.000  0.000  0.000  0.000  0.190
    2  0.001  0.003  0.094  0.091  0.000  0.000  0.000  0.000  0.000  0.190
tot    0.003  0.007  0.188  0.182  0.000  0.000  0.000  0.000  0.000  0.379

band     4 # energy    2.71905964 # occ.  2.00000000

ion      s     py     pz     px    dxy    dyz    dz2    dxz  x2-y2    tot
    1  0.001  0.003  0.091  0.094  0.000  0.000  0.000  0.000  0.000  0.190
    2  0.001  0.003  0.091  0.094  0.000  0.000  0.000  0.000  0.000  0.190
tot    0.002  0.007  0.182  0.189  0.000  0.000  0.000  0.000  0.000  0.379

band     5 # energy    6.53056963 # occ.  0.00000000

ion      s     py     pz     px    dxy    dyz    dz2    dxz  x2-y2    tot
    1  0.049  0.035  0.004  0.006  0.000  0.000  0.000  0.000  0.000  0.094
    2  0.049  0.035  0.004  0.006  0.000  0.000  0.000  0.000  0.000  0.094
tot    0.098  0.070  0.008  0.012  0.000  0.000  0.000  0.000  0.000  0.188

band     6 # energy    6.63793732 # occ.  0.00000000

ion      s     py     pz     px    dxy    dyz    dz2    dxz  x2-y2    tot
    1  0.048  0.033  0.004  0.005  0.000  0.000  0.000  0.000  0.000  0.090
    2  0.048  0.033  0.004  0.005  0.000  0.000  0.000  0.000  0.000  0.090
tot    0.097  0.066  0.008  0.011  0.000  0.000  0.000  0.000  0.000  0.181

band     7 # energy   14.92325603 # occ.  0.00000000

ion      s     py     pz     px    dxy    dyz    dz2    dxz  x2-y2    tot
    1  0.008  0.011  0.064  0.099  0.000  0.000  0.000  0.000  0.000  0.182
    2  0.008  0.012  0.064  0.098  0.000  0.000  0.000  0.000  0.000  0.182
tot    0.016  0.023  0.128  0.197  0.000  0.000  0.000  0.000  0.000  0.363

band     8 # energy   15.27234678 # occ.  0.00000000

ion      s     py     pz     px    dxy    dyz    dz2    dxz  x2-y2    tot
    1  0.004  0.004  0.111  0.109  0.000  0.000  0.000  0.000  0.000  0.227
    2  0.004  0.004  0.110  0.109  0.000  0.000  0.000  0.000  0.000  0.227
tot    0.007  0.007  0.221  0.218  0.000  0.000  0.000  0.000  0.000  0.454


 k-point   236 :    0.48717949 0.03846154 0.52564103     weight = 0.00416667

band     1 # energy   -2.31560335 # occ.  2.00000000

ion      s     py     pz     px    dxy    dyz    dz2    dxz  x2-y2    tot
    1  0.195  0.041  0.000  0.000  0.000  0.000  0.000  0.000  0.000  0.236
    2  0.195  0.041  0.000  0.000  0.000  0.000  0.000  0.000  0.000  0.236
tot    0.389  0.083  0.001  0.000  0.000  0.000  0.000  0.000  0.000  0.473

band     2 # energy   -1.92958033 # occ.  2.00000000

ion      s     py     pz     px    dxy    dyz    dz2    dxz  x2-y2    tot
    1  0.193  0.045  0.000  0.000  0.000  0.000  0.000  0.000  0.000  0.239
    2  0.193  0.045  0.000  0.000  0.000  0.000  0.000  0.000  0.000  0.239
tot    0.386  0.091  0.001  0.000  0.000  0.000  0.000  0.000  0.000  0.478

band     3 # energy    2.74556879 # occ.  2.00000000

ion      s     py     pz     px    dxy    dyz    dz2    dxz  x2-y2    tot
    1  0.001  0.002  0.095  0.093  0.000  0.000  0.000  0.000  0.000  0.191
    2  0.001  0.002  0.095  0.093  0.000  0.000  0.000  0.000  0.000  0.191
tot    0.002  0.004  0.191  0.186  0.000  0.000  0.000  0.000  0.000  0.383

band     4 # energy    2.75261740 # occ.  2.00000000

ion      s     py     pz     px    dxy    dyz    dz2    dxz  x2-y2    tot
    1  0.001  0.002  0.093  0.096  0.000  0.000  0.000  0.000  0.000  0.191
    2  0.001  0.002  0.093  0.096  0.000  0.000  0.000  0.000  0.000  0.191
tot    0.001  0.004  0.186  0.191  0.000  0.000  0.000  0.000  0.000  0.383

band     5 # energy    6.46355046 # occ.  0.00000000

ion      s     py     pz     px    dxy    dyz    dz2    dxz  x2-y2    tot
    1  0.050  0.036  0.003  0.004  0.000  0.000  0.000  0.000  0.000  0.092
    2  0.050  0.036  0.003  0.004  0.000  0.000  0.000  0.000  0.000  0.092
tot    0.100  0.071  0.006  0.008  0.000  0.000  0.000  0.000  0.000  0.184

band     6 # energy    6.55135975 # occ.  0.00000000

ion      s     py     pz     px    dxy    dyz    dz2    dxz  x2-y2    tot
    1  0.049  0.034  0.003  0.004  0.000  0.000  0.000  0.000  0.000  0.089
    2  0.049  0.034  0.003  0.004  0.000  0.000  0.000  0.000  0.000  0.089
tot    0.098  0.067  0.005  0.007  0.000  0.000  0.000  0.000  0.000  0.178

band     7 # energy   15.14750994 # occ.  0.00000000

ion      s     py     pz     px    dxy    dyz    dz2    dxz  x2-y2    tot
    1  0.005  0.008  0.075  0.108  0.000  0.000  0.000  0.000  0.000  0.197
    2  0.005  0.008  0.075  0.107  0.000  0.000  0.000  0.000  0.000  0.195
tot    0.011  0.016  0.150  0.215  0.000  0.000  0.000  0.000  0.000  0.392

band     8 # energy   15.36036191 # occ.  0.00000000

ion      s     py     pz     px    dxy    dyz    dz2    dxz  x2-y2    tot
    1  0.002  0.002  0.115  0.110  0.000  0.000  0.000  0.000  0.000  0.230
    2  0.002  0.002  0.117  0.110  0.000  0.000  0.000  0.000  0.000  0.231
tot    0.005  0.005  0.232  0.219  0.000  0.000  0.000  0.000  0.000  0.461


 k-point   237 :    0.49038462 0.02884615 0.51923077     weight = 0.00416667

band     1 # energy   -2.27212134 # occ.  2.00000000

ion      s     py     pz     px    dxy    dyz    dz2    dxz  x2-y2    tot
    1  0.194  0.042  0.000  0.000  0.000  0.000  0.000  0.000  0.000  0.236
    2  0.194  0.042  0.000  0.000  0.000  0.000  0.000  0.000  0.000  0.236
tot    0.388  0.084  0.000  0.000  0.000  0.000  0.000  0.000  0.000  0.473

band     2 # energy   -1.98147910 # occ.  2.00000000

ion      s     py     pz     px    dxy    dyz    dz2    dxz  x2-y2    tot
    1  0.193  0.045  0.000  0.000  0.000  0.000  0.000  0.000  0.000  0.238
    2  0.193  0.045  0.000  0.000  0.000  0.000  0.000  0.000  0.000  0.238
tot    0.386  0.090  0.001  0.000  0.000  0.000  0.000  0.000  0.000  0.477

band     3 # energy    2.77757476 # occ.  2.00000000

ion      s     py     pz     px    dxy    dyz    dz2    dxz  x2-y2    tot
    1  0.001  0.001  0.096  0.095  0.000  0.000  0.000  0.000  0.000  0.193
    2  0.001  0.001  0.096  0.095  0.000  0.000  0.000  0.000  0.000  0.193
tot    0.001  0.003  0.193  0.189  0.000  0.000  0.000  0.000  0.000  0.386

band     4 # energy    2.78061103 # occ.  2.00000000

ion      s     py     pz     px    dxy    dyz    dz2    dxz  x2-y2    tot
    1  0.000  0.001  0.095  0.097  0.000  0.000  0.000  0.000  0.000  0.193
    2  0.000  0.001  0.095  0.097  0.000  0.000  0.000  0.000  0.000  0.193
tot    0.001  0.003  0.189  0.193  0.000  0.000  0.000  0.000  0.000  0.386

band     5 # energy    6.41280624 # occ.  0.00000000

ion      s     py     pz     px    dxy    dyz    dz2    dxz  x2-y2    tot
    1  0.050  0.036  0.002  0.002  0.000  0.000  0.000  0.000  0.000  0.090
    2  0.050  0.036  0.002  0.002  0.000  0.000  0.000  0.000  0.000  0.090
tot    0.101  0.072  0.003  0.004  0.000  0.000  0.000  0.000  0.000  0.181

band     6 # energy    6.47988171 # occ.  0.00000000

ion      s     py     pz     px    dxy    dyz    dz2    dxz  x2-y2    tot
    1  0.050  0.035  0.002  0.002  0.000  0.000  0.000  0.000  0.000  0.088
    2  0.050  0.035  0.002  0.002  0.000  0.000  0.000  0.000  0.000  0.088
tot    0.100  0.069  0.003  0.004  0.000  0.000  0.000  0.000  0.000  0.176

band     7 # energy   15.32964296 # occ.  0.00000000

ion      s     py     pz     px    dxy    dyz    dz2    dxz  x2-y2    tot
    1  0.003  0.004  0.089  0.117  0.000  0.000  0.000  0.000  0.000  0.213
    2  0.003  0.004  0.089  0.116  0.000  0.000  0.000  0.000  0.000  0.213
tot    0.006  0.009  0.178  0.233  0.000  0.000  0.000  0.000  0.000  0.426

band     8 # energy   15.43400067 # occ.  0.00000000

ion      s     py     pz     px    dxy    dyz    dz2    dxz  x2-y2    tot
    1  0.001  0.001  0.120  0.112  0.000  0.000  0.000  0.000  0.000  0.234
    2  0.001  0.001  0.120  0.111  0.000  0.000  0.000  0.000  0.000  0.233
tot    0.003  0.003  0.239  0.223  0.000  0.000  0.000  0.000  0.000  0.467


 k-point   238 :    0.49358974 0.01923077 0.51282051     weight = 0.00416667

band     1 # energy   -2.22700168 # occ.  2.00000000

ion      s     py     pz     px    dxy    dyz    dz2    dxz  x2-y2    tot
    1  0.194  0.043  0.000  0.000  0.000  0.000  0.000  0.000  0.000  0.237
    2  0.194  0.043  0.000  0.000  0.000  0.000  0.000  0.000  0.000  0.237
tot    0.388  0.085  0.000  0.000  0.000  0.000  0.000  0.000  0.000  0.473

band     2 # energy   -2.03270778 # occ.  2.00000000

ion      s     py     pz     px    dxy    dyz    dz2    dxz  x2-y2    tot
    1  0.193  0.045  0.000  0.000  0.000  0.000  0.000  0.000  0.000  0.238
    2  0.193  0.045  0.000  0.000  0.000  0.000  0.000  0.000  0.000  0.238
tot    0.386  0.090  0.000  0.000  0.000  0.000  0.000  0.000  0.000  0.476

band     3 # energy    2.80087767 # occ.  2.00000000

ion      s     py     pz     px    dxy    dyz    dz2    dxz  x2-y2    tot
    1  0.000  0.001  0.097  0.096  0.000  0.000  0.000  0.000  0.000  0.194
    2  0.000  0.001  0.097  0.096  0.000  0.000  0.000  0.000  0.000  0.194
tot    0.000  0.001  0.194  0.192  0.000  0.000  0.000  0.000  0.000  0.388

band     4 # energy    2.80179184 # occ.  2.00000000

ion      s     py     pz     px    dxy    dyz    dz2    dxz  x2-y2    tot
    1  0.000  0.001  0.096  0.097  0.000  0.000  0.000  0.000  0.000  0.194
    2  0.000  0.001  0.096  0.097  0.000  0.000  0.000  0.000  0.000  0.194
tot    0.000  0.001  0.192  0.194  0.000  0.000  0.000  0.000  0.000  0.388

band     5 # energy    6.37924380 # occ.  0.00000000

ion      s     py     pz     px    dxy    dyz    dz2    dxz  x2-y2    tot
    1  0.051  0.036  0.001  0.001  0.000  0.000  0.000  0.000  0.000  0.089
    2  0.051  0.036  0.001  0.001  0.000  0.000  0.000  0.000  0.000  0.089
tot    0.102  0.073  0.001  0.002  0.000  0.000  0.000  0.000  0.000  0.178

band     6 # energy    6.42458213 # occ.  0.00000000

ion      s     py     pz     px    dxy    dyz    dz2    dxz  x2-y2    tot
    1  0.050  0.035  0.001  0.001  0.000  0.000  0.000  0.000  0.000  0.087
    2  0.050  0.035  0.001  0.001  0.000  0.000  0.000  0.000  0.000  0.087
tot    0.101  0.071  0.001  0.002  0.000  0.000  0.000  0.000  0.000  0.175

band     7 # energy   15.45797509 # occ.  0.00000000

ion      s     py     pz     px    dxy    dyz    dz2    dxz  x2-y2    tot
    1  0.001  0.002  0.105  0.121  0.000  0.000  0.000  0.000  0.000  0.229
    2  0.001  0.002  0.102  0.123  0.000  0.000  0.000  0.000  0.000  0.227
tot    0.003  0.004  0.206  0.244  0.000  0.000  0.000  0.000  0.000  0.457

band     8 # energy   15.49188722 # occ.  0.00000000

ion      s     py     pz     px    dxy    dyz    dz2    dxz  x2-y2    tot
    1  0.001  0.001  0.120  0.115  0.000  0.000  0.000  0.000  0.000  0.236
    2  0.001  0.001  0.121  0.113  0.000  0.000  0.000  0.000  0.000  0.236
tot    0.001  0.001  0.241  0.228  0.000  0.000  0.000  0.000  0.000  0.472


 k-point   239 :    0.49679487 0.00961538 0.50641026     weight = 0.00416667

band     1 # energy   -2.18036046 # occ.  2.00000000

ion      s     py     pz     px    dxy    dyz    dz2    dxz  x2-y2    tot
    1  0.194  0.043  0.000  0.000  0.000  0.000  0.000  0.000  0.000  0.237
    2  0.194  0.043  0.000  0.000  0.000  0.000  0.000  0.000  0.000  0.237
tot    0.387  0.087  0.000  0.000  0.000  0.000  0.000  0.000  0.000  0.474

band     2 # energy   -2.08305446 # occ.  2.00000000

ion      s     py     pz     px    dxy    dyz    dz2    dxz  x2-y2    tot
    1  0.193  0.044  0.000  0.000  0.000  0.000  0.000  0.000  0.000  0.238
    2  0.193  0.044  0.000  0.000  0.000  0.000  0.000  0.000  0.000  0.238
tot    0.386  0.089  0.000  0.000  0.000  0.000  0.000  0.000  0.000  0.475

band     3 # energy    2.81496378 # occ.  2.00000000

ion      s     py     pz     px    dxy    dyz    dz2    dxz  x2-y2    tot
    1  0.000  0.000  0.098  0.097  0.000  0.000  0.000  0.000  0.000  0.195
    2  0.000  0.000  0.098  0.097  0.000  0.000  0.000  0.000  0.000  0.195
tot    0.000  0.000  0.195  0.194  0.000  0.000  0.000  0.000  0.000  0.389

band     4 # energy    2.81507943 # occ.  2.00000000

ion      s     py     pz     px    dxy    dyz    dz2    dxz  x2-y2    tot
    1  0.000  0.000  0.097  0.098  0.000  0.000  0.000  0.000  0.000  0.195
    2  0.000  0.000  0.097  0.098  0.000  0.000  0.000  0.000  0.000  0.195
tot    0.000  0.000  0.194  0.195  0.000  0.000  0.000  0.000  0.000  0.389

band     5 # energy    6.36349225 # occ.  0.00000000

ion      s     py     pz     px    dxy    dyz    dz2    dxz  x2-y2    tot
    1  0.051  0.036  0.000  0.000  0.000  0.000  0.000  0.000  0.000  0.088
    2  0.051  0.036  0.000  0.000  0.000  0.000  0.000  0.000  0.000  0.088
tot    0.102  0.073  0.000  0.001  0.000  0.000  0.000  0.000  0.000  0.176

band     6 # energy    6.38635689 # occ.  0.00000000

ion      s     py     pz     px    dxy    dyz    dz2    dxz  x2-y2    tot
    1  0.051  0.036  0.000  0.000  0.000  0.000  0.000  0.000  0.000  0.087
    2  0.051  0.036  0.000  0.000  0.000  0.000  0.000  0.000  0.000  0.087
tot    0.102  0.072  0.000  0.001  0.000  0.000  0.000  0.000  0.000  0.174

band     7 # energy   15.52848887 # occ.  0.00000000

ion      s     py     pz     px    dxy    dyz    dz2    dxz  x2-y2    tot
    1  0.000  0.000  0.088  0.149  0.000  0.000  0.000  0.000  0.000  0.238
    2  0.000  0.000  0.142  0.094  0.000  0.000  0.000  0.000  0.000  0.237
tot    0.001  0.001  0.230  0.243  0.000  0.000  0.000  0.000  0.000  0.475

band     8 # energy   15.53447645 # occ.  0.00000000

ion      s     py     pz     px    dxy    dyz    dz2    dxz  x2-y2    tot
    1  0.000  0.000  0.149  0.092  0.000  0.000  0.000  0.000  0.000  0.241
    2  0.000  0.000  0.090  0.144  0.000  0.000  0.000  0.000  0.000  0.235
tot    0.000  0.000  0.239  0.236  0.000  0.000  0.000  0.000  0.000  0.476


 k-point   240 :    0.50000000 0.00000000 0.50000000     weight = 0.00416667

band     1 # energy   -2.13232827 # occ.  2.00000000

ion      s     py     pz     px    dxy    dyz    dz2    dxz  x2-y2    tot
    1  0.193  0.044  0.000  0.000  0.000  0.000  0.000  0.000  0.000  0.237
    2  0.193  0.044  0.000  0.000  0.000  0.000  0.000  0.000  0.000  0.237
tot    0.387  0.088  0.000  0.000  0.000  0.000  0.000  0.000  0.000  0.474

band     2 # energy   -2.13232825 # occ.  2.00000000

ion      s     py     pz     px    dxy    dyz    dz2    dxz  x2-y2    tot
    1  0.193  0.044  0.000  0.000  0.000  0.000  0.000  0.000  0.000  0.237
    2  0.193  0.044  0.000  0.000  0.000  0.000  0.000  0.000  0.000  0.237
tot    0.387  0.088  0.000  0.000  0.000  0.000  0.000  0.000  0.000  0.474

band     3 # energy    2.81964305 # occ.  2.00000000

ion      s     py     pz     px    dxy    dyz    dz2    dxz  x2-y2    tot
    1  0.000  0.000  0.097  0.097  0.000  0.000  0.000  0.000  0.000  0.195
    2  0.000  0.000  0.097  0.097  0.000  0.000  0.000  0.000  0.000  0.195
tot    0.000  0.000  0.195  0.195  0.000  0.000  0.000  0.000  0.000  0.390

band     4 # energy    2.81964310 # occ.  2.00000000

ion      s     py     pz     px    dxy    dyz    dz2    dxz  x2-y2    tot
    1  0.000  0.000  0.097  0.097  0.000  0.000  0.000  0.000  0.000  0.195
    2  0.000  0.000  0.097  0.097  0.000  0.000  0.000  0.000  0.000  0.195
tot    0.000  0.000  0.195  0.195  0.000  0.000  0.000  0.000  0.000  0.390

band     5 # energy    6.36587166 # occ.  0.00000000

ion      s     py     pz     px    dxy    dyz    dz2    dxz  x2-y2    tot
    1  0.051  0.036  0.000  0.000  0.000  0.000  0.000  0.000  0.000  0.087
    2  0.051  0.036  0.000  0.000  0.000  0.000  0.000  0.000  0.000  0.087
tot    0.102  0.072  0.000  0.000  0.000  0.000  0.000  0.000  0.000  0.175

band     6 # energy    6.36587167 # occ.  0.00000000

ion      s     py     pz     px    dxy    dyz    dz2    dxz  x2-y2    tot
    1  0.051  0.036  0.000  0.000  0.000  0.000  0.000  0.000  0.000  0.087
    2  0.051  0.036  0.000  0.000  0.000  0.000  0.000  0.000  0.000  0.087
tot    0.102  0.072  0.000  0.000  0.000  0.000  0.000  0.000  0.000  0.175

band     7 # energy   15.54823036 # occ.  0.00000000

ion      s     py     pz     px    dxy    dyz    dz2    dxz  x2-y2    tot
    1  0.000  0.000  0.073  0.166  0.000  0.000  0.000  0.000  0.000  0.239
    2  0.000  0.000  0.167  0.074  0.000  0.000  0.000  0.000  0.000  0.241
tot    0.000  0.000  0.240  0.240  0.000  0.000  0.000  0.000  0.000  0.480

band     8 # energy   15.54839815 # occ.  0.00000000

ion      s     py     pz     px    dxy    dyz    dz2    dxz  x2-y2    tot
    1  0.000  0.000  0.167  0.073  0.000  0.000  0.000  0.000  0.000  0.240
    2  0.000  0.000  0.073  0.167  0.000  0.000  0.000  0.000  0.000  0.240
tot    0.000  0.000  0.240  0.240  0.000  0.000  0.000  0.000  0.000  0.480

