<?xml version="1.0" encoding="ISO-8859-1"?>
<modeling>
 <generator>
  <i name="program" type="string">vasp </i>
  <i name="version" type="string">5.4.4.18Apr17-6-g9f103f2a35  </i>
  <i name="subversion" type="string">(build Jul 17 2026 20:05:20) complex            parallel </i>
  <i name="platform" type="string">LinuxGNU </i>
  <i name="date" type="string">2026 08 12 </i>
  <i name="time" type="string">20:05:09 </i>
 </generator>
 <incar>
  <i type="int" name="ISTART">     1</i>
  <i type="string" name="PREC">accurate     (precision level)</i>
  <i type="logical" name="ADDGRID"> T  </i>
  <i type="int" name="ISPIN">     1</i>
  <i type="int" name="ICHARG">    11</i>
  <i type="int" name="NELM">    60</i>
  <i type="int" name="IBRION">    -1</i>
  <i name="EDIFF">      0.00000100</i>
  <i type="int" name="NSW">     0</i>
  <i name="ENCUT">    400.00000000</i>
  <i type="logical" name="LREAL"> F  </i>
  <i type="int" name="ISMEAR">     0</i>
  <i name="SIGMA">      0.05000000</i>
  <i type="logical" name="LWAVE"> F  </i>
  <i type="logical" name="LCHARG"> F  </i>
  <i type="int" name="LORBIT">    11</i>
  <v type="int" name="KPOINT_BSE">    -1     0     0     0</v>
  <i type="int" name="NELM">    60</i>
 </incar>
 <structure name="primitive_cell" >
  <crystal>
   <varray name="basis" >
    <v>       0.00000000       2.73461054       2.73461054 </v>
    <v>       2.73461054      -0.00000000       2.73461054 </v>
    <v>       2.73461054       2.73461054       0.00000000 </v>
   </varray>
   <i name="volume">     40.89935362 </i>
   <varray name="rec_basis" >
    <v>      -0.18284139       0.18284139       0.18284139 </v>
    <v>       0.18284139      -0.18284139       0.18284139 </v>
    <v>       0.18284139       0.18284139      -0.18284139 </v>
   </varray>
  </crystal>
  <varray name="positions" >
   <v>       0.00000000       0.00000000       0.00000000 </v>
   <v>       0.25000000       0.25000000       0.25000000 </v>
  </varray>
 </structure>
 <varray name="primitive_index" >
  <v type="int" >        1 </v>
  <v type="int" >        2 </v>
 </varray>
 <kpoints>
  <generation param="listgenerated">
   <i name="divisions" type="int">      40 </i>
   <v>       0.00000000       0.00000000       0.00000000 </v>
   <v>       0.50000000       0.00000000       0.50000000 </v>
   <v>       0.50000000       0.25000000       0.75000000 </v>
   <v>       0.50000000       0.50000000       0.50000000 </v>
   <v>       0.00000000       0.00000000       0.00000000 </v>
   <v>       0.37500000       0.37500000       0.75000000 </v>
   <v>       0.50000000       0.00000000       0.50000000 </v>
  </generation>
  <varray name="kpointlist" >
   <v>       0.00000000       0.00000000       0.00000000 </v>
   <v>       0.01282051       0.00000000       0.01282051 </v>
   <v>       0.02564103       0.00000000       0.02564103 </v>
   <v>       0.03846154       0.00000000       0.03846154 </v>
   <v>       0.05128205       0.00000000       0.05128205 </v>
   <v>       0.06410256       0.00000000       0.06410256 </v>
   <v>       0.07692308       0.00000000       0.07692308 </v>
   <v>       0.08974359       0.00000000       0.08974359 </v>
   <v>       0.10256410       0.00000000       0.10256410 </v>
   <v>       0.11538462       0.00000000       0.11538462 </v>
   <v>       0.12820513       0.00000000       0.12820513 </v>
   <v>       0.14102564       0.00000000       0.14102564 </v>
   <v>       0.15384615       0.00000000       0.15384615 </v>
   <v>       0.16666667       0.00000000       0.16666667 </v>
   <v>       0.17948718       0.00000000       0.17948718 </v>
   <v>       0.19230769       0.00000000       0.19230769 </v>
   <v>       0.20512821       0.00000000       0.20512821 </v>
   <v>       0.21794872       0.00000000       0.21794872 </v>
   <v>       0.23076923       0.00000000       0.23076923 </v>
   <v>       0.24358974       0.00000000       0.24358974 </v>
   <v>       0.25641026       0.00000000       0.25641026 </v>
   <v>       0.26923077       0.00000000       0.26923077 </v>
   <v>       0.28205128       0.00000000       0.28205128 </v>
   <v>       0.29487179       0.00000000       0.29487179 </v>
   <v>       0.30769231       0.00000000       0.30769231 </v>
   <v>       0.32051282       0.00000000       0.32051282 </v>
   <v>       0.33333333       0.00000000       0.33333333 </v>
   <v>       0.34615385       0.00000000       0.34615385 </v>
   <v>       0.35897436       0.00000000       0.35897436 </v>
   <v>       0.37179487       0.00000000       0.37179487 </v>
   <v>       0.38461538       0.00000000       0.38461538 </v>
   <v>       0.39743590       0.00000000       0.39743590 </v>
   <v>       0.41025641       0.00000000       0.41025641 </v>
   <v>       0.42307692       0.00000000       0.42307692 </v>
   <v>       0.43589744       0.00000000       0.43589744 </v>
   <v>       0.44871795       0.00000000       0.44871795 </v>
   <v>       0.46153846       0.00000000       0.46153846 </v>
   <v>       0.47435897       0.00000000       0.47435897 </v>
   <v>       0.48717949       0.00000000       0.48717949 </v>
   <v>       0.50000000       0.00000000       0.50000000 </v>
   <v>       0.50000000       0.00000000       0.50000000 </v>
   <v>       0.50000000       0.00641026       0.50641026 </v>
   <v>       0.50000000       0.01282051       0.51282051 </v>
   <v>       0.50000000       0.01923077       0.51923077 </v>
   <v>       0.50000000       0.02564103       0.52564103 </v>
   <v>       0.50000000       0.03205128       0.53205128 </v>
   <v>       0.50000000       0.03846154       0.53846154 </v>
   <v>       0.50000000       0.04487179       0.54487179 </v>
   <v>       0.50000000       0.05128205       0.55128205 </v>
   <v>       0.50000000       0.05769231       0.55769231 </v>
   <v>       0.50000000       0.06410256       0.56410256 </v>
   <v>       0.50000000       0.07051282       0.57051282 </v>
   <v>       0.50000000       0.07692308       0.57692308 </v>
   <v>       0.50000000       0.08333333       0.58333333 </v>
   <v>       0.50000000       0.08974359       0.58974359 </v>
   <v>       0.50000000       0.09615385       0.59615385 </v>
   <v>       0.50000000       0.10256410       0.60256410 </v>
   <v>       0.50000000       0.10897436       0.60897436 </v>
   <v>       0.50000000       0.11538462       0.61538462 </v>
   <v>       0.50000000       0.12179487       0.62179487 </v>
   <v>       0.50000000       0.12820513       0.62820513 </v>
   <v>       0.50000000       0.13461538       0.63461538 </v>
   <v>       0.50000000       0.14102564       0.64102564 </v>
   <v>       0.50000000       0.14743590       0.64743590 </v>
   <v>       0.50000000       0.15384615       0.65384615 </v>
   <v>       0.50000000       0.16025641       0.66025641 </v>
   <v>       0.50000000       0.16666667       0.66666667 </v>
   <v>       0.50000000       0.17307692       0.67307692 </v>
   <v>       0.50000000       0.17948718       0.67948718 </v>
   <v>       0.50000000       0.18589744       0.68589744 </v>
   <v>       0.50000000       0.19230769       0.69230769 </v>
   <v>       0.50000000       0.19871795       0.69871795 </v>
   <v>       0.50000000       0.20512821       0.70512821 </v>
   <v>       0.50000000       0.21153846       0.71153846 </v>
   <v>       0.50000000       0.21794872       0.71794872 </v>
   <v>       0.50000000       0.22435897       0.72435897 </v>
   <v>       0.50000000       0.23076923       0.73076923 </v>
   <v>       0.50000000       0.23717949       0.73717949 </v>
   <v>       0.50000000       0.24358974       0.74358974 </v>
   <v>       0.50000000       0.25000000       0.75000000 </v>
   <v>       0.50000000       0.25000000       0.75000000 </v>
   <v>       0.50000000       0.25641026       0.74358974 </v>
   <v>       0.50000000       0.26282051       0.73717949 </v>
   <v>       0.50000000       0.26923077       0.73076923 </v>
   <v>       0.50000000       0.27564103       0.72435897 </v>
   <v>       0.50000000       0.28205128       0.71794872 </v>
   <v>       0.50000000       0.28846154       0.71153846 </v>
   <v>       0.50000000       0.29487179       0.70512821 </v>
   <v>       0.50000000       0.30128205       0.69871795 </v>
   <v>       0.50000000       0.30769231       0.69230769 </v>
   <v>       0.50000000       0.31410256       0.68589744 </v>
   <v>       0.50000000       0.32051282       0.67948718 </v>
   <v>       0.50000000       0.32692308       0.67307692 </v>
   <v>       0.50000000       0.33333333       0.66666667 </v>
   <v>       0.50000000       0.33974359       0.66025641 </v>
   <v>       0.50000000       0.34615385       0.65384615 </v>
   <v>       0.50000000       0.35256410       0.64743590 </v>
   <v>       0.50000000       0.35897436       0.64102564 </v>
   <v>       0.50000000       0.36538462       0.63461538 </v>
   <v>       0.50000000       0.37179487       0.62820513 </v>
   <v>       0.50000000       0.37820513       0.62179487 </v>
   <v>       0.50000000       0.38461538       0.61538462 </v>
   <v>       0.50000000       0.39102564       0.60897436 </v>
   <v>       0.50000000       0.39743590       0.60256410 </v>
   <v>       0.50000000       0.40384615       0.59615385 </v>
   <v>       0.50000000       0.41025641       0.58974359 </v>
   <v>       0.50000000       0.41666667       0.58333333 </v>
   <v>       0.50000000       0.42307692       0.57692308 </v>
   <v>       0.50000000       0.42948718       0.57051282 </v>
   <v>       0.50000000       0.43589744       0.56410256 </v>
   <v>       0.50000000       0.44230769       0.55769231 </v>
   <v>       0.50000000       0.44871795       0.55128205 </v>
   <v>       0.50000000       0.45512821       0.54487179 </v>
   <v>       0.50000000       0.46153846       0.53846154 </v>
   <v>       0.50000000       0.46794872       0.53205128 </v>
   <v>       0.50000000       0.47435897       0.52564103 </v>
   <v>       0.50000000       0.48076923       0.51923077 </v>
   <v>       0.50000000       0.48717949       0.51282051 </v>
   <v>       0.50000000       0.49358974       0.50641026 </v>
   <v>       0.50000000       0.50000000       0.50000000 </v>
   <v>       0.50000000       0.50000000       0.50000000 </v>
   <v>       0.48717949       0.48717949       0.48717949 </v>
   <v>       0.47435897       0.47435897       0.47435897 </v>
   <v>       0.46153846       0.46153846       0.46153846 </v>
   <v>       0.44871795       0.44871795       0.44871795 </v>
   <v>       0.43589744       0.43589744       0.43589744 </v>
   <v>       0.42307692       0.42307692       0.42307692 </v>
   <v>       0.41025641       0.41025641       0.41025641 </v>
   <v>       0.39743590       0.39743590       0.39743590 </v>
   <v>       0.38461538       0.38461538       0.38461538 </v>
   <v>       0.37179487       0.37179487       0.37179487 </v>
   <v>       0.35897436       0.35897436       0.35897436 </v>
   <v>       0.34615385       0.34615385       0.34615385 </v>
   <v>       0.33333333       0.33333333       0.33333333 </v>
   <v>       0.32051282       0.32051282       0.32051282 </v>
   <v>       0.30769231       0.30769231       0.30769231 </v>
   <v>       0.29487179       0.29487179       0.29487179 </v>
   <v>       0.28205128       0.28205128       0.28205128 </v>
   <v>       0.26923077       0.26923077       0.26923077 </v>
   <v>       0.25641026       0.25641026       0.25641026 </v>
   <v>       0.24358974       0.24358974       0.24358974 </v>
   <v>       0.23076923       0.23076923       0.23076923 </v>
   <v>       0.21794872       0.21794872       0.21794872 </v>
   <v>       0.20512821       0.20512821       0.20512821 </v>
   <v>       0.19230769       0.19230769       0.19230769 </v>
   <v>       0.17948718       0.17948718       0.17948718 </v>
   <v>       0.16666667       0.16666667       0.16666667 </v>
   <v>       0.15384615       0.15384615       0.15384615 </v>
   <v>       0.14102564       0.14102564       0.14102564 </v>
   <v>       0.12820513       0.12820513       0.12820513 </v>
   <v>       0.11538462       0.11538462       0.11538462 </v>
   <v>       0.10256410       0.10256410       0.10256410 </v>
   <v>       0.08974359       0.08974359       0.08974359 </v>
   <v>       0.07692308       0.07692308       0.07692308 </v>
   <v>       0.06410256       0.06410256       0.06410256 </v>
   <v>       0.05128205       0.05128205       0.05128205 </v>
   <v>       0.03846154       0.03846154       0.03846154 </v>
   <v>       0.02564103       0.02564103       0.02564103 </v>
   <v>       0.01282051       0.01282051       0.01282051 </v>
   <v>       0.00000000       0.00000000       0.00000000 </v>
   <v>       0.00000000       0.00000000       0.00000000 </v>
   <v>       0.00961538       0.00961538       0.01923077 </v>
   <v>       0.01923077       0.01923077       0.03846154 </v>
   <v>       0.02884615       0.02884615       0.05769231 </v>
   <v>       0.03846154       0.03846154       0.07692308 </v>
   <v>       0.04807692       0.04807692       0.09615385 </v>
   <v>       0.05769231       0.05769231       0.11538462 </v>
   <v>       0.06730769       0.06730769       0.13461538 </v>
   <v>       0.07692308       0.07692308       0.15384615 </v>
   <v>       0.08653846       0.08653846       0.17307692 </v>
   <v>       0.09615385       0.09615385       0.19230769 </v>
   <v>       0.10576923       0.10576923       0.21153846 </v>
   <v>       0.11538462       0.11538462       0.23076923 </v>
   <v>       0.12500000       0.12500000       0.25000000 </v>
   <v>       0.13461538       0.13461538       0.26923077 </v>
   <v>       0.14423077       0.14423077       0.28846154 </v>
   <v>       0.15384615       0.15384615       0.30769231 </v>
   <v>       0.16346154       0.16346154       0.32692308 </v>
   <v>       0.17307692       0.17307692       0.34615385 </v>
   <v>       0.18269231       0.18269231       0.36538462 </v>
   <v>       0.19230769       0.19230769       0.38461538 </v>
   <v>       0.20192308       0.20192308       0.40384615 </v>
   <v>       0.21153846       0.21153846       0.42307692 </v>
   <v>       0.22115385       0.22115385       0.44230769 </v>
   <v>       0.23076923       0.23076923       0.46153846 </v>
   <v>       0.24038462       0.24038462       0.48076923 </v>
   <v>       0.25000000       0.25000000       0.50000000 </v>
   <v>       0.25961538       0.25961538       0.51923077 </v>
   <v>       0.26923077       0.26923077       0.53846154 </v>
   <v>       0.27884615       0.27884615       0.55769231 </v>
   <v>       0.28846154       0.28846154       0.57692308 </v>
   <v>       0.29807692       0.29807692       0.59615385 </v>
   <v>       0.30769231       0.30769231       0.61538462 </v>
   <v>       0.31730769       0.31730769       0.63461538 </v>
   <v>       0.32692308       0.32692308       0.65384615 </v>
   <v>       0.33653846       0.33653846       0.67307692 </v>
   <v>       0.34615385       0.34615385       0.69230769 </v>
   <v>       0.35576923       0.35576923       0.71153846 </v>
   <v>       0.36538462       0.36538462       0.73076923 </v>
   <v>       0.37500000       0.37500000       0.75000000 </v>
   <v>       0.37500000       0.37500000       0.75000000 </v>
   <v>       0.37820513       0.36538462       0.74358974 </v>
   <v>       0.38141026       0.35576923       0.73717949 </v>
   <v>       0.38461538       0.34615385       0.73076923 </v>
   <v>       0.38782051       0.33653846       0.72435897 </v>
   <v>       0.39102564       0.32692308       0.71794872 </v>
   <v>       0.39423077       0.31730769       0.71153846 </v>
   <v>       0.39743590       0.30769231       0.70512821 </v>
   <v>       0.40064103       0.29807692       0.69871795 </v>
   <v>       0.40384615       0.28846154       0.69230769 </v>
   <v>       0.40705128       0.27884615       0.68589744 </v>
   <v>       0.41025641       0.26923077       0.67948718 </v>
   <v>       0.41346154       0.25961538       0.67307692 </v>
   <v>       0.41666667       0.25000000       0.66666667 </v>
   <v>       0.41987179       0.24038462       0.66025641 </v>
   <v>       0.42307692       0.23076923       0.65384615 </v>
   <v>       0.42628205       0.22115385       0.64743590 </v>
   <v>       0.42948718       0.21153846       0.64102564 </v>
   <v>       0.43269231       0.20192308       0.63461538 </v>
   <v>       0.43589744       0.19230769       0.62820513 </v>
   <v>       0.43910256       0.18269231       0.62179487 </v>
   <v>       0.44230769       0.17307692       0.61538462 </v>
   <v>       0.44551282       0.16346154       0.60897436 </v>
   <v>       0.44871795       0.15384615       0.60256410 </v>
   <v>       0.45192308       0.14423077       0.59615385 </v>
   <v>       0.45512821       0.13461538       0.58974359 </v>
   <v>       0.45833333       0.12500000       0.58333333 </v>
   <v>       0.46153846       0.11538462       0.57692308 </v>
   <v>       0.46474359       0.10576923       0.57051282 </v>
   <v>       0.46794872       0.09615385       0.56410256 </v>
   <v>       0.47115385       0.08653846       0.55769231 </v>
   <v>       0.47435897       0.07692308       0.55128205 </v>
   <v>       0.47756410       0.06730769       0.54487179 </v>
   <v>       0.48076923       0.05769231       0.53846154 </v>
   <v>       0.48397436       0.04807692       0.53205128 </v>
   <v>       0.48717949       0.03846154       0.52564103 </v>
   <v>       0.49038462       0.02884615       0.51923077 </v>
   <v>       0.49358974       0.01923077       0.51282051 </v>
   <v>       0.49679487       0.00961538       0.50641026 </v>
   <v>       0.50000000       0.00000000       0.50000000 </v>
  </varray>
  <varray name="weights" >
   <v>       0.00416667 </v>
   <v>       0.00416667 </v>
   <v>       0.00416667 </v>
   <v>       0.00416667 </v>
   <v>       0.00416667 </v>
   <v>       0.00416667 </v>
   <v>       0.00416667 </v>
   <v>       0.00416667 </v>
   <v>       0.00416667 </v>
   <v>       0.00416667 </v>
   <v>       0.00416667 </v>
   <v>       0.00416667 </v>
   <v>       0.00416667 </v>
   <v>       0.00416667 </v>
   <v>       0.00416667 </v>
   <v>       0.00416667 </v>
   <v>       0.00416667 </v>
   <v>       0.00416667 </v>
   <v>       0.00416667 </v>
   <v>       0.00416667 </v>
   <v>       0.00416667 </v>
   <v>       0.00416667 </v>
   <v>       0.00416667 </v>
   <v>       0.00416667 </v>
   <v>       0.00416667 </v>
   <v>       0.00416667 </v>
   <v>       0.00416667 </v>
   <v>       0.00416667 </v>
   <v>       0.00416667 </v>
   <v>       0.00416667 </v>
   <v>       0.00416667 </v>
   <v>       0.00416667 </v>
   <v>       0.00416667 </v>
   <v>       0.00416667 </v>
   <v>       0.00416667 </v>
   <v>       0.00416667 </v>
   <v>       0.00416667 </v>
   <v>       0.00416667 </v>
   <v>       0.00416667 </v>
   <v>       0.00416667 </v>
   <v>       0.00416667 </v>
   <v>       0.00416667 </v>
   <v>       0.00416667 </v>
   <v>       0.00416667 </v>
   <v>       0.00416667 </v>
   <v>       0.00416667 </v>
   <v>       0.00416667 </v>
   <v>       0.00416667 </v>
   <v>       0.00416667 </v>
   <v>       0.00416667 </v>
   <v>       0.00416667 </v>
   <v>       0.00416667 </v>
   <v>       0.00416667 </v>
   <v>       0.00416667 </v>
   <v>       0.00416667 </v>
   <v>       0.00416667 </v>
   <v>       0.00416667 </v>
   <v>       0.00416667 </v>
   <v>       0.00416667 </v>
   <v>       0.00416667 </v>
   <v>       0.00416667 </v>
   <v>       0.00416667 </v>
   <v>       0.00416667 </v>
   <v>       0.00416667 </v>
   <v>       0.00416667 </v>
   <v>       0.00416667 </v>
   <v>       0.00416667 </v>
   <v>       0.00416667 </v>
   <v>       0.00416667 </v>
   <v>       0.00416667 </v>
   <v>       0.00416667 </v>
   <v>       0.00416667 </v>
   <v>       0.00416667 </v>
   <v>       0.00416667 </v>
   <v>       0.00416667 </v>
   <v>       0.00416667 </v>
   <v>       0.00416667 </v>
   <v>       0.00416667 </v>
   <v>       0.00416667 </v>
   <v>       0.00416667 </v>
   <v>       0.00416667 </v>
   <v>       0.00416667 </v>
   <v>       0.00416667 </v>
   <v>       0.00416667 </v>
   <v>       0.00416667 </v>
   <v>       0.00416667 </v>
   <v>       0.00416667 </v>
   <v>       0.00416667 </v>
   <v>       0.00416667 </v>
   <v>       0.00416667 </v>
   <v>       0.00416667 </v>
   <v>       0.00416667 </v>
   <v>       0.00416667 </v>
   <v>       0.00416667 </v>
   <v>       0.00416667 </v>
   <v>       0.00416667 </v>
   <v>       0.00416667 </v>
   <v>       0.00416667 </v>
   <v>       0.00416667 </v>
   <v>       0.00416667 </v>
   <v>       0.00416667 </v>
   <v>       0.00416667 </v>
   <v>       0.00416667 </v>
   <v>       0.00416667 </v>
   <v>       0.00416667 </v>
   <v>       0.00416667 </v>
   <v>       0.00416667 </v>
   <v>       0.00416667 </v>
   <v>       0.00416667 </v>
   <v>       0.00416667 </v>
   <v>       0.00416667 </v>
   <v>       0.00416667 </v>
   <v>       0.00416667 </v>
   <v>       0.00416667 </v>
   <v>       0.00416667 </v>
   <v>       0.00416667 </v>
   <v>       0.00416667 </v>
   <v>       0.00416667 </v>
   <v>       0.00416667 </v>
   <v>       0.00416667 </v>
   <v>       0.00416667 </v>
   <v>       0.00416667 </v>
   <v>       0.00416667 </v>
   <v>       0.00416667 </v>
   <v>       0.00416667 </v>
   <v>       0.00416667 </v>
   <v>       0.00416667 </v>
   <v>       0.00416667 </v>
   <v>       0.00416667 </v>
   <v>       0.00416667 </v>
   <v>       0.00416667 </v>
   <v>       0.00416667 </v>
   <v>       0.00416667 </v>
   <v>       0.00416667 </v>
   <v>       0.00416667 </v>
   <v>       0.00416667 </v>
   <v>       0.00416667 </v>
   <v>       0.00416667 </v>
   <v>       0.00416667 </v>
   <v>       0.00416667 </v>
   <v>       0.00416667 </v>
   <v>       0.00416667 </v>
   <v>       0.00416667 </v>
   <v>       0.00416667 </v>
   <v>       0.00416667 </v>
   <v>       0.00416667 </v>
   <v>       0.00416667 </v>
   <v>       0.00416667 </v>
   <v>       0.00416667 </v>
   <v>       0.00416667 </v>
   <v>       0.00416667 </v>
   <v>       0.00416667 </v>
   <v>       0.00416667 </v>
   <v>       0.00416667 </v>
   <v>       0.00416667 </v>
   <v>       0.00416667 </v>
   <v>       0.00416667 </v>
   <v>       0.00416667 </v>
   <v>       0.00416667 </v>
   <v>       0.00416667 </v>
   <v>       0.00416667 </v>
   <v>       0.00416667 </v>
   <v>       0.00416667 </v>
   <v>       0.00416667 </v>
   <v>       0.00416667 </v>
   <v>       0.00416667 </v>
   <v>       0.00416667 </v>
   <v>       0.00416667 </v>
   <v>       0.00416667 </v>
   <v>       0.00416667 </v>
   <v>       0.00416667 </v>
   <v>       0.00416667 </v>
   <v>       0.00416667 </v>
   <v>       0.00416667 </v>
   <v>       0.00416667 </v>
   <v>       0.00416667 </v>
   <v>       0.00416667 </v>
   <v>       0.00416667 </v>
   <v>       0.00416667 </v>
   <v>       0.00416667 </v>
   <v>       0.00416667 </v>
   <v>       0.00416667 </v>
   <v>       0.00416667 </v>
   <v>       0.00416667 </v>
   <v>       0.00416667 </v>
   <v>       0.00416667 </v>
   <v>       0.00416667 </v>
   <v>       0.00416667 </v>
   <v>       0.00416667 </v>
   <v>       0.00416667 </v>
   <v>       0.00416667 </v>
   <v>       0.00416667 </v>
   <v>       0.00416667 </v>
   <v>       0.00416667 </v>
   <v>       0.00416667 </v>
   <v>       0.00416667 </v>
   <v>       0.00416667 </v>
   <v>       0.00416667 </v>
   <v>       0.00416667 </v>
   <v>       0.00416667 </v>
   <v>       0.00416667 </v>
   <v>       0.00416667 </v>
   <v>       0.00416667 </v>
   <v>       0.00416667 </v>
   <v>       0.00416667 </v>
   <v>       0.00416667 </v>
   <v>       0.00416667 </v>
   <v>       0.00416667 </v>
   <v>       0.00416667 </v>
   <v>       0.00416667 </v>
   <v>       0.00416667 </v>
   <v>       0.00416667 </v>
   <v>       0.00416667 </v>
   <v>       0.00416667 </v>
   <v>       0.00416667 </v>
   <v>       0.00416667 </v>
   <v>       0.00416667 </v>
   <v>       0.00416667 </v>
   <v>       0.00416667 </v>
   <v>       0.00416667 </v>
   <v>       0.00416667 </v>
   <v>       0.00416667 </v>
   <v>       0.00416667 </v>
   <v>       0.00416667 </v>
   <v>       0.00416667 </v>
   <v>       0.00416667 </v>
   <v>       0.00416667 </v>
   <v>       0.00416667 </v>
   <v>       0.00416667 </v>
   <v>       0.00416667 </v>
   <v>       0.00416667 </v>
   <v>       0.00416667 </v>
   <v>       0.00416667 </v>
   <v>       0.00416667 </v>
   <v>       0.00416667 </v>
   <v>       0.00416667 </v>
   <v>       0.00416667 </v>
   <v>       0.00416667 </v>
   <v>       0.00416667 </v>
   <v>       0.00416667 </v>
  </varray>
 </kpoints>
 <parameters>
  <separator name="general" >
   <i type="string" name="SYSTEM">unknown system</i>
   <i type="logical" name="LCOMPAT"> F  </i>
  </separator>
  <separator name="electronic" >
   <i type="string" name="PREC">accura</i>
   <i name="ENMAX">    400.00000000</i>
   <i name="ENAUG">    322.06900000</i>
   <i name="EDIFF">      0.00000100</i>
   <i type="int" name="IALGO">    38</i>
   <i type="int" name="IWAVPR">    10</i>
   <i type="int" name="NBANDS">     8</i>
   <i name="NELECT">      8.00000000</i>
   <i type="int" name="TURBO">     0</i>
   <i type="int" name="IRESTART">     0</i>
   <i type="int" name="NREBOOT">     0</i>
   <i type="int" name="NMIN">     0</i>
   <i name="EREF">      0.00000000</i>
   <separator name="electronic smearing" >
    <i type="int" name="ISMEAR">     0</i>
    <i name="SIGMA">      0.05000000</i>
    <i name="KSPACING">      0.50000000</i>
    <i type="logical" name="KGAMMA"> T  </i>
   </separator>
   <separator name="electronic projectors" >
    <i type="logical" name="LREAL"> F  </i>
    <v name="ROPT">      0.00000000</v>
    <i type="int" name="LMAXPAW">  -100</i>
    <i type="int" name="LMAXMIX">     2</i>
    <i type="logical" name="NLSPLINE"> F  </i>
   </separator>
   <separator name="electronic startup" >
    <i type="int" name="ISTART">     0</i>
    <i type="int" name="ICHARG">    11</i>
    <i type="int" name="INIWAV">     1</i>
   </separator>
   <separator name="electronic spin" >
    <i type="int" name="ISPIN">     1</i>
    <i type="logical" name="LNONCOLLINEAR"> F  </i>
    <v name="MAGMOM">      1.00000000      1.00000000</v>
    <i name="NUPDOWN">     -1.00000000</i>
    <i type="logical" name="LSORBIT"> F  </i>
    <v name="SAXIS">      0.00000000      0.00000000      1.00000000</v>
    <i type="logical" name="LSPIRAL"> F  </i>
    <v name="QSPIRAL">      0.00000000      0.00000000      0.00000000</v>
    <i type="logical" name="LZEROZ"> F  </i>
   </separator>
   <separator name="electronic exchange-correlation" >
    <i type="logical" name="LASPH"> F  </i>
    <i type="logical" name="LMETAGGA"> F  </i>
   </separator>
   <separator name="electronic convergence" >
    <i type="int" name="NELM">    60</i>
    <i type="int" name="NELMDL">     0</i>
    <i type="int" name="NELMIN">     2</i>
    <i name="ENINI">    400.00000000</i>
    <separator name="electronic convergence detail" >
     <i type="logical" name="LDIAG"> T  </i>
     <i type="logical" name="LSUBROT"> F  </i>
     <i name="WEIMIN">      0.00000000</i>
     <i name="EBREAK">      0.00000003</i>
     <i name="DEPER">      0.30000000</i>
     <i type="int" name="NRMM">     4</i>
     <i name="TIME">      0.40000000</i>
    </separator>
   </separator>
   <separator name="electronic mixer" >
    <i name="AMIX">      0.40000000</i>
    <i name="BMIX">      1.00000000</i>
    <i name="AMIN">      0.10000000</i>
    <i name="AMIX_MAG">      1.60000000</i>
    <i name="BMIX_MAG">      1.00000000</i>
    <separator name="electronic mixer details" >
     <i type="int" name="IMIX">     4</i>
     <i type="logical" name="MIXFIRST"> F  </i>
     <i type="int" name="MAXMIX">   -45</i>
     <i name="WC">    100.00000000</i>
     <i type="int" name="INIMIX">     1</i>
     <i type="int" name="MIXPRE">     1</i>
     <i type="int" name="MREMOVE">     5</i>
    </separator>
   </separator>
   <separator name="electronic dipolcorrection" >
    <i type="logical" name="LDIPOL"> F  </i>
    <i type="logical" name="LMONO"> F  </i>
    <i type="int" name="IDIPOL">     0</i>
    <i name="EPSILON">      1.00000000</i>
    <v name="DIPOL">   -100.00000000   -100.00000000   -100.00000000</v>
    <i name="EFIELD">      0.00000000</i>
   </separator>
  </separator>
  <separator name="grids" >
   <i type="int" name="NGX">    28</i>
   <i type="int" name="NGY">    28</i>
   <i type="int" name="NGZ">    28</i>
   <i type="int" name="NGXF">    56</i>
   <i type="int" name="NGYF">    56</i>
   <i type="int" name="NGZF">    56</i>
   <i type="logical" name="ADDGRID"> T  </i>
  </separator>
  <separator name="ionic" >
   <i type="int" name="NSW">     0</i>
   <i type="int" name="IBRION">    -1</i>
   <i type="int" name="MDALGO">     0</i>
   <i type="int" name="ISIF">     2</i>
   <i name="PSTRESS">      0.00000000</i>
   <i name="EDIFFG">      0.00001000</i>
   <i type="int" name="NFREE">     0</i>
   <i name="POTIM">      0.50000000</i>
   <i name="SMASS">     -3.00000000</i>
   <i name="SCALEE">      1.00000000</i>
  </separator>
  <separator name="ionic md" >
   <i name="TEBEG">      0.00010000</i>
   <i name="TEEND">      0.00010000</i>
   <i type="int" name="NBLOCK">     1</i>
   <i type="int" name="KBLOCK">     1</i>
   <i type="int" name="NPACO">   256</i>
   <i name="APACO">     16.00000000</i>
  </separator>
  <separator name="symmetry" >
   <i type="int" name="ISYM">     2</i>
   <i name="SYMPREC">      0.00001000</i>
  </separator>
  <separator name="dos" >
   <i type="int" name="LORBIT">    11</i>
   <v name="RWIGS">     -1.00000000</v>
   <i type="int" name="NEDOS">   301</i>
   <i name="EMIN">     10.00000000</i>
   <i name="EMAX">    -10.00000000</i>
   <i name="EFERMI">      0.00000000</i>
  </separator>
  <separator name="writing" >
   <i type="int" name="NWRITE">     2</i>
   <i type="logical" name="LWAVE"> F  </i>
   <i type="logical" name="LDOWNSAMPLE"> F  </i>
   <i type="logical" name="LCHARG"> F  </i>
   <i type="logical" name="LPARD"> F  </i>
   <i type="logical" name="LVTOT"> F  </i>
   <i type="logical" name="LVHAR"> F  </i>
   <i type="logical" name="LELF"> F  </i>
   <i type="logical" name="LOPTICS"> F  </i>
   <v name="STM">      0.00000000      0.00000000      0.00000000      0.00000000      0.00000000      0.00000000      0.00000000</v>
  </separator>
  <separator name="performance" >
   <i type="int" name="NPAR">     2</i>
   <i type="int" name="NSIM">     4</i>
   <i type="int" name="NBLK">    -1</i>
   <i type="logical" name="LPLANE"> T  </i>
   <i type="logical" name="LSCALAPACK"> T  </i>
   <i type="logical" name="LSCAAWARE"> F  </i>
   <i type="logical" name="LSCALU"> F  </i>
   <i type="logical" name="LASYNC"> F  </i>
   <i type="logical" name="LORBITALREAL"> F  </i>
  </separator>
  <separator name="miscellaneous" >
   <i type="int" name="IDIOT">     3</i>
   <i type="int" name="ISPECIAL">     0</i>
   <i type="logical" name="LMUSIC"> F  </i>
   <v name="POMASS">     28.08500000</v>
   <v name="DARWINR">      0.00000000</v>
   <v name="DARWINV">      1.00000000</v>
   <i type="logical" name="LCORR"> T  </i>
  </separator>
  <i type="logical" name="GGA_COMPAT"> T  </i>
  <i type="logical" name="LBERRY"> F  </i>
  <i type="int" name="ICORELEVEL">     0</i>
  <i type="logical" name="LDAU"> F  </i>
  <i type="int" name="I_CONSTRAINED_M">     0</i>
  <separator name="electronic exchange-correlation" >
   <i type="string" name="GGA">--</i>
   <i type="int" name="VOSKOWN">     0</i>
   <i type="logical" name="LHFCALC"> F  </i>
   <i type="string" name="PRECFOCK"></i>
   <i type="logical" name="LSYMGRAD"> F  </i>
   <i type="logical" name="LHFONE"> F  </i>
   <i type="logical" name="LRHFCALC"> F  </i>
   <i type="logical" name="LTHOMAS"> F  </i>
   <i type="logical" name="LMODELHF"> F  </i>
   <i name="ENCUT4O">     -1.00000000</i>
   <i type="int" name="EXXOEP">     0</i>
   <i type="int" name="FOURORBIT">     0</i>
   <i name="AEXX">      0.00000000</i>
   <i name="HFALPHA">      0.00000000</i>
   <i name="MCALPHA">      0.00000000</i>
   <i name="ALDAX">      1.00000000</i>
   <i name="AGGAX">      1.00000000</i>
   <i name="ALDAC">      1.00000000</i>
   <i name="AGGAC">      1.00000000</i>
   <i type="int" name="NKREDX">     1</i>
   <i type="int" name="NKREDY">     1</i>
   <i type="int" name="NKREDZ">     1</i>
   <i type="logical" name="SHIFTRED"> F  </i>
   <i type="logical" name="ODDONLY"> F  </i>
   <i type="logical" name="EVENONLY"> F  </i>
   <i type="int" name="LMAXFOCK">     0</i>
   <i type="int" name="NMAXFOCKAE">     0</i>
   <i type="logical" name="LFOCKAEDFT"> F  </i>
   <i name="HFSCREEN">      0.00000000</i>
   <i name="HFSCREENC">      0.00000000</i>
   <i type="int" name="NBANDSGWLOW">     0</i>
  </separator>
  <separator name="vdW DFT" >
   <i type="logical" name="LUSE_VDW"> F  </i>
   <i name="Zab_VDW">     -0.84910000</i>
   <i name="PARAM1">      0.12340000</i>
   <i name="PARAM2">      1.00000000</i>
   <i name="PARAM3">      0.00000000</i>
  </separator>
  <separator name="model GW" >
   <i type="int" name="MODEL_GW">     0</i>
   <i name="MODEL_EPS0">     12.26980609</i>
   <i name="MODEL_ALPHA">      1.00000000</i>
  </separator>
  <separator name="linear response parameters" >
   <i type="logical" name="LEPSILON"> F  </i>
   <i type="logical" name="LRPA"> F  </i>
   <i type="logical" name="LNABLA"> F  </i>
   <i type="logical" name="LVEL"> F  </i>
   <i type="int" name="KINTER">     0</i>
   <i name="CSHIFT">      0.10000000</i>
   <i name="OMEGAMAX">     -1.00000000</i>
   <i name="DEG_THRESHOLD">      0.00200000</i>
   <i name="RTIME">     -0.10000000</i>
   <i name="WPLASMAI">      0.00000000</i>
   <v name="DFIELD">      0.00000000      0.00000000      0.00000000</v>
   <v name="WPLASMA">      0.00000000      0.00000000      0.00000000      0.00000000      0.00000000      0.00000000      0.00000000      0.00000000      0.00000000</v>
  </separator>
  <separator name="orbital magnetization" >
   <i type="logical" name="NUCIND"> F  </i>
   <v name="MAGPOS">      0.00000000      0.00000000      0.00000000</v>
   <i type="logical" name="LNICSALL"> T  </i>
   <i type="logical" name="ORBITALMAG"> F  </i>
   <i type="logical" name="LMAGBLOCH"> F  </i>
   <i type="logical" name="LCHIMAG"> F  </i>
   <i type="logical" name="LGAUGE"> T  </i>
   <i type="int" name="MAGATOM">     0</i>
   <v name="MAGDIPOL">      0.00000000      0.00000000      0.00000000</v>
   <v name="AVECCONST">      0.00000000      0.00000000      0.00000000</v>
  </separator>
  <separator name="response functions" >
   <i type="logical" name="LADDER"> F  </i>
   <i type="logical" name="LRPAFORCE"> F  </i>
   <i type="logical" name="LFXC"> F  </i>
   <i type="logical" name="LHARTREE"> T  </i>
   <i type="int" name="IBSE">     0</i>
   <v type="int" name="KPOINT">    -1     0     0     0</v>
   <i type="logical" name="LTCTE"> F  </i>
   <i type="logical" name="LTETE"> F  </i>
   <i type="logical" name="LTRIPLET"> F  </i>
   <i type="logical" name="LFXCEPS"> F  </i>
   <i type="logical" name="LFXHEG"> F  </i>
   <i type="int" name="NATURALO">     2</i>
   <i type="logical" name="L2ORDER"> F  </i>
   <i type="logical" name="LMP2LT"> F  </i>
   <i type="logical" name="LUSEW"> F  </i>
   <i name="ENCUTGW">     -2.00000000</i>
   <i name="ENCUTGWSOFT">     -2.00000000</i>
   <i name="ENCUTLF">     -1.00000000</i>
   <i type="int" name="LMAXMP2">    -1</i>
   <i name="SCISSOR">      0.00000000</i>
   <i type="int" name="NOMEGA">     0</i>
   <i type="int" name="NOMEGAR">     0</i>
   <i type="int" name="NBANDSGW">    -1</i>
   <i type="int" name="NBANDSO">    -1</i>
   <i type="int" name="NBANDSV">    -1</i>
   <i type="int" name="NELM">    60</i>
   <i type="int" name="NELMHF">     1</i>
   <i type="int" name="DIM">     3</i>
   <i type="int" name="ANTIRES">     0</i>
   <i name="OMEGAMAX">    -30.00000000</i>
   <i name="OMEGAMIN">    -30.00000000</i>
   <i name="OMEGATL">   -200.00000000</i>
   <i type="int" name="OMEGAGRID">   140</i>
   <i name="CSHIFT">     -0.10000000</i>
   <i type="logical" name="SELFENERGY"> F  </i>
   <i type="logical" name="LSPECTRAL"> F  </i>
   <i type="logical" name="LSPECTRALGW"> F  </i>
   <i type="logical" name="LSINGLES"> F  </i>
   <i type="logical" name="LFERMIGW"> F  </i>
   <i type="logical" name="ODDONLYGW"> F  </i>
   <i type="logical" name="EVENONLYGW"> F  </i>
   <i type="int" name="NKREDLFX">     1</i>
   <i type="int" name="NKREDLFY">     1</i>
   <i type="int" name="NKREDLFZ">     1</i>
   <i type="int" name="MAXMEM">  2800</i>
   <i type="int" name="TELESCOPE">     0</i>
   <i type="int" name="TAUPAR">     1</i>
   <i type="int" name="OMEGAPAR">    -1</i>
   <i name="LAMBDA">      1.00000000</i>
  </separator>
  <separator name="External order field" >
   <i name="OFIELD_KAPPA">      0.00000000</i>
   <v name="OFIELD_K">      0.00000000      0.00000000      0.00000000</v>
   <i name="OFIELD_Q6_NEAR">      0.00000000</i>
   <i name="OFIELD_Q6_FAR">      0.00000000</i>
   <i name="OFIELD_A">      0.00000000</i>
  </separator>
 </parameters>
 <atominfo>
  <atoms>       2 </atoms>
  <types>       1 </types>
  <array name="atoms" >
   <dimension dim="1">ion</dimension>
   <field type="string">element</field>
   <field type="int">atomtype</field>
   <set>
    <rc><c>Si</c><c>   1</c></rc>
    <rc><c>Si</c><c>   1</c></rc>
   </set>
  </array>
  <array name="atomtypes" >
   <dimension dim="1">type</dimension>
   <field type="int">atomspertype</field>
   <field type="string">element</field>
   <field>mass</field>
   <field>valence</field>
   <field type="string">pseudopotential</field>
   <set>
    <rc><c>   2</c><c>Si</c><c>     28.08500000</c><c>      4.00000000</c><c>  PAW_PBE Si 05Jan2001                  </c></rc>
   </set>
  </array>
 </atominfo>
 <structure name="initialpos" >
  <crystal>
   <varray name="basis" >
    <v>       0.00000000       2.73461054       2.73461054 </v>
    <v>       2.73461054      -0.00000000       2.73461054 </v>
    <v>       2.73461054       2.73461054       0.00000000 </v>
   </varray>
   <i name="volume">     40.89935362 </i>
   <varray name="rec_basis" >
    <v>      -0.18284139       0.18284139       0.18284139 </v>
    <v>       0.18284139      -0.18284139       0.18284139 </v>
    <v>       0.18284139       0.18284139      -0.18284139 </v>
   </varray>
  </crystal>
  <varray name="positions" >
   <v>       0.00000000       0.00000000       0.00000000 </v>
   <v>       0.25000000       0.25000000       0.25000000 </v>
  </varray>
 </structure>
 <calculation>
  <scstep>
   <time name="dav">    3.01    3.01</time>
   <time name="total">    3.11    3.12</time>
   <energy>
    <i name="alphaZ">      3.29228976 </i>
    <i name="ewald">   -226.92444198 </i>
    <i name="hartreedc">    -15.17277769 </i>
    <i name="XCdc">    -18.06036271 </i>
    <i name="pawpsdc">    827.72450972 </i>
    <i name="pawaedc">   -792.74337885 </i>
    <i name="eentropy">     -0.00098639 </i>
    <i name="bandstr">     21.57051873 </i>
    <i name="atom">    206.13149246 </i>
    <i name="e_fr_energy">      5.81686306 </i>
    <i name="e_wo_entrp">      5.81784945 </i>
    <i name="e_0_energy">      5.81735626 </i>
   </energy>
  </scstep>
  <scstep>
   <time name="dav">    4.17    4.16</time>
   <time name="total">    4.17    4.16</time>
   <energy>
    <i name="e_fr_energy">     -9.17668841 </i>
    <i name="e_wo_entrp">     -9.17668820 </i>
    <i name="e_0_energy">     -9.17668831 </i>
   </energy>
  </scstep>
  <scstep>
   <time name="dav">    4.03    4.02</time>
   <time name="total">    4.03    4.03</time>
   <energy>
    <i name="e_fr_energy">     -9.39922926 </i>
    <i name="e_wo_entrp">     -9.39922926 </i>
    <i name="e_0_energy">     -9.39922926 </i>
   </energy>
  </scstep>
  <scstep>
   <time name="dav">    5.05    5.04</time>
   <time name="total">    5.05    5.04</time>
   <energy>
    <i name="e_fr_energy">     -9.40016234 </i>
    <i name="e_wo_entrp">     -9.40016234 </i>
    <i name="e_0_energy">     -9.40016234 </i>
   </energy>
  </scstep>
  <scstep>
   <time name="dav">    3.89    3.89</time>
   <time name="total">    3.90    3.89</time>
   <energy>
    <i name="e_fr_energy">     -9.40016428 </i>
    <i name="e_wo_entrp">     -9.40016428 </i>
    <i name="e_0_energy">     -9.40016428 </i>
   </energy>
  </scstep>
  <scstep>
   <time name="dav">    5.17    5.16</time>
   <time name="total">    5.17    5.16</time>
   <energy>
    <i name="alphaZ">      3.29228976 </i>
    <i name="ewald">   -226.92444198 </i>
    <i name="hartreedc">    -15.17277769 </i>
    <i name="XCdc">    -18.06036271 </i>
    <i name="pawpsdc">    827.72450972 </i>
    <i name="pawaedc">   -792.74337885 </i>
    <i name="eentropy">     -0.00000000 </i>
    <i name="bandstr">      6.35250498 </i>
    <i name="atom">    206.13149246 </i>
    <i name="e_fr_energy">     -9.40016430 </i>
    <i name="e_wo_entrp">     -9.40016430 </i>
    <i name="e_0_energy">     -9.40016430 </i>
   </energy>
  </scstep>
  <structure>
   <crystal>
    <varray name="basis" >
     <v>       0.00000000       2.73461054       2.73461054 </v>
     <v>       2.73461054      -0.00000000       2.73461054 </v>
     <v>       2.73461054       2.73461054       0.00000000 </v>
    </varray>
    <i name="volume">     40.89935362 </i>
    <varray name="rec_basis" >
     <v>      -0.18284139       0.18284139       0.18284139 </v>
     <v>       0.18284139      -0.18284139       0.18284139 </v>
     <v>       0.18284139       0.18284139      -0.18284139 </v>
    </varray>
   </crystal>
   <varray name="positions" >
    <v>       0.00000000       0.00000000       0.00000000 </v>
    <v>       0.25000000       0.25000000       0.25000000 </v>
   </varray>
  </structure>
  <varray name="forces" >
   <v>      -0.00000000      -0.00000000       0.00000000 </v>
   <v>       0.00000000       0.00000000      -0.00000000 </v>
  </varray>
  <varray name="stress" >
   <v>      50.07133591      -0.00000000      -0.00000000 </v>
   <v>      -0.00000000      50.07133591      -0.00000000 </v>
   <v>       0.00000000      -0.00000000      50.07133591 </v>
  </varray>
  <energy>
   <i name="e_fr_energy">     -9.40016430 </i>
   <i name="e_wo_entrp">     -9.40016430 </i>
   <i name="e_0_energy">     -0.00000000 </i>
  </energy>
  <time name="totalsc">   27.93   27.92</time>
  <eigenvalues>
   <array>
    <dimension dim="1">band</dimension>
    <dimension dim="2">kpoint</dimension>
    <dimension dim="3">spin</dimension>
    <field>eigene</field>
    <field>occ</field>
    <set>
     <set comment="spin 1">
      <set comment="kpoint 1">
       <r>   -6.1998    1.0000 </r>
       <r>    5.6131    1.0000 </r>
       <r>    5.6131    1.0000 </r>
       <r>    5.6131    1.0000 </r>
       <r>    8.1703    0.0000 </r>
       <r>    8.1703    0.0000 </r>
       <r>    8.1703    0.0000 </r>
       <r>    8.7437    0.0000 </r>
      </set>
      <set comment="kpoint 2">
       <r>   -6.1969    1.0000 </r>
       <r>    5.5924    1.0000 </r>
       <r>    5.6009    1.0000 </r>
       <r>    5.6009    1.0000 </r>
       <r>    8.1632    0.0000 </r>
       <r>    8.1860    0.0000 </r>
       <r>    8.1860    0.0000 </r>
       <r>    8.7640    0.0000 </r>
      </set>
      <set comment="kpoint 3">
       <r>   -6.1885    1.0000 </r>
       <r>    5.5320    1.0000 </r>
       <r>    5.5653    1.0000 </r>
       <r>    5.5653    1.0000 </r>
       <r>    8.1423    0.0000 </r>
       <r>    8.2320    0.0000 </r>
       <r>    8.2320    0.0000 </r>
       <r>    8.8231    0.0000 </r>
      </set>
      <set comment="kpoint 4">
       <r>   -6.1744    1.0000 </r>
       <r>    5.4362    1.0000 </r>
       <r>    5.5086    1.0000 </r>
       <r>    5.5086    1.0000 </r>
       <r>    8.1081    0.0000 </r>
       <r>    8.3061    0.0000 </r>
       <r>    8.3061    0.0000 </r>
       <r>    8.9160    0.0000 </r>
      </set>
      <set comment="kpoint 5">
       <r>   -6.1546    1.0000 </r>
       <r>    5.3106    1.0000 </r>
       <r>    5.4344    1.0000 </r>
       <r>    5.4344    1.0000 </r>
       <r>    8.0617    0.0000 </r>
       <r>    8.4047    0.0000 </r>
       <r>    8.4047    0.0000 </r>
       <r>    9.0360    0.0000 </r>
      </set>
      <set comment="kpoint 6">
       <r>   -6.1292    1.0000 </r>
       <r>    5.1613    1.0000 </r>
       <r>    5.3461    1.0000 </r>
       <r>    5.3461    1.0000 </r>
       <r>    8.0044    0.0000 </r>
       <r>    8.5241    0.0000 </r>
       <r>    8.5241    0.0000 </r>
       <r>    9.1754    0.0000 </r>
      </set>
      <set comment="kpoint 7">
       <r>   -6.0981    1.0000 </r>
       <r>    4.9933    1.0000 </r>
       <r>    5.2473    1.0000 </r>
       <r>    5.2473    1.0000 </r>
       <r>    7.9377    0.0000 </r>
       <r>    8.6611    0.0000 </r>
       <r>    8.6611    0.0000 </r>
       <r>    9.3263    0.0000 </r>
      </set>
      <set comment="kpoint 8">
       <r>   -6.0614    1.0000 </r>
       <r>    4.8110    1.0000 </r>
       <r>    5.1408    1.0000 </r>
       <r>    5.1408    1.0000 </r>
       <r>    7.8631    0.0000 </r>
       <r>    8.8125    0.0000 </r>
       <r>    8.8125    0.0000 </r>
       <r>    9.4801    0.0000 </r>
      </set>
      <set comment="kpoint 9">
       <r>   -6.0192    1.0000 </r>
       <r>    4.6178    1.0000 </r>
       <r>    5.0292    1.0000 </r>
       <r>    5.0292    1.0000 </r>
       <r>    7.7821    0.0000 </r>
       <r>    8.9759    0.0000 </r>
       <r>    8.9759    0.0000 </r>
       <r>    9.6271    0.0000 </r>
      </set>
      <set comment="kpoint 10">
       <r>   -5.9713    1.0000 </r>
       <r>    4.4162    1.0000 </r>
       <r>    4.9142    1.0000 </r>
       <r>    4.9142    1.0000 </r>
       <r>    7.6961    0.0000 </r>
       <r>    9.1493    0.0000 </r>
       <r>    9.1493    0.0000 </r>
       <r>    9.7555    0.0000 </r>
      </set>
      <set comment="kpoint 11">
       <r>   -5.9179    1.0000 </r>
       <r>    4.2081    1.0000 </r>
       <r>    4.7976    1.0000 </r>
       <r>    4.7976    1.0000 </r>
       <r>    7.6066    0.0000 </r>
       <r>    9.3310    0.0000 </r>
       <r>    9.3310    0.0000 </r>
       <r>    9.8509    0.0000 </r>
      </set>
      <set comment="kpoint 12">
       <r>   -5.8589    1.0000 </r>
       <r>    3.9952    1.0000 </r>
       <r>    4.6805    1.0000 </r>
       <r>    4.6805    1.0000 </r>
       <r>    7.5147    0.0000 </r>
       <r>    9.5198    0.0000 </r>
       <r>    9.5198    0.0000 </r>
       <r>    9.8989    0.0000 </r>
      </set>
      <set comment="kpoint 13">
       <r>   -5.7944    1.0000 </r>
       <r>    3.7784    1.0000 </r>
       <r>    4.5639    1.0000 </r>
       <r>    4.5639    1.0000 </r>
       <r>    7.4216    0.0000 </r>
       <r>    9.7146    0.0000 </r>
       <r>    9.7146    0.0000 </r>
       <r>    9.8894    0.0000 </r>
      </set>
      <set comment="kpoint 14">
       <r>   -5.7244    1.0000 </r>
       <r>    3.5587    1.0000 </r>
       <r>    4.4487    1.0000 </r>
       <r>    4.4487    1.0000 </r>
       <r>    7.3283    0.0000 </r>
       <r>    9.8234    0.0000 </r>
       <r>    9.9146    0.0000 </r>
       <r>    9.9146    0.0000 </r>
      </set>
      <set comment="kpoint 15">
       <r>   -5.6489    1.0000 </r>
       <r>    3.3368    1.0000 </r>
       <r>    4.3353    1.0000 </r>
       <r>    4.3353    1.0000 </r>
       <r>    7.2354    0.0000 </r>
       <r>    9.7107    0.0000 </r>
       <r>   10.1190    0.0000 </r>
       <r>   10.1190    0.0000 </r>
      </set>
      <set comment="kpoint 16">
       <r>   -5.5680    1.0000 </r>
       <r>    3.1131    1.0000 </r>
       <r>    4.2244    1.0000 </r>
       <r>    4.2244    1.0000 </r>
       <r>    7.1440    0.0000 </r>
       <r>    9.5648    0.0000 </r>
       <r>   10.3273    0.0000 </r>
       <r>   10.3273    0.0000 </r>
      </set>
      <set comment="kpoint 17">
       <r>   -5.4817    1.0000 </r>
       <r>    2.8881    1.0000 </r>
       <r>    4.1163    1.0000 </r>
       <r>    4.1163    1.0000 </r>
       <r>    7.0546    0.0000 </r>
       <r>    9.3975    0.0000 </r>
       <r>   10.5391    0.0000 </r>
       <r>   10.5391    0.0000 </r>
      </set>
      <set comment="kpoint 18">
       <r>   -5.3900    1.0000 </r>
       <r>    2.6621    1.0000 </r>
       <r>    4.0115    1.0000 </r>
       <r>    4.0115    1.0000 </r>
       <r>    6.9679    0.0000 </r>
       <r>    9.2178    0.0000 </r>
       <r>   10.7542    0.0000 </r>
       <r>   10.7542    0.0000 </r>
      </set>
      <set comment="kpoint 19">
       <r>   -5.2930    1.0000 </r>
       <r>    2.4354    1.0000 </r>
       <r>    3.9101    1.0000 </r>
       <r>    3.9101    1.0000 </r>
       <r>    6.8842    0.0000 </r>
       <r>    9.0318    0.0000 </r>
       <r>   10.9718    0.0000 </r>
       <r>   10.9718    0.0000 </r>
      </set>
      <set comment="kpoint 20">
       <r>   -5.1906    1.0000 </r>
       <r>    2.2083    1.0000 </r>
       <r>    3.8124    1.0000 </r>
       <r>    3.8124    1.0000 </r>
       <r>    6.8041    0.0000 </r>
       <r>    8.8437    0.0000 </r>
       <r>   11.1918    0.0000 </r>
       <r>   11.1918    0.0000 </r>
      </set>
      <set comment="kpoint 21">
       <r>   -5.0830    1.0000 </r>
       <r>    1.9810    1.0000 </r>
       <r>    3.7186    1.0000 </r>
       <r>    3.7186    1.0000 </r>
       <r>    6.7280    0.0000 </r>
       <r>    8.6566    0.0000 </r>
       <r>   11.4141    0.0000 </r>
       <r>   11.4142    0.0000 </r>
      </set>
      <set comment="kpoint 22">
       <r>   -4.9703    1.0000 </r>
       <r>    1.7536    1.0000 </r>
       <r>    3.6290    1.0000 </r>
       <r>    3.6290    1.0000 </r>
       <r>    6.6563    0.0000 </r>
       <r>    8.4724    0.0000 </r>
       <r>   11.6384    0.0000 </r>
       <r>   11.6384    0.0000 </r>
      </set>
      <set comment="kpoint 23">
       <r>   -4.8524    1.0000 </r>
       <r>    1.5264    1.0000 </r>
       <r>    3.5436    1.0000 </r>
       <r>    3.5436    1.0000 </r>
       <r>    6.5892    0.0000 </r>
       <r>    8.2927    0.0000 </r>
       <r>   11.8646    0.0000 </r>
       <r>   11.8646    0.0000 </r>
      </set>
      <set comment="kpoint 24">
       <r>   -4.7294    1.0000 </r>
       <r>    1.2996    1.0000 </r>
       <r>    3.4626    1.0000 </r>
       <r>    3.4626    1.0000 </r>
       <r>    6.5270    0.0000 </r>
       <r>    8.1186    0.0000 </r>
       <r>   12.0925    0.0000 </r>
       <r>   12.0927    0.0000 </r>
      </set>
      <set comment="kpoint 25">
       <r>   -4.6013    1.0000 </r>
       <r>    1.0733    1.0000 </r>
       <r>    3.3860    1.0000 </r>
       <r>    3.3860    1.0000 </r>
       <r>    6.4700    0.0000 </r>
       <r>    7.9507    0.0000 </r>
       <r>   12.3220    0.0000 </r>
       <r>   12.3220    0.0000 </r>
      </set>
      <set comment="kpoint 26">
       <r>   -4.4683    1.0000 </r>
       <r>    0.8477    1.0000 </r>
       <r>    3.3141    1.0000 </r>
       <r>    3.3141    1.0000 </r>
       <r>    6.4185    0.0000 </r>
       <r>    7.7897    0.0000 </r>
       <r>   12.5531    0.0000 </r>
       <r>   12.5531    0.0000 </r>
      </set>
      <set comment="kpoint 27">
       <r>   -4.3304    1.0000 </r>
       <r>    0.6231    1.0000 </r>
       <r>    3.2468    1.0000 </r>
       <r>    3.2468    1.0000 </r>
       <r>    6.3724    0.0000 </r>
       <r>    7.6357    0.0000 </r>
       <r>   12.7855    0.0000 </r>
       <r>   12.7855    0.0000 </r>
      </set>
      <set comment="kpoint 28">
       <r>   -4.1877    1.0000 </r>
       <r>    0.3995    1.0000 </r>
       <r>    3.1842    1.0000 </r>
       <r>    3.1842    1.0000 </r>
       <r>    6.3323    0.0000 </r>
       <r>    7.4898    0.0000 </r>
       <r>   13.0194    0.0000 </r>
       <r>   13.0194    0.0000 </r>
      </set>
      <set comment="kpoint 29">
       <r>   -4.0402    1.0000 </r>
       <r>    0.1771    1.0000 </r>
       <r>    3.1264    1.0000 </r>
       <r>    3.1264    1.0000 </r>
       <r>    6.2983    0.0000 </r>
       <r>    7.3517    0.0000 </r>
       <r>   13.2545    0.0000 </r>
       <r>   13.2546    0.0000 </r>
      </set>
      <set comment="kpoint 30">
       <r>   -3.8881    1.0000 </r>
       <r>   -0.0437    1.0000 </r>
       <r>    3.0736    1.0000 </r>
       <r>    3.0736    1.0000 </r>
       <r>    6.2705    0.0000 </r>
       <r>    7.2215    0.0000 </r>
       <r>   13.4907    0.0000 </r>
       <r>   13.4907    0.0000 </r>
      </set>
      <set comment="kpoint 31">
       <r>   -3.7314    1.0000 </r>
       <r>   -0.2630    1.0000 </r>
       <r>    3.0256    1.0000 </r>
       <r>    3.0256    1.0000 </r>
       <r>    6.2491    0.0000 </r>
       <r>    7.0994    0.0000 </r>
       <r>   13.7277    0.0000 </r>
       <r>   13.7277    0.0000 </r>
      </set>
      <set comment="kpoint 32">
       <r>   -3.5702    1.0000 </r>
       <r>   -0.4804    1.0000 </r>
       <r>    2.9825    1.0000 </r>
       <r>    2.9825    1.0000 </r>
       <r>    6.2342    0.0000 </r>
       <r>    6.9855    0.0000 </r>
       <r>   13.9653    0.0000 </r>
       <r>   13.9654    0.0000 </r>
      </set>
      <set comment="kpoint 33">
       <r>   -3.4046    1.0000 </r>
       <r>   -0.6958    1.0000 </r>
       <r>    2.9445    1.0000 </r>
       <r>    2.9445    1.0000 </r>
       <r>    6.2259    0.0000 </r>
       <r>    6.8798    0.0000 </r>
       <r>   14.2031    0.0000 </r>
       <r>   14.2031    0.0000 </r>
      </set>
      <set comment="kpoint 34">
       <r>   -3.2347    1.0000 </r>
       <r>   -0.9090    1.0000 </r>
       <r>    2.9114    1.0000 </r>
       <r>    2.9114    1.0000 </r>
       <r>    6.2244    0.0000 </r>
       <r>    6.7823    0.0000 </r>
       <r>   14.4401    0.0000 </r>
       <r>   14.4402    0.0000 </r>
      </set>
      <set comment="kpoint 35">
       <r>   -3.0607    1.0000 </r>
       <r>   -1.1199    1.0000 </r>
       <r>    2.8834    1.0000 </r>
       <r>    2.8834    1.0000 </r>
       <r>    6.2299    0.0000 </r>
       <r>    6.6929    0.0000 </r>
       <r>   14.6752    0.0000 </r>
       <r>   14.6752    0.0000 </r>
      </set>
      <set comment="kpoint 36">
       <r>   -2.8826    1.0000 </r>
       <r>   -1.3281    1.0000 </r>
       <r>    2.8605    1.0000 </r>
       <r>    2.8605    1.0000 </r>
       <r>    6.2425    0.0000 </r>
       <r>    6.6116    0.0000 </r>
       <r>   14.9060    0.0000 </r>
       <r>   14.9060    0.0000 </r>
      </set>
      <set comment="kpoint 37">
       <r>   -2.7006    1.0000 </r>
       <r>   -1.5337    1.0000 </r>
       <r>    2.8426    1.0000 </r>
       <r>    2.8426    1.0000 </r>
       <r>    6.2622    0.0000 </r>
       <r>    6.5384    0.0000 </r>
       <r>   15.1273    0.0000 </r>
       <r>   15.1273    0.0000 </r>
      </set>
      <set comment="kpoint 38">
       <r>   -2.5148    1.0000 </r>
       <r>   -1.7363    1.0000 </r>
       <r>    2.8299    1.0000 </r>
       <r>    2.8299    1.0000 </r>
       <r>    6.2893    0.0000 </r>
       <r>    6.4730    0.0000 </r>
       <r>   15.3283    0.0000 </r>
       <r>   15.3284    0.0000 </r>
      </set>
      <set comment="kpoint 39">
       <r>   -2.3253    1.0000 </r>
       <r>   -1.9359    1.0000 </r>
       <r>    2.8222    1.0000 </r>
       <r>    2.8222    1.0000 </r>
       <r>    6.3238    0.0000 </r>
       <r>    6.4156    0.0000 </r>
       <r>   15.4845    0.0000 </r>
       <r>   15.4850    0.0000 </r>
      </set>
      <set comment="kpoint 40">
       <r>   -2.1323    1.0000 </r>
       <r>   -2.1323    1.0000 </r>
       <r>    2.8196    1.0000 </r>
       <r>    2.8196    1.0000 </r>
       <r>    6.3659    0.0000 </r>
       <r>    6.3659    0.0000 </r>
       <r>   15.5479    0.0000 </r>
       <r>   15.5486    0.0000 </r>
      </set>
      <set comment="kpoint 41">
       <r>   -2.1323    1.0000 </r>
       <r>   -2.1323    1.0000 </r>
       <r>    2.8196    1.0000 </r>
       <r>    2.8196    1.0000 </r>
       <r>    6.3659    0.0000 </r>
       <r>    6.3659    0.0000 </r>
       <r>   15.5478    0.0000 </r>
       <r>   15.5493    0.0000 </r>
      </set>
      <set comment="kpoint 42">
       <r>   -2.1321    1.0000 </r>
       <r>   -2.1321    1.0000 </r>
       <r>    2.8175    1.0000 </r>
       <r>    2.8175    1.0000 </r>
       <r>    6.3698    0.0000 </r>
       <r>    6.3698    0.0000 </r>
       <r>   15.5419    0.0000 </r>
       <r>   15.5420    0.0000 </r>
      </set>
      <set comment="kpoint 43">
       <r>   -2.1314    1.0000 </r>
       <r>   -2.1314    1.0000 </r>
       <r>    2.8112    1.0000 </r>
       <r>    2.8112    1.0000 </r>
       <r>    6.3815    0.0000 </r>
       <r>    6.3815    0.0000 </r>
       <r>   15.5233    0.0000 </r>
       <r>   15.5286    0.0000 </r>
      </set>
      <set comment="kpoint 44">
       <r>   -2.1303    1.0000 </r>
       <r>   -2.1303    1.0000 </r>
       <r>    2.8007    1.0000 </r>
       <r>    2.8007    1.0000 </r>
       <r>    6.4010    0.0000 </r>
       <r>    6.4010    0.0000 </r>
       <r>   15.4912    0.0000 </r>
       <r>   15.4915    0.0000 </r>
      </set>
      <set comment="kpoint 45">
       <r>   -2.1287    1.0000 </r>
       <r>   -2.1287    1.0000 </r>
       <r>    2.7863    1.0000 </r>
       <r>    2.7863    1.0000 </r>
       <r>    6.4279    0.0000 </r>
       <r>    6.4279    0.0000 </r>
       <r>   15.4444    0.0000 </r>
       <r>   15.4454    0.0000 </r>
      </set>
      <set comment="kpoint 46">
       <r>   -2.1267    1.0000 </r>
       <r>   -2.1267    1.0000 </r>
       <r>    2.7681    1.0000 </r>
       <r>    2.7681    1.0000 </r>
       <r>    6.4623    0.0000 </r>
       <r>    6.4623    0.0000 </r>
       <r>   15.3817    0.0000 </r>
       <r>   15.3843    0.0000 </r>
      </set>
      <set comment="kpoint 47">
       <r>   -2.1242    1.0000 </r>
       <r>   -2.1242    1.0000 </r>
       <r>    2.7464    1.0000 </r>
       <r>    2.7464    1.0000 </r>
       <r>    6.5037    0.0000 </r>
       <r>    6.5037    0.0000 </r>
       <r>   15.3030    0.0000 </r>
       <r>   15.3032    0.0000 </r>
      </set>
      <set comment="kpoint 48">
       <r>   -2.1213    1.0000 </r>
       <r>   -2.1213    1.0000 </r>
       <r>    2.7216    1.0000 </r>
       <r>    2.7216    1.0000 </r>
       <r>    6.5519    0.0000 </r>
       <r>    6.5519    0.0000 </r>
       <r>   15.2080    0.0000 </r>
       <r>   15.2081    0.0000 </r>
      </set>
      <set comment="kpoint 49">
       <r>   -2.1180    1.0000 </r>
       <r>   -2.1180    1.0000 </r>
       <r>    2.6939    1.0000 </r>
       <r>    2.6939    1.0000 </r>
       <r>    6.6065    0.0000 </r>
       <r>    6.6065    0.0000 </r>
       <r>   15.0988    0.0000 </r>
       <r>   15.0989    0.0000 </r>
      </set>
      <set comment="kpoint 50">
       <r>   -2.1144    1.0000 </r>
       <r>   -2.1144    1.0000 </r>
       <r>    2.6636    1.0000 </r>
       <r>    2.6636    1.0000 </r>
       <r>    6.6675    0.0000 </r>
       <r>    6.6675    0.0000 </r>
       <r>   14.9773    0.0000 </r>
       <r>   14.9773    0.0000 </r>
      </set>
      <set comment="kpoint 51">
       <r>   -2.1104    1.0000 </r>
       <r>   -2.1104    1.0000 </r>
       <r>    2.6312    1.0000 </r>
       <r>    2.6312    1.0000 </r>
       <r>    6.7341    0.0000 </r>
       <r>    6.7341    0.0000 </r>
       <r>   14.8455    0.0000 </r>
       <r>   14.8455    0.0000 </r>
      </set>
      <set comment="kpoint 52">
       <r>   -2.1060    1.0000 </r>
       <r>   -2.1060    1.0000 </r>
       <r>    2.5970    1.0000 </r>
       <r>    2.5970    1.0000 </r>
       <r>    6.8062    0.0000 </r>
       <r>    6.8062    0.0000 </r>
       <r>   14.7055    0.0000 </r>
       <r>   14.7057    0.0000 </r>
      </set>
      <set comment="kpoint 53">
       <r>   -2.1013    1.0000 </r>
       <r>   -2.1013    1.0000 </r>
       <r>    2.5612    1.0000 </r>
       <r>    2.5612    1.0000 </r>
       <r>    6.8837    0.0000 </r>
       <r>    6.8837    0.0000 </r>
       <r>   14.5593    0.0000 </r>
       <r>   14.5594    0.0000 </r>
      </set>
      <set comment="kpoint 54">
       <r>   -2.0963    1.0000 </r>
       <r>   -2.0963    1.0000 </r>
       <r>    2.5242    1.0000 </r>
       <r>    2.5242    1.0000 </r>
       <r>    6.9659    0.0000 </r>
       <r>    6.9659    0.0000 </r>
       <r>   14.4082    0.0000 </r>
       <r>   14.4082    0.0000 </r>
      </set>
      <set comment="kpoint 55">
       <r>   -2.0910    1.0000 </r>
       <r>   -2.0910    1.0000 </r>
       <r>    2.4864    1.0000 </r>
       <r>    2.4864    1.0000 </r>
       <r>    7.0527    0.0000 </r>
       <r>    7.0527    0.0000 </r>
       <r>   14.2532    0.0000 </r>
       <r>   14.2532    0.0000 </r>
      </set>
      <set comment="kpoint 56">
       <r>   -2.0855    1.0000 </r>
       <r>   -2.0855    1.0000 </r>
       <r>    2.4480    1.0000 </r>
       <r>    2.4480    1.0000 </r>
       <r>    7.1437    0.0000 </r>
       <r>    7.1437    0.0000 </r>
       <r>   14.0952    0.0000 </r>
       <r>   14.0952    0.0000 </r>
      </set>
      <set comment="kpoint 57">
       <r>   -2.0798    1.0000 </r>
       <r>   -2.0798    1.0000 </r>
       <r>    2.4093    1.0000 </r>
       <r>    2.4093    1.0000 </r>
       <r>    7.2388    0.0000 </r>
       <r>    7.2388    0.0000 </r>
       <r>   13.9351    0.0000 </r>
       <r>   13.9351    0.0000 </r>
      </set>
      <set comment="kpoint 58">
       <r>   -2.0739    1.0000 </r>
       <r>   -2.0739    1.0000 </r>
       <r>    2.3705    1.0000 </r>
       <r>    2.3705    1.0000 </r>
       <r>    7.3377    0.0000 </r>
       <r>    7.3377    0.0000 </r>
       <r>   13.7735    0.0000 </r>
       <r>   13.7735    0.0000 </r>
      </set>
      <set comment="kpoint 59">
       <r>   -2.0679    1.0000 </r>
       <r>   -2.0679    1.0000 </r>
       <r>    2.3319    1.0000 </r>
       <r>    2.3319    1.0000 </r>
       <r>    7.4402    0.0000 </r>
       <r>    7.4402    0.0000 </r>
       <r>   13.6106    0.0000 </r>
       <r>   13.6107    0.0000 </r>
      </set>
      <set comment="kpoint 60">
       <r>   -2.0617    1.0000 </r>
       <r>   -2.0617    1.0000 </r>
       <r>    2.2937    1.0000 </r>
       <r>    2.2937    1.0000 </r>
       <r>    7.5460    0.0000 </r>
       <r>    7.5460    0.0000 </r>
       <r>   13.4470    0.0000 </r>
       <r>   13.4471    0.0000 </r>
      </set>
      <set comment="kpoint 61">
       <r>   -2.0555    1.0000 </r>
       <r>   -2.0555    1.0000 </r>
       <r>    2.2562    1.0000 </r>
       <r>    2.2562    1.0000 </r>
       <r>    7.6550    0.0000 </r>
       <r>    7.6550    0.0000 </r>
       <r>   13.2830    0.0000 </r>
       <r>   13.2830    0.0000 </r>
      </set>
      <set comment="kpoint 62">
       <r>   -2.0493    1.0000 </r>
       <r>   -2.0493    1.0000 </r>
       <r>    2.2195    1.0000 </r>
       <r>    2.2195    1.0000 </r>
       <r>    7.7669    0.0000 </r>
       <r>    7.7669    0.0000 </r>
       <r>   13.1187    0.0000 </r>
       <r>   13.1187    0.0000 </r>
      </set>
      <set comment="kpoint 63">
       <r>   -2.0431    1.0000 </r>
       <r>   -2.0431    1.0000 </r>
       <r>    2.1838    1.0000 </r>
       <r>    2.1838    1.0000 </r>
       <r>    7.8817    0.0000 </r>
       <r>    7.8817    0.0000 </r>
       <r>   12.9544    0.0000 </r>
       <r>   12.9544    0.0000 </r>
      </set>
      <set comment="kpoint 64">
       <r>   -2.0369    1.0000 </r>
       <r>   -2.0369    1.0000 </r>
       <r>    2.1493    1.0000 </r>
       <r>    2.1493    1.0000 </r>
       <r>    7.9991    0.0000 </r>
       <r>    7.9991    0.0000 </r>
       <r>   12.7903    0.0000 </r>
       <r>   12.7903    0.0000 </r>
      </set>
      <set comment="kpoint 65">
       <r>   -2.0309    1.0000 </r>
       <r>   -2.0309    1.0000 </r>
       <r>    2.1161    1.0000 </r>
       <r>    2.1161    1.0000 </r>
       <r>    8.1189    0.0000 </r>
       <r>    8.1189    0.0000 </r>
       <r>   12.6266    0.0000 </r>
       <r>   12.6266    0.0000 </r>
      </set>
      <set comment="kpoint 66">
       <r>   -2.0250    1.0000 </r>
       <r>   -2.0250    1.0000 </r>
       <r>    2.0844    1.0000 </r>
       <r>    2.0844    1.0000 </r>
       <r>    8.2411    0.0000 </r>
       <r>    8.2411    0.0000 </r>
       <r>   12.4635    0.0000 </r>
       <r>   12.4635    0.0000 </r>
      </set>
      <set comment="kpoint 67">
       <r>   -2.0192    1.0000 </r>
       <r>   -2.0192    1.0000 </r>
       <r>    2.0543    1.0000 </r>
       <r>    2.0543    1.0000 </r>
       <r>    8.3654    0.0000 </r>
       <r>    8.3654    0.0000 </r>
       <r>   12.3011    0.0000 </r>
       <r>   12.3011    0.0000 </r>
      </set>
      <set comment="kpoint 68">
       <r>   -2.0137    1.0000 </r>
       <r>   -2.0137    1.0000 </r>
       <r>    2.0259    1.0000 </r>
       <r>    2.0259    1.0000 </r>
       <r>    8.4917    0.0000 </r>
       <r>    8.4917    0.0000 </r>
       <r>   12.1395    0.0000 </r>
       <r>   12.1395    0.0000 </r>
      </set>
      <set comment="kpoint 69">
       <r>   -2.0085    1.0000 </r>
       <r>   -2.0085    1.0000 </r>
       <r>    1.9994    1.0000 </r>
       <r>    1.9994    1.0000 </r>
       <r>    8.6198    0.0000 </r>
       <r>    8.6198    0.0000 </r>
       <r>   11.9790    0.0000 </r>
       <r>   11.9790    0.0000 </r>
      </set>
      <set comment="kpoint 70">
       <r>   -2.0035    1.0000 </r>
       <r>   -2.0035    1.0000 </r>
       <r>    1.9748    1.0000 </r>
       <r>    1.9748    1.0000 </r>
       <r>    8.7495    0.0000 </r>
       <r>    8.7495    0.0000 </r>
       <r>   11.8196    0.0000 </r>
       <r>   11.8196    0.0000 </r>
      </set>
      <set comment="kpoint 71">
       <r>   -1.9989    1.0000 </r>
       <r>   -1.9989    1.0000 </r>
       <r>    1.9523    1.0000 </r>
       <r>    1.9523    1.0000 </r>
       <r>    8.8806    0.0000 </r>
       <r>    8.8806    0.0000 </r>
       <r>   11.6619    0.0000 </r>
       <r>   11.6619    0.0000 </r>
      </set>
      <set comment="kpoint 72">
       <r>   -1.9947    1.0000 </r>
       <r>   -1.9947    1.0000 </r>
       <r>    1.9319    1.0000 </r>
       <r>    1.9319    1.0000 </r>
       <r>    9.0128    0.0000 </r>
       <r>    9.0128    0.0000 </r>
       <r>   11.5059    0.0000 </r>
       <r>   11.5059    0.0000 </r>
      </set>
      <set comment="kpoint 73">
       <r>   -1.9909    1.0000 </r>
       <r>   -1.9909    1.0000 </r>
       <r>    1.9138    1.0000 </r>
       <r>    1.9138    1.0000 </r>
       <r>    9.1455    0.0000 </r>
       <r>    9.1455    0.0000 </r>
       <r>   11.3522    0.0000 </r>
       <r>   11.3522    0.0000 </r>
      </set>
      <set comment="kpoint 74">
       <r>   -1.9875    1.0000 </r>
       <r>   -1.9875    1.0000 </r>
       <r>    1.8979    1.0000 </r>
       <r>    1.8979    1.0000 </r>
       <r>    9.2781    0.0000 </r>
       <r>    9.2781    0.0000 </r>
       <r>   11.2013    0.0000 </r>
       <r>   11.2013    0.0000 </r>
      </set>
      <set comment="kpoint 75">
       <r>   -1.9846    1.0000 </r>
       <r>   -1.9846    1.0000 </r>
       <r>    1.8844    1.0000 </r>
       <r>    1.8844    1.0000 </r>
       <r>    9.4097    0.0000 </r>
       <r>    9.4097    0.0000 </r>
       <r>   11.0543    0.0000 </r>
       <r>   11.0543    0.0000 </r>
      </set>
      <set comment="kpoint 76">
       <r>   -1.9822    1.0000 </r>
       <r>   -1.9822    1.0000 </r>
       <r>    1.8732    1.0000 </r>
       <r>    1.8732    1.0000 </r>
       <r>    9.5384    0.0000 </r>
       <r>    9.5384    0.0000 </r>
       <r>   10.9130    0.0000 </r>
       <r>   10.9130    0.0000 </r>
      </set>
      <set comment="kpoint 77">
       <r>   -1.9803    1.0000 </r>
       <r>   -1.9803    1.0000 </r>
       <r>    1.8645    1.0000 </r>
       <r>    1.8645    1.0000 </r>
       <r>    9.6608    0.0000 </r>
       <r>    9.6608    0.0000 </r>
       <r>   10.7808    0.0000 </r>
       <r>   10.7808    0.0000 </r>
      </set>
      <set comment="kpoint 78">
       <r>   -1.9790    1.0000 </r>
       <r>   -1.9790    1.0000 </r>
       <r>    1.8582    1.0000 </r>
       <r>    1.8582    1.0000 </r>
       <r>    9.7701    0.0000 </r>
       <r>    9.7701    0.0000 </r>
       <r>   10.6645    0.0000 </r>
       <r>   10.6645    0.0000 </r>
      </set>
      <set comment="kpoint 79">
       <r>   -1.9781    1.0000 </r>
       <r>   -1.9781    1.0000 </r>
       <r>    1.8545    1.0000 </r>
       <r>    1.8545    1.0000 </r>
       <r>    9.8522    0.0000 </r>
       <r>    9.8522    0.0000 </r>
       <r>   10.5781    0.0000 </r>
       <r>   10.5781    0.0000 </r>
      </set>
      <set comment="kpoint 80">
       <r>   -1.9779    1.0000 </r>
       <r>   -1.9779    1.0000 </r>
       <r>    1.8532    1.0000 </r>
       <r>    1.8532    1.0000 </r>
       <r>    9.8843    0.0000 </r>
       <r>    9.8843    0.0000 </r>
       <r>   10.5446    0.0000 </r>
       <r>   10.5446    0.0000 </r>
      </set>
      <set comment="kpoint 81">
       <r>   -1.9779    1.0000 </r>
       <r>   -1.9779    1.0000 </r>
       <r>    1.8532    1.0000 </r>
       <r>    1.8532    1.0000 </r>
       <r>    9.8843    0.0000 </r>
       <r>    9.8843    0.0000 </r>
       <r>   10.5446    0.0000 </r>
       <r>   10.5446    0.0000 </r>
      </set>
      <set comment="kpoint 82">
       <r>   -2.0603    1.0000 </r>
       <r>   -1.8962    1.0000 </r>
       <r>    1.7945    1.0000 </r>
       <r>    1.9169    1.0000 </r>
       <r>    9.8158    0.0000 </r>
       <r>    9.9337    0.0000 </r>
       <r>   10.4901    0.0000 </r>
       <r>   10.6241    0.0000 </r>
      </set>
      <set comment="kpoint 83">
       <r>   -2.1430    1.0000 </r>
       <r>   -1.8156    1.0000 </r>
       <r>    1.7413    1.0000 </r>
       <r>    1.9851    1.0000 </r>
       <r>    9.7386    0.0000 </r>
       <r>    9.9496    0.0000 </r>
       <r>   10.4749    0.0000 </r>
       <r>   10.7182    0.0000 </r>
      </set>
      <set comment="kpoint 84">
       <r>   -2.2257    1.0000 </r>
       <r>   -1.7368    1.0000 </r>
       <r>    1.6942    1.0000 </r>
       <r>    2.0573    1.0000 </r>
       <r>    9.6582    0.0000 </r>
       <r>    9.9254    0.0000 </r>
       <r>   10.5057    0.0000 </r>
       <r>   10.8214    0.0000 </r>
      </set>
      <set comment="kpoint 85">
       <r>   -2.3081    1.0000 </r>
       <r>   -1.6602    1.0000 </r>
       <r>    1.6537    1.0000 </r>
       <r>    2.1331    1.0000 </r>
       <r>    9.5775    0.0000 </r>
       <r>    9.8705    0.0000 </r>
       <r>   10.5728    0.0000 </r>
       <r>   10.9306    0.0000 </r>
      </set>
      <set comment="kpoint 86">
       <r>   -2.3897    1.0000 </r>
       <r>   -1.5864    1.0000 </r>
       <r>    1.6206    1.0000 </r>
       <r>    2.2121    1.0000 </r>
       <r>    9.4982    0.0000 </r>
       <r>    9.7984    0.0000 </r>
       <r>   10.6628    0.0000 </r>
       <r>   11.0445    0.0000 </r>
      </set>
      <set comment="kpoint 87">
       <r>   -2.4705    1.0000 </r>
       <r>   -1.5160    1.0000 </r>
       <r>    1.5954    1.0000 </r>
       <r>    2.2940    1.0000 </r>
       <r>    9.4212    0.0000 </r>
       <r>    9.7180    0.0000 </r>
       <r>   10.7668    0.0000 </r>
       <r>   11.1620    0.0000 </r>
      </set>
      <set comment="kpoint 88">
       <r>   -2.5501    1.0000 </r>
       <r>   -1.4497    1.0000 </r>
       <r>    1.5788    1.0000 </r>
       <r>    2.3783    1.0000 </r>
       <r>    9.3469    0.0000 </r>
       <r>    9.6339    0.0000 </r>
       <r>   10.8800    0.0000 </r>
       <r>   11.2826    0.0000 </r>
      </set>
      <set comment="kpoint 89">
       <r>   -2.6284    1.0000 </r>
       <r>   -1.3880    1.0000 </r>
       <r>    1.5715    1.0000 </r>
       <r>    2.4647    1.0000 </r>
       <r>    9.2760    0.0000 </r>
       <r>    9.5485    0.0000 </r>
       <r>   11.0001    0.0000 </r>
       <r>   11.4059    0.0000 </r>
      </set>
      <set comment="kpoint 90">
       <r>   -2.7053    1.0000 </r>
       <r>   -1.3316    1.0000 </r>
       <r>    1.5740    1.0000 </r>
       <r>    2.5529    1.0000 </r>
       <r>    9.2087    0.0000 </r>
       <r>    9.4630    0.0000 </r>
       <r>   11.1257    0.0000 </r>
       <r>   11.5315    0.0000 </r>
      </set>
      <set comment="kpoint 91">
       <r>   -2.7804    1.0000 </r>
       <r>   -1.2809    1.0000 </r>
       <r>    1.5867    1.0000 </r>
       <r>    2.6426    1.0000 </r>
       <r>    9.1452    0.0000 </r>
       <r>    9.3783    0.0000 </r>
       <r>   11.2560    0.0000 </r>
       <r>   11.6592    0.0000 </r>
      </set>
      <set comment="kpoint 92">
       <r>   -2.8538    1.0000 </r>
       <r>   -1.2362    1.0000 </r>
       <r>    1.6102    1.0000 </r>
       <r>    2.7334    1.0000 </r>
       <r>    9.0856    0.0000 </r>
       <r>    9.2946    0.0000 </r>
       <r>   11.3905    0.0000 </r>
       <r>   11.7887    0.0000 </r>
      </set>
      <set comment="kpoint 93">
       <r>   -2.9253    1.0000 </r>
       <r>   -1.1979    1.0000 </r>
       <r>    1.6445    1.0000 </r>
       <r>    2.8249    1.0000 </r>
       <r>    9.0302    0.0000 </r>
       <r>    9.2123    0.0000 </r>
       <r>   11.5288    0.0000 </r>
       <r>   11.9199    0.0000 </r>
      </set>
      <set comment="kpoint 94">
       <r>   -2.9948    1.0000 </r>
       <r>   -1.1659    1.0000 </r>
       <r>    1.6898    1.0000 </r>
       <r>    2.9170    1.0000 </r>
       <r>    8.9792    0.0000 </r>
       <r>    9.1314    0.0000 </r>
       <r>   11.6707    0.0000 </r>
       <r>   12.0525    0.0000 </r>
      </set>
      <set comment="kpoint 95">
       <r>   -3.0622    1.0000 </r>
       <r>   -1.1401    1.0000 </r>
       <r>    1.7458    1.0000 </r>
       <r>    3.0091    1.0000 </r>
       <r>    8.9326    0.0000 </r>
       <r>    9.0519    0.0000 </r>
       <r>   11.8158    0.0000 </r>
       <r>   12.1859    0.0000 </r>
      </set>
      <set comment="kpoint 96">
       <r>   -3.1274    1.0000 </r>
       <r>   -1.1204    1.0000 </r>
       <r>    1.8122    1.0000 </r>
       <r>    3.1011    1.0000 </r>
       <r>    8.8906    0.0000 </r>
       <r>    8.9739    0.0000 </r>
       <r>   11.9635    0.0000 </r>
       <r>   12.3204    0.0000 </r>
      </set>
      <set comment="kpoint 97">
       <r>   -3.1904    1.0000 </r>
       <r>   -1.1062    1.0000 </r>
       <r>    1.8888    1.0000 </r>
       <r>    3.1925    1.0000 </r>
       <r>    8.8533    0.0000 </r>
       <r>    8.8973    0.0000 </r>
       <r>   12.1085    0.0000 </r>
       <r>   12.3294    0.0000 </r>
      </set>
      <set comment="kpoint 98">
       <r>   -3.2510    1.0000 </r>
       <r>   -1.0972    1.0000 </r>
       <r>    1.9747    1.0000 </r>
       <r>    3.2830    1.0000 </r>
       <r>    8.8205    0.0000 </r>
       <r>    8.8218    0.0000 </r>
       <r>   12.0574    0.0000 </r>
       <r>   12.2874    0.0000 </r>
      </set>
      <set comment="kpoint 99">
       <r>   -3.3093    1.0000 </r>
       <r>   -1.0927    1.0000 </r>
       <r>    2.0695    1.0000 </r>
       <r>    3.3723    1.0000 </r>
       <r>    8.7474    0.0000 </r>
       <r>    8.7928    0.0000 </r>
       <r>   11.8187    0.0000 </r>
       <r>   12.4382    0.0000 </r>
      </set>
      <set comment="kpoint 100">
       <r>   -3.3651    1.0000 </r>
       <r>   -1.0922    1.0000 </r>
       <r>    2.1723    1.0000 </r>
       <r>    3.4600    1.0000 </r>
       <r>    8.6737    0.0000 </r>
       <r>    8.7701    0.0000 </r>
       <r>   11.5789    0.0000 </r>
       <r>   12.5988    0.0000 </r>
      </set>
      <set comment="kpoint 101">
       <r>   -3.4184    1.0000 </r>
       <r>   -1.0950    1.0000 </r>
       <r>    2.2825    1.0000 </r>
       <r>    3.5457    1.0000 </r>
       <r>    8.6005    0.0000 </r>
       <r>    8.7522    0.0000 </r>
       <r>   11.3431    0.0000 </r>
       <r>   12.7637    0.0000 </r>
      </set>
      <set comment="kpoint 102">
       <r>   -3.4692    1.0000 </r>
       <r>   -1.1007    1.0000 </r>
       <r>    2.3993    1.0000 </r>
       <r>    3.6291    1.0000 </r>
       <r>    8.5273    0.0000 </r>
       <r>    8.7393    0.0000 </r>
       <r>   11.1126    0.0000 </r>
       <r>   12.9328    0.0000 </r>
      </set>
      <set comment="kpoint 103">
       <r>   -3.5175    1.0000 </r>
       <r>   -1.1085    1.0000 </r>
       <r>    2.5220    1.0000 </r>
       <r>    3.7099    1.0000 </r>
       <r>    8.4537    0.0000 </r>
       <r>    8.7313    0.0000 </r>
       <r>   10.8887    0.0000 </r>
       <r>   13.1010    0.0000 </r>
      </set>
      <set comment="kpoint 104">
       <r>   -3.5631    1.0000 </r>
       <r>   -1.1181    1.0000 </r>
       <r>    2.6497    1.0000 </r>
       <r>    3.7876    1.0000 </r>
       <r>    8.3791    0.0000 </r>
       <r>    8.7281    0.0000 </r>
       <r>   10.6721    0.0000 </r>
       <r>   13.2809    0.0000 </r>
      </set>
      <set comment="kpoint 105">
       <r>   -3.6061    1.0000 </r>
       <r>   -1.1289    1.0000 </r>
       <r>    2.7818    1.0000 </r>
       <r>    3.8621    1.0000 </r>
       <r>    8.3028    0.0000 </r>
       <r>    8.7296    0.0000 </r>
       <r>   10.4640    0.0000 </r>
       <r>   13.4486    0.0000 </r>
      </set>
      <set comment="kpoint 106">
       <r>   -3.6464    1.0000 </r>
       <r>   -1.1406    1.0000 </r>
       <r>    2.9175    1.0000 </r>
       <r>    3.9329    1.0000 </r>
       <r>    8.2241    0.0000 </r>
       <r>    8.7354    0.0000 </r>
       <r>   10.2657    0.0000 </r>
       <r>   13.5397    0.0000 </r>
      </set>
      <set comment="kpoint 107">
       <r>   -3.6841    1.0000 </r>
       <r>   -1.1528    1.0000 </r>
       <r>    3.0560    1.0000 </r>
       <r>    3.9998    1.0000 </r>
       <r>    8.1421    0.0000 </r>
       <r>    8.7454    0.0000 </r>
       <r>   10.0787    0.0000 </r>
       <r>   13.6076    0.0000 </r>
      </set>
      <set comment="kpoint 108">
       <r>   -3.7191    1.0000 </r>
       <r>   -1.1652    1.0000 </r>
       <r>    3.1963    1.0000 </r>
       <r>    4.0625    1.0000 </r>
       <r>    8.0562    0.0000 </r>
       <r>    8.7592    0.0000 </r>
       <r>    9.9041    0.0000 </r>
       <r>   13.6591    0.0000 </r>
      </set>
      <set comment="kpoint 109">
       <r>   -3.7513    1.0000 </r>
       <r>   -1.1774    1.0000 </r>
       <r>    3.3376    1.0000 </r>
       <r>    4.1208    1.0000 </r>
       <r>    7.9657    0.0000 </r>
       <r>    8.7761    0.0000 </r>
       <r>    9.7434    0.0000 </r>
       <r>   13.6753    0.0000 </r>
      </set>
      <set comment="kpoint 110">
       <r>   -3.7808    1.0000 </r>
       <r>   -1.1893    1.0000 </r>
       <r>    3.4788    1.0000 </r>
       <r>    4.1746    1.0000 </r>
       <r>    7.8704    0.0000 </r>
       <r>    8.7958    0.0000 </r>
       <r>    9.5977    0.0000 </r>
       <r>   13.6737    0.0000 </r>
      </set>
      <set comment="kpoint 111">
       <r>   -3.8075    1.0000 </r>
       <r>   -1.2006    1.0000 </r>
       <r>    3.6186    1.0000 </r>
       <r>    4.2235    1.0000 </r>
       <r>    7.7707    0.0000 </r>
       <r>    8.8174    0.0000 </r>
       <r>    9.4677    0.0000 </r>
       <r>   13.6508    0.0000 </r>
      </set>
      <set comment="kpoint 112">
       <r>   -3.8314    1.0000 </r>
       <r>   -1.2111    1.0000 </r>
       <r>    3.7554    1.0000 </r>
       <r>    4.2676    1.0000 </r>
       <r>    7.6674    0.0000 </r>
       <r>    8.8402    0.0000 </r>
       <r>    9.3540    0.0000 </r>
       <r>   13.6120    0.0000 </r>
      </set>
      <set comment="kpoint 113">
       <r>   -3.8526    1.0000 </r>
       <r>   -1.2207    1.0000 </r>
       <r>    3.8874    1.0000 </r>
       <r>    4.3066    1.0000 </r>
       <r>    7.5625    0.0000 </r>
       <r>    8.8633    0.0000 </r>
       <r>    9.2564    0.0000 </r>
       <r>   13.5632    0.0000 </r>
      </set>
      <set comment="kpoint 114">
       <r>   -3.8709    1.0000 </r>
       <r>   -1.2293    1.0000 </r>
       <r>    4.0124    1.0000 </r>
       <r>    4.3405    1.0000 </r>
       <r>    7.4585    0.0000 </r>
       <r>    8.8860    0.0000 </r>
       <r>    9.1745    0.0000 </r>
       <r>   13.5104    0.0000 </r>
      </set>
      <set comment="kpoint 115">
       <r>   -3.8865    1.0000 </r>
       <r>   -1.2367    1.0000 </r>
       <r>    4.1276    1.0000 </r>
       <r>    4.3693    1.0000 </r>
       <r>    7.3590    0.0000 </r>
       <r>    8.9071    0.0000 </r>
       <r>    9.1073    0.0000 </r>
       <r>   13.4582    0.0000 </r>
      </set>
      <set comment="kpoint 116">
       <r>   -3.8992    1.0000 </r>
       <r>   -1.2429    1.0000 </r>
       <r>    4.2298    1.0000 </r>
       <r>    4.3929    1.0000 </r>
       <r>    7.2681    0.0000 </r>
       <r>    8.9260    0.0000 </r>
       <r>    9.0540    0.0000 </r>
       <r>   13.4107    0.0000 </r>
      </set>
      <set comment="kpoint 117">
       <r>   -3.9091    1.0000 </r>
       <r>   -1.2478    1.0000 </r>
       <r>    4.3154    1.0000 </r>
       <r>    4.4112    1.0000 </r>
       <r>    7.1902    0.0000 </r>
       <r>    8.9416    0.0000 </r>
       <r>    9.0137    0.0000 </r>
       <r>   13.3709    0.0000 </r>
      </set>
      <set comment="kpoint 118">
       <r>   -3.9162    1.0000 </r>
       <r>   -1.2514    1.0000 </r>
       <r>    4.3803    1.0000 </r>
       <r>    4.4243    1.0000 </r>
       <r>    7.1302    0.0000 </r>
       <r>    8.9534    0.0000 </r>
       <r>    8.9854    0.0000 </r>
       <r>   13.3409    0.0000 </r>
      </set>
      <set comment="kpoint 119">
       <r>   -3.9204    1.0000 </r>
       <r>   -1.2535    1.0000 </r>
       <r>    4.4209    1.0000 </r>
       <r>    4.4322    1.0000 </r>
       <r>    7.0922    0.0000 </r>
       <r>    8.9607    0.0000 </r>
       <r>    8.9687    0.0000 </r>
       <r>   13.3223    0.0000 </r>
      </set>
      <set comment="kpoint 120">
       <r>   -3.9218    1.0000 </r>
       <r>   -1.2542    1.0000 </r>
       <r>    4.4348    1.0000 </r>
       <r>    4.4348    1.0000 </r>
       <r>    7.0792    0.0000 </r>
       <r>    8.9632    0.0000 </r>
       <r>    8.9632    0.0000 </r>
       <r>   13.3160    0.0000 </r>
      </set>
      <set comment="kpoint 121">
       <r>   -3.9218    1.0000 </r>
       <r>   -1.2542    1.0000 </r>
       <r>    4.4348    1.0000 </r>
       <r>    4.4348    1.0000 </r>
       <r>    7.0792    0.0000 </r>
       <r>    8.9632    0.0000 </r>
       <r>    8.9632    0.0000 </r>
       <r>   13.3160    0.0000 </r>
      </set>
      <set comment="kpoint 122">
       <r>   -3.9309    1.0000 </r>
       <r>   -1.2411    1.0000 </r>
       <r>    4.4360    1.0000 </r>
       <r>    4.4360    1.0000 </r>
       <r>    7.0805    0.0000 </r>
       <r>    8.9645    0.0000 </r>
       <r>    8.9645    0.0000 </r>
       <r>   13.3180    0.0000 </r>
      </set>
      <set comment="kpoint 123">
       <r>   -3.9577    1.0000 </r>
       <r>   -1.2023    1.0000 </r>
       <r>    4.4395    1.0000 </r>
       <r>    4.4395    1.0000 </r>
       <r>    7.0846    0.0000 </r>
       <r>    8.9684    0.0000 </r>
       <r>    8.9684    0.0000 </r>
       <r>   13.3239    0.0000 </r>
      </set>
      <set comment="kpoint 124">
       <r>   -4.0007    1.0000 </r>
       <r>   -1.1394    1.0000 </r>
       <r>    4.4453    1.0000 </r>
       <r>    4.4453    1.0000 </r>
       <r>    7.0915    0.0000 </r>
       <r>    8.9748    0.0000 </r>
       <r>    8.9748    0.0000 </r>
       <r>   13.3337    0.0000 </r>
      </set>
      <set comment="kpoint 125">
       <r>   -4.0576    1.0000 </r>
       <r>   -1.0545    1.0000 </r>
       <r>    4.4535    1.0000 </r>
       <r>    4.4535    1.0000 </r>
       <r>    7.1009    0.0000 </r>
       <r>    8.9835    0.0000 </r>
       <r>    8.9835    0.0000 </r>
       <r>   13.3469    0.0000 </r>
      </set>
      <set comment="kpoint 126">
       <r>   -4.1261    1.0000 </r>
       <r>   -0.9500    1.0000 </r>
       <r>    4.4640    1.0000 </r>
       <r>    4.4640    1.0000 </r>
       <r>    7.1132    0.0000 </r>
       <r>    8.9944    0.0000 </r>
       <r>    8.9944    0.0000 </r>
       <r>   13.3633    0.0000 </r>
      </set>
      <set comment="kpoint 127">
       <r>   -4.2036    1.0000 </r>
       <r>   -0.8286    1.0000 </r>
       <r>    4.4768    1.0000 </r>
       <r>    4.4768    1.0000 </r>
       <r>    7.1280    0.0000 </r>
       <r>    9.0073    0.0000 </r>
       <r>    9.0073    0.0000 </r>
       <r>   13.3821    0.0000 </r>
      </set>
      <set comment="kpoint 128">
       <r>   -4.2881    1.0000 </r>
       <r>   -0.6923    1.0000 </r>
       <r>    4.4920    1.0000 </r>
       <r>    4.4920    1.0000 </r>
       <r>    7.1456    0.0000 </r>
       <r>    9.0219    0.0000 </r>
       <r>    9.0219    0.0000 </r>
       <r>   13.4024    0.0000 </r>
      </set>
      <set comment="kpoint 129">
       <r>   -4.3774    1.0000 </r>
       <r>   -0.5433    1.0000 </r>
       <r>    4.5094    1.0000 </r>
       <r>    4.5094    1.0000 </r>
       <r>    7.1658    0.0000 </r>
       <r>    9.0376    0.0000 </r>
       <r>    9.0376    0.0000 </r>
       <r>   13.4227    0.0000 </r>
      </set>
      <set comment="kpoint 130">
       <r>   -4.4700    1.0000 </r>
       <r>   -0.3831    1.0000 </r>
       <r>    4.5292    1.0000 </r>
       <r>    4.5292    1.0000 </r>
       <r>    7.1886    0.0000 </r>
       <r>    9.0543    0.0000 </r>
       <r>    9.0543    0.0000 </r>
       <r>   13.4410    0.0000 </r>
      </set>
      <set comment="kpoint 131">
       <r>   -4.5646    1.0000 </r>
       <r>   -0.2132    1.0000 </r>
       <r>    4.5512    1.0000 </r>
       <r>    4.5512    1.0000 </r>
       <r>    7.2139    0.0000 </r>
       <r>    9.0712    0.0000 </r>
       <r>    9.0712    0.0000 </r>
       <r>   13.4537    0.0000 </r>
      </set>
      <set comment="kpoint 132">
       <r>   -4.6601    1.0000 </r>
       <r>   -0.0347    1.0000 </r>
       <r>    4.5755    1.0000 </r>
       <r>    4.5755    1.0000 </r>
       <r>    7.2419    0.0000 </r>
       <r>    9.0877    0.0000 </r>
       <r>    9.0877    0.0000 </r>
       <r>   13.4571    0.0000 </r>
      </set>
      <set comment="kpoint 133">
       <r>   -4.7555    1.0000 </r>
       <r>    0.1514    1.0000 </r>
       <r>    4.6020    1.0000 </r>
       <r>    4.6020    1.0000 </r>
       <r>    7.2723    0.0000 </r>
       <r>    9.1033    0.0000 </r>
       <r>    9.1033    0.0000 </r>
       <r>   13.4398    0.0000 </r>
      </set>
      <set comment="kpoint 134">
       <r>   -4.8501    1.0000 </r>
       <r>    0.3444    1.0000 </r>
       <r>    4.6308    1.0000 </r>
       <r>    4.6308    1.0000 </r>
       <r>    7.3051    0.0000 </r>
       <r>    9.1171    0.0000 </r>
       <r>    9.1171    0.0000 </r>
       <r>   13.4097    0.0000 </r>
      </set>
      <set comment="kpoint 135">
       <r>   -4.9434    1.0000 </r>
       <r>    0.5436    1.0000 </r>
       <r>    4.6617    1.0000 </r>
       <r>    4.6617    1.0000 </r>
       <r>    7.3403    0.0000 </r>
       <r>    9.1283    0.0000 </r>
       <r>    9.1283    0.0000 </r>
       <r>   13.3175    0.0000 </r>
      </set>
      <set comment="kpoint 136">
       <r>   -5.0349    1.0000 </r>
       <r>    0.7484    1.0000 </r>
       <r>    4.6947    1.0000 </r>
       <r>    4.6947    1.0000 </r>
       <r>    7.3778    0.0000 </r>
       <r>    9.1360    0.0000 </r>
       <r>    9.1360    0.0000 </r>
       <r>   13.2132    0.0000 </r>
      </set>
      <set comment="kpoint 137">
       <r>   -5.1242    1.0000 </r>
       <r>    0.9583    1.0000 </r>
       <r>    4.7299    1.0000 </r>
       <r>    4.7299    1.0000 </r>
       <r>    7.4175    0.0000 </r>
       <r>    9.1393    0.0000 </r>
       <r>    9.1393    0.0000 </r>
       <r>   13.0599    0.0000 </r>
      </set>
      <set comment="kpoint 138">
       <r>   -5.2109    1.0000 </r>
       <r>    1.1729    1.0000 </r>
       <r>    4.7670    1.0000 </r>
       <r>    4.7670    1.0000 </r>
       <r>    7.4593    0.0000 </r>
       <r>    9.1373    0.0000 </r>
       <r>    9.1373    0.0000 </r>
       <r>   12.8771    0.0000 </r>
      </set>
      <set comment="kpoint 139">
       <r>   -5.2949    1.0000 </r>
       <r>    1.3918    1.0000 </r>
       <r>    4.8061    1.0000 </r>
       <r>    4.8061    1.0000 </r>
       <r>    7.5030    0.0000 </r>
       <r>    9.1290    0.0000 </r>
       <r>    9.1290    0.0000 </r>
       <r>   12.6763    0.0000 </r>
      </set>
      <set comment="kpoint 140">
       <r>   -5.3758    1.0000 </r>
       <r>    1.6146    1.0000 </r>
       <r>    4.8471    1.0000 </r>
       <r>    4.8471    1.0000 </r>
       <r>    7.5485    0.0000 </r>
       <r>    9.1139    0.0000 </r>
       <r>    9.1139    0.0000 </r>
       <r>   12.4692    0.0000 </r>
      </set>
      <set comment="kpoint 141">
       <r>   -5.4536    1.0000 </r>
       <r>    1.8409    1.0000 </r>
       <r>    4.8897    1.0000 </r>
       <r>    4.8897    1.0000 </r>
       <r>    7.5957    0.0000 </r>
       <r>    9.0913    0.0000 </r>
       <r>    9.0913    0.0000 </r>
       <r>   12.2539    0.0000 </r>
      </set>
      <set comment="kpoint 142">
       <r>   -5.5279    1.0000 </r>
       <r>    2.0703    1.0000 </r>
       <r>    4.9340    1.0000 </r>
       <r>    4.9340    1.0000 </r>
       <r>    7.6443    0.0000 </r>
       <r>    9.0611    0.0000 </r>
       <r>    9.0611    0.0000 </r>
       <r>   12.0332    0.0000 </r>
      </set>
      <set comment="kpoint 143">
       <r>   -5.5988    1.0000 </r>
       <r>    2.3025    1.0000 </r>
       <r>    4.9796    1.0000 </r>
       <r>    4.9796    1.0000 </r>
       <r>    7.6940    0.0000 </r>
       <r>    9.0232    0.0000 </r>
       <r>    9.0232    0.0000 </r>
       <r>   11.8085    0.0000 </r>
      </set>
      <set comment="kpoint 144">
       <r>   -5.6660    1.0000 </r>
       <r>    2.5371    1.0000 </r>
       <r>    5.0266    1.0000 </r>
       <r>    5.0266    1.0000 </r>
       <r>    7.7446    0.0000 </r>
       <r>    8.9779    0.0000 </r>
       <r>    8.9779    0.0000 </r>
       <r>   11.5810    0.0000 </r>
      </set>
      <set comment="kpoint 145">
       <r>   -5.7296    1.0000 </r>
       <r>    2.7735    1.0000 </r>
       <r>    5.0745    1.0000 </r>
       <r>    5.0745    1.0000 </r>
       <r>    7.7958    0.0000 </r>
       <r>    8.9260    0.0000 </r>
       <r>    8.9260    0.0000 </r>
       <r>   11.3515    0.0000 </r>
      </set>
      <set comment="kpoint 146">
       <r>   -5.7893    1.0000 </r>
       <r>    3.0114    1.0000 </r>
       <r>    5.1233    1.0000 </r>
       <r>    5.1233    1.0000 </r>
       <r>    7.8472    0.0000 </r>
       <r>    8.8682    0.0000 </r>
       <r>    8.8682    0.0000 </r>
       <r>   11.1207    0.0000 </r>
      </set>
      <set comment="kpoint 147">
       <r>   -5.8452    1.0000 </r>
       <r>    3.2501    1.0000 </r>
       <r>    5.1724    1.0000 </r>
       <r>    5.1724    1.0000 </r>
       <r>    7.8983    0.0000 </r>
       <r>    8.8056    0.0000 </r>
       <r>    8.8056    0.0000 </r>
       <r>   10.8893    0.0000 </r>
      </set>
      <set comment="kpoint 148">
       <r>   -5.8972    1.0000 </r>
       <r>    3.4890    1.0000 </r>
       <r>    5.2217    1.0000 </r>
       <r>    5.2217    1.0000 </r>
       <r>    7.9487    0.0000 </r>
       <r>    8.7396    0.0000 </r>
       <r>    8.7396    0.0000 </r>
       <r>   10.6581    0.0000 </r>
      </set>
      <set comment="kpoint 149">
       <r>   -5.9451    1.0000 </r>
       <r>    3.7272    1.0000 </r>
       <r>    5.2707    1.0000 </r>
       <r>    5.2707    1.0000 </r>
       <r>    7.9977    0.0000 </r>
       <r>    8.6716    0.0000 </r>
       <r>    8.6716    0.0000 </r>
       <r>   10.4279    0.0000 </r>
      </set>
      <set comment="kpoint 150">
       <r>   -5.9890    1.0000 </r>
       <r>    3.9636    1.0000 </r>
       <r>    5.3189    1.0000 </r>
       <r>    5.3189    1.0000 </r>
       <r>    8.0445    0.0000 </r>
       <r>    8.6028    0.0000 </r>
       <r>    8.6028    0.0000 </r>
       <r>   10.2000    0.0000 </r>
      </set>
      <set comment="kpoint 151">
       <r>   -6.0289    1.0000 </r>
       <r>    4.1972    1.0000 </r>
       <r>    5.3657    1.0000 </r>
       <r>    5.3657    1.0000 </r>
       <r>    8.0883    0.0000 </r>
       <r>    8.5347    0.0000 </r>
       <r>    8.5347    0.0000 </r>
       <r>    9.9758    0.0000 </r>
      </set>
      <set comment="kpoint 152">
       <r>   -6.0646    1.0000 </r>
       <r>    4.4260    1.0000 </r>
       <r>    5.4106    1.0000 </r>
       <r>    5.4106    1.0000 </r>
       <r>    8.1281    0.0000 </r>
       <r>    8.4688    0.0000 </r>
       <r>    8.4688    0.0000 </r>
       <r>    9.7574    0.0000 </r>
      </set>
      <set comment="kpoint 153">
       <r>   -6.0962    1.0000 </r>
       <r>    4.6479    1.0000 </r>
       <r>    5.4529    1.0000 </r>
       <r>    5.4529    1.0000 </r>
       <r>    8.1625    0.0000 </r>
       <r>    8.4063    0.0000 </r>
       <r>    8.4063    0.0000 </r>
       <r>    9.5476    0.0000 </r>
      </set>
      <set comment="kpoint 154">
       <r>   -6.1236    1.0000 </r>
       <r>    4.8600    1.0000 </r>
       <r>    5.4918    1.0000 </r>
       <r>    5.4918    1.0000 </r>
       <r>    8.1898    0.0000 </r>
       <r>    8.3488    0.0000 </r>
       <r>    8.3488    0.0000 </r>
       <r>    9.3503    0.0000 </r>
      </set>
      <set comment="kpoint 155">
       <r>   -6.1469    1.0000 </r>
       <r>    5.0584    1.0000 </r>
       <r>    5.5266    1.0000 </r>
       <r>    5.5266    1.0000 </r>
       <r>    8.2079    0.0000 </r>
       <r>    8.2973    0.0000 </r>
       <r>    8.2973    0.0000 </r>
       <r>    9.1709    0.0000 </r>
      </set>
      <set comment="kpoint 156">
       <r>   -6.1659    1.0000 </r>
       <r>    5.2377    1.0000 </r>
       <r>    5.5565    1.0000 </r>
       <r>    5.5565    1.0000 </r>
       <r>    8.2147    0.0000 </r>
       <r>    8.2533    0.0000 </r>
       <r>    8.2533    0.0000 </r>
       <r>    9.0163    0.0000 </r>
      </set>
      <set comment="kpoint 157">
       <r>   -6.1807    1.0000 </r>
       <r>    5.3911    1.0000 </r>
       <r>    5.5807    1.0000 </r>
       <r>    5.5807    1.0000 </r>
       <r>    8.2091    0.0000 </r>
       <r>    8.2178    0.0000 </r>
       <r>    8.2178    0.0000 </r>
       <r>    8.8936    0.0000 </r>
      </set>
      <set comment="kpoint 158">
       <r>   -6.1913    1.0000 </r>
       <r>    5.5103    1.0000 </r>
       <r>    5.5985    1.0000 </r>
       <r>    5.5985    1.0000 </r>
       <r>    8.1916    0.0000 </r>
       <r>    8.1916    0.0000 </r>
       <r>    8.1938    0.0000 </r>
       <r>    8.8080    0.0000 </r>
      </set>
      <set comment="kpoint 159">
       <r>   -6.1977    1.0000 </r>
       <r>    5.5867    1.0000 </r>
       <r>    5.6094    1.0000 </r>
       <r>    5.6094    1.0000 </r>
       <r>    8.1757    0.0000 </r>
       <r>    8.1757    0.0000 </r>
       <r>    8.1774    0.0000 </r>
       <r>    8.7592    0.0000 </r>
      </set>
      <set comment="kpoint 160">
       <r>   -6.1998    1.0000 </r>
       <r>    5.6131    1.0000 </r>
       <r>    5.6131    1.0000 </r>
       <r>    5.6131    1.0000 </r>
       <r>    8.1703    0.0000 </r>
       <r>    8.1703    0.0000 </r>
       <r>    8.1703    0.0000 </r>
       <r>    8.7437    0.0000 </r>
      </set>
      <set comment="kpoint 161">
       <r>   -6.1998    1.0000 </r>
       <r>    5.6131    1.0000 </r>
       <r>    5.6131    1.0000 </r>
       <r>    5.6131    1.0000 </r>
       <r>    8.1703    0.0000 </r>
       <r>    8.1703    0.0000 </r>
       <r>    8.1703    0.0000 </r>
       <r>    8.7437    0.0000 </r>
      </set>
      <set comment="kpoint 162">
       <r>   -6.1966    1.0000 </r>
       <r>    5.5778    1.0000 </r>
       <r>    5.5993    1.0000 </r>
       <r>    5.6117    1.0000 </r>
       <r>    8.1736    0.0000 </r>
       <r>    8.1767    0.0000 </r>
       <r>    8.1872    0.0000 </r>
       <r>    8.7670    0.0000 </r>
      </set>
      <set comment="kpoint 163">
       <r>   -6.1871    1.0000 </r>
       <r>    5.4772    1.0000 </r>
       <r>    5.5587    1.0000 </r>
       <r>    5.6074    1.0000 </r>
       <r>    8.1834    0.0000 </r>
       <r>    8.1957    0.0000 </r>
       <r>    8.2294    0.0000 </r>
       <r>    8.8398    0.0000 </r>
      </set>
      <set comment="kpoint 164">
       <r>   -6.1712    1.0000 </r>
       <r>    5.3243    1.0000 </r>
       <r>    5.4928    1.0000 </r>
       <r>    5.6002    1.0000 </r>
       <r>    8.1998    0.0000 </r>
       <r>    8.2264    0.0000 </r>
       <r>    8.2795    0.0000 </r>
       <r>    8.9661    0.0000 </r>
      </set>
      <set comment="kpoint 165">
       <r>   -6.1490    1.0000 </r>
       <r>    5.1336    1.0000 </r>
       <r>    5.4041    1.0000 </r>
       <r>    5.5900    1.0000 </r>
       <r>    8.2227    0.0000 </r>
       <r>    8.2674    0.0000 </r>
       <r>    8.3253    0.0000 </r>
       <r>    9.1423    0.0000 </r>
      </set>
      <set comment="kpoint 166">
       <r>   -6.1204    1.0000 </r>
       <r>    4.9173    1.0000 </r>
       <r>    5.2954    1.0000 </r>
       <r>    5.5765    1.0000 </r>
       <r>    8.2521    0.0000 </r>
       <r>    8.3175    0.0000 </r>
       <r>    8.3643    0.0000 </r>
       <r>    9.3571    0.0000 </r>
      </set>
      <set comment="kpoint 167">
       <r>   -6.0856    1.0000 </r>
       <r>    4.6843    1.0000 </r>
       <r>    5.1697    1.0000 </r>
       <r>    5.5596    1.0000 </r>
       <r>    8.2881    0.0000 </r>
       <r>    8.3754    0.0000 </r>
       <r>    8.3982    0.0000 </r>
       <r>    9.5972    0.0000 </r>
      </set>
      <set comment="kpoint 168">
       <r>   -6.0445    1.0000 </r>
       <r>    4.4410    1.0000 </r>
       <r>    5.0299    1.0000 </r>
       <r>    5.5390    1.0000 </r>
       <r>    8.3307    0.0000 </r>
       <r>    8.4291    0.0000 </r>
       <r>    8.4401    0.0000 </r>
       <r>    9.8502    0.0000 </r>
      </set>
      <set comment="kpoint 169">
       <r>   -5.9972    1.0000 </r>
       <r>    4.1918    1.0000 </r>
       <r>    4.8786    1.0000 </r>
       <r>    5.5144    1.0000 </r>
       <r>    8.3797    0.0000 </r>
       <r>    8.4584    0.0000 </r>
       <r>    8.5109    0.0000 </r>
       <r>   10.1053    0.0000 </r>
      </set>
      <set comment="kpoint 170">
       <r>   -5.9437    1.0000 </r>
       <r>    3.9398    1.0000 </r>
       <r>    4.7182    1.0000 </r>
       <r>    5.4856    1.0000 </r>
       <r>    8.4353    0.0000 </r>
       <r>    8.4865    0.0000 </r>
       <r>    8.5872    0.0000 </r>
       <r>   10.3517    0.0000 </r>
      </set>
      <set comment="kpoint 171">
       <r>   -5.8841    1.0000 </r>
       <r>    3.6871    1.0000 </r>
       <r>    4.5509    1.0000 </r>
       <r>    5.4523    1.0000 </r>
       <r>    8.4974    0.0000 </r>
       <r>    8.5135    0.0000 </r>
       <r>    8.6688    0.0000 </r>
       <r>   10.5782    0.0000 </r>
      </set>
      <set comment="kpoint 172">
       <r>   -5.8185    1.0000 </r>
       <r>    3.4353    1.0000 </r>
       <r>    4.3784    1.0000 </r>
       <r>    5.4143    1.0000 </r>
       <r>    8.5389    0.0000 </r>
       <r>    8.5660    0.0000 </r>
       <r>    8.7555    0.0000 </r>
       <r>   10.7739    0.0000 </r>
      </set>
      <set comment="kpoint 173">
       <r>   -5.7469    1.0000 </r>
       <r>    3.1855    1.0000 </r>
       <r>    4.2025    1.0000 </r>
       <r>    5.3713    1.0000 </r>
       <r>    8.5618    0.0000 </r>
       <r>    8.6411    0.0000 </r>
       <r>    8.8473    0.0000 </r>
       <r>   10.9297    0.0000 </r>
      </set>
      <set comment="kpoint 174">
       <r>   -5.6694    1.0000 </r>
       <r>    2.9387    1.0000 </r>
       <r>    4.0245    1.0000 </r>
       <r>    5.3233    1.0000 </r>
       <r>    8.5813    0.0000 </r>
       <r>    8.7226    0.0000 </r>
       <r>    8.9441    0.0000 </r>
       <r>   11.0424    0.0000 </r>
      </set>
      <set comment="kpoint 175">
       <r>   -5.5861    1.0000 </r>
       <r>    2.6954    1.0000 </r>
       <r>    3.8457    1.0000 </r>
       <r>    5.2701    1.0000 </r>
       <r>    8.5959    0.0000 </r>
       <r>    8.8106    0.0000 </r>
       <r>    9.0461    0.0000 </r>
       <r>   11.1154    0.0000 </r>
      </set>
      <set comment="kpoint 176">
       <r>   -5.4971    1.0000 </r>
       <r>    2.4563    1.0000 </r>
       <r>    3.6672    1.0000 </r>
       <r>    5.2118    1.0000 </r>
       <r>    8.6043    0.0000 </r>
       <r>    8.9051    0.0000 </r>
       <r>    9.1533    0.0000 </r>
       <r>   11.1575    0.0000 </r>
      </set>
      <set comment="kpoint 177">
       <r>   -5.4025    1.0000 </r>
       <r>    2.2216    1.0000 </r>
       <r>    3.4898    1.0000 </r>
       <r>    5.1485    1.0000 </r>
       <r>    8.6050    0.0000 </r>
       <r>    9.0060    0.0000 </r>
       <r>    9.2659    0.0000 </r>
       <r>   11.1798    0.0000 </r>
      </set>
      <set comment="kpoint 178">
       <r>   -5.3026    1.0000 </r>
       <r>    1.9918    1.0000 </r>
       <r>    3.3146    1.0000 </r>
       <r>    5.0803    1.0000 </r>
       <r>    8.5965    0.0000 </r>
       <r>    9.1132    0.0000 </r>
       <r>    9.3839    0.0000 </r>
       <r>   11.1921    0.0000 </r>
      </set>
      <set comment="kpoint 179">
       <r>   -5.1974    1.0000 </r>
       <r>    1.7671    1.0000 </r>
       <r>    3.1422    1.0000 </r>
       <r>    5.0074    1.0000 </r>
       <r>    8.5775    0.0000 </r>
       <r>    9.2269    0.0000 </r>
       <r>    9.5073    0.0000 </r>
       <r>   11.2027    0.0000 </r>
      </set>
      <set comment="kpoint 180">
       <r>   -5.0871    1.0000 </r>
       <r>    1.5477    1.0000 </r>
       <r>    2.9734    1.0000 </r>
       <r>    4.9304    1.0000 </r>
       <r>    8.5474    0.0000 </r>
       <r>    9.3470    0.0000 </r>
       <r>    9.6364    0.0000 </r>
       <r>   11.2180    0.0000 </r>
      </set>
      <set comment="kpoint 181">
       <r>   -4.9720    1.0000 </r>
       <r>    1.3338    1.0000 </r>
       <r>    2.8088    1.0000 </r>
       <r>    4.8494    1.0000 </r>
       <r>    8.5056    0.0000 </r>
       <r>    9.4733    0.0000 </r>
       <r>    9.7710    0.0000 </r>
       <r>   11.2420    0.0000 </r>
      </set>
      <set comment="kpoint 182">
       <r>   -4.8523    1.0000 </r>
       <r>    1.1256    1.0000 </r>
       <r>    2.6491    1.0000 </r>
       <r>    4.7651    1.0000 </r>
       <r>    8.4523    0.0000 </r>
       <r>    9.6060    0.0000 </r>
       <r>    9.9112    0.0000 </r>
       <r>   11.2776    0.0000 </r>
      </set>
      <set comment="kpoint 183">
       <r>   -4.7282    1.0000 </r>
       <r>    0.9233    1.0000 </r>
       <r>    2.4949    1.0000 </r>
       <r>    4.6779    1.0000 </r>
       <r>    8.3884    0.0000 </r>
       <r>    9.7449    0.0000 </r>
       <r>   10.0572    0.0000 </r>
       <r>   11.3264    0.0000 </r>
      </set>
      <set comment="kpoint 184">
       <r>   -4.6002    1.0000 </r>
       <r>    0.7268    1.0000 </r>
       <r>    2.3468    1.0000 </r>
       <r>    4.5883    1.0000 </r>
       <r>    8.3149    0.0000 </r>
       <r>    9.8900    0.0000 </r>
       <r>   10.2088    0.0000 </r>
       <r>   11.3886    0.0000 </r>
      </set>
      <set comment="kpoint 185">
       <r>   -4.4686    1.0000 </r>
       <r>    0.5365    1.0000 </r>
       <r>    2.2054    1.0000 </r>
       <r>    4.4970    1.0000 </r>
       <r>    8.2333    0.0000 </r>
       <r>   10.0412    0.0000 </r>
       <r>   10.3659    0.0000 </r>
       <r>   11.4644    0.0000 </r>
      </set>
      <set comment="kpoint 186">
       <r>   -4.3337    1.0000 </r>
       <r>    0.3522    1.0000 </r>
       <r>    2.0713    1.0000 </r>
       <r>    4.4044    1.0000 </r>
       <r>    8.1449    0.0000 </r>
       <r>   10.1986    0.0000 </r>
       <r>   10.5286    0.0000 </r>
       <r>   11.5540    0.0000 </r>
      </set>
      <set comment="kpoint 187">
       <r>   -4.1962    1.0000 </r>
       <r>    0.1742    1.0000 </r>
       <r>    1.9451    1.0000 </r>
       <r>    4.3111    1.0000 </r>
       <r>    8.0514    0.0000 </r>
       <r>   10.3620    0.0000 </r>
       <r>   10.6966    0.0000 </r>
       <r>   11.6540    0.0000 </r>
      </set>
      <set comment="kpoint 188">
       <r>   -4.0566    1.0000 </r>
       <r>    0.0024    1.0000 </r>
       <r>    1.8276    1.0000 </r>
       <r>    4.2177    1.0000 </r>
       <r>    7.9541    0.0000 </r>
       <r>   10.5315    0.0000 </r>
       <r>   10.8696    0.0000 </r>
       <r>   11.7658    0.0000 </r>
      </set>
      <set comment="kpoint 189">
       <r>   -3.9155    1.0000 </r>
       <r>   -0.1630    1.0000 </r>
       <r>    1.7194    1.0000 </r>
       <r>    4.1246    1.0000 </r>
       <r>    7.8545    0.0000 </r>
       <r>   10.7069    0.0000 </r>
       <r>   11.0469    0.0000 </r>
       <r>   11.8883    0.0000 </r>
      </set>
      <set comment="kpoint 190">
       <r>   -3.7737    1.0000 </r>
       <r>   -0.3219    1.0000 </r>
       <r>    1.6214    1.0000 </r>
       <r>    4.0323    1.0000 </r>
       <r>    7.7537    0.0000 </r>
       <r>   10.8882    0.0000 </r>
       <r>   11.2277    0.0000 </r>
       <r>   12.0198    0.0000 </r>
      </set>
      <set comment="kpoint 191">
       <r>   -3.6321    1.0000 </r>
       <r>   -0.4745    1.0000 </r>
       <r>    1.5345    1.0000 </r>
       <r>    3.9413    1.0000 </r>
       <r>    7.6526    0.0000 </r>
       <r>   11.0753    0.0000 </r>
       <r>   11.4091    0.0000 </r>
       <r>   12.1602    0.0000 </r>
      </set>
      <set comment="kpoint 192">
       <r>   -3.4916    1.0000 </r>
       <r>   -0.6205    1.0000 </r>
       <r>    1.4595    1.0000 </r>
       <r>    3.8519    1.0000 </r>
       <r>    7.5523    0.0000 </r>
       <r>   11.2680    0.0000 </r>
       <r>   11.5854    0.0000 </r>
       <r>   12.3086    0.0000 </r>
      </set>
      <set comment="kpoint 193">
       <r>   -3.3532    1.0000 </r>
       <r>   -0.7600    1.0000 </r>
       <r>    1.3975    1.0000 </r>
       <r>    3.7647    1.0000 </r>
       <r>    7.4535    0.0000 </r>
       <r>   11.4663    0.0000 </r>
       <r>   11.7368    0.0000 </r>
       <r>   12.4660    0.0000 </r>
      </set>
      <set comment="kpoint 194">
       <r>   -3.2182    1.0000 </r>
       <r>   -0.8929    1.0000 </r>
       <r>    1.3496    1.0000 </r>
       <r>    3.6798    1.0000 </r>
       <r>    7.3568    0.0000 </r>
       <r>   11.6699    0.0000 </r>
       <r>   11.7892    0.0000 </r>
       <r>   12.5187    0.0000 </r>
      </set>
      <set comment="kpoint 195">
       <r>   -3.0878    1.0000 </r>
       <r>   -1.0192    1.0000 </r>
       <r>    1.3169    1.0000 </r>
       <r>    3.5978    1.0000 </r>
       <r>    7.2628    0.0000 </r>
       <r>   11.6080    0.0000 </r>
       <r>   11.8787    0.0000 </r>
       <r>   12.4965    0.0000 </r>
      </set>
      <set comment="kpoint 196">
       <r>   -2.9633    1.0000 </r>
       <r>   -1.1388    1.0000 </r>
       <r>    1.3004    1.0000 </r>
       <r>    3.5187    1.0000 </r>
       <r>    7.1719    0.0000 </r>
       <r>   11.2709    0.0000 </r>
       <r>   12.0927    0.0000 </r>
       <r>   12.6410    0.0000 </r>
      </set>
      <set comment="kpoint 197">
       <r>   -2.8459    1.0000 </r>
       <r>   -1.2517    1.0000 </r>
       <r>    1.3012    1.0000 </r>
       <r>    3.4430    1.0000 </r>
       <r>    7.0847    0.0000 </r>
       <r>   10.8907    0.0000 </r>
       <r>   12.3114    0.0000 </r>
       <r>   12.8407    0.0000 </r>
      </set>
      <set comment="kpoint 198">
       <r>   -2.7368    1.0000 </r>
       <r>   -1.3579    1.0000 </r>
       <r>    1.3201    1.0000 </r>
       <r>    3.3708    1.0000 </r>
       <r>    7.0015    0.0000 </r>
       <r>   10.5007    0.0000 </r>
       <r>   12.5348    0.0000 </r>
       <r>   13.0581    0.0000 </r>
      </set>
      <set comment="kpoint 199">
       <r>   -2.6370    1.0000 </r>
       <r>   -1.4574    1.0000 </r>
       <r>    1.3576    1.0000 </r>
       <r>    3.3024    1.0000 </r>
       <r>    6.9227    0.0000 </r>
       <r>   10.1110    0.0000 </r>
       <r>   12.7623    0.0000 </r>
       <r>   13.2907    0.0000 </r>
      </set>
      <set comment="kpoint 200">
       <r>   -2.5472    1.0000 </r>
       <r>   -1.5501    1.0000 </r>
       <r>    1.4140    1.0000 </r>
       <r>    3.2380    1.0000 </r>
       <r>    6.8483    0.0000 </r>
       <r>    9.7258    0.0000 </r>
       <r>   12.9939    0.0000 </r>
       <r>   13.5299    0.0000 </r>
      </set>
      <set comment="kpoint 201">
       <r>   -2.5472    1.0000 </r>
       <r>   -1.5501    1.0000 </r>
       <r>    1.4140    1.0000 </r>
       <r>    3.2380    1.0000 </r>
       <r>    6.8483    0.0000 </r>
       <r>    9.7258    0.0000 </r>
       <r>   12.9938    0.0000 </r>
       <r>   13.5299    0.0000 </r>
      </set>
      <set comment="kpoint 202">
       <r>   -2.5745    1.0000 </r>
       <r>   -1.5206    1.0000 </r>
       <r>    1.3943    1.0000 </r>
       <r>    3.2497    1.0000 </r>
       <r>    6.8866    0.0000 </r>
       <r>    9.8545    0.0000 </r>
       <r>   12.8720    0.0000 </r>
       <r>   13.5055    0.0000 </r>
      </set>
      <set comment="kpoint 203">
       <r>   -2.5999    1.0000 </r>
       <r>   -1.4916    1.0000 </r>
       <r>    1.3791    1.0000 </r>
       <r>    3.2436    1.0000 </r>
       <r>    6.9530    0.0000 </r>
       <r>    9.9857    0.0000 </r>
       <r>   12.6892    0.0000 </r>
       <r>   13.3246    0.0000 </r>
      </set>
      <set comment="kpoint 204">
       <r>   -2.6235    1.0000 </r>
       <r>   -1.4632    1.0000 </r>
       <r>    1.3684    1.0000 </r>
       <r>    3.2212    1.0000 </r>
       <r>    7.0458    0.0000 </r>
       <r>   10.1189    0.0000 </r>
       <r>   12.4802    0.0000 </r>
       <r>   13.0641    0.0000 </r>
      </set>
      <set comment="kpoint 205">
       <r>   -2.6452    1.0000 </r>
       <r>   -1.4356    1.0000 </r>
       <r>    1.3621    1.0000 </r>
       <r>    3.1847    1.0000 </r>
       <r>    7.1631    0.0000 </r>
       <r>   10.2531    0.0000 </r>
       <r>   12.2621    0.0000 </r>
       <r>   12.8064    0.0000 </r>
      </set>
      <set comment="kpoint 206">
       <r>   -2.6651    1.0000 </r>
       <r>   -1.4088    1.0000 </r>
       <r>    1.3604    1.0000 </r>
       <r>    3.1365    1.0000 </r>
       <r>    7.3025    0.0000 </r>
       <r>   10.3868    0.0000 </r>
       <r>   12.0428    0.0000 </r>
       <r>   12.5476    0.0000 </r>
      </set>
      <set comment="kpoint 207">
       <r>   -2.6831    1.0000 </r>
       <r>   -1.3830    1.0000 </r>
       <r>    1.3631    1.0000 </r>
       <r>    3.0792    1.0000 </r>
       <r>    7.4613    0.0000 </r>
       <r>   10.5167    0.0000 </r>
       <r>   11.8282    0.0000 </r>
       <r>   12.2894    0.0000 </r>
      </set>
      <set comment="kpoint 208">
       <r>   -2.6992    1.0000 </r>
       <r>   -1.3585    1.0000 </r>
       <r>    1.3703    1.0000 </r>
       <r>    3.0153    1.0000 </r>
       <r>    7.6372    0.0000 </r>
       <r>   10.6352    0.0000 </r>
       <r>   11.6275    0.0000 </r>
       <r>   12.0327    0.0000 </r>
      </set>
      <set comment="kpoint 209">
       <r>   -2.7134    1.0000 </r>
       <r>   -1.3354    1.0000 </r>
       <r>    1.3819    1.0000 </r>
       <r>    2.9472    1.0000 </r>
       <r>    7.8279    0.0000 </r>
       <r>   10.7227    0.0000 </r>
       <r>   11.4613    0.0000 </r>
       <r>   11.7782    0.0000 </r>
      </set>
      <set comment="kpoint 210">
       <r>   -2.7257    1.0000 </r>
       <r>   -1.3140    1.0000 </r>
       <r>    1.3978    1.0000 </r>
       <r>    2.8768    1.0000 </r>
       <r>    8.0314    0.0000 </r>
       <r>   10.7343    0.0000 </r>
       <r>   11.3747    0.0000 </r>
       <r>   11.5266    0.0000 </r>
      </set>
      <set comment="kpoint 211">
       <r>   -2.7360    1.0000 </r>
       <r>   -1.2947    1.0000 </r>
       <r>    1.4180    1.0000 </r>
       <r>    2.8062    1.0000 </r>
       <r>    8.2457    0.0000 </r>
       <r>   10.6376    0.0000 </r>
       <r>   11.2783    0.0000 </r>
       <r>   11.4008    0.0000 </r>
      </set>
      <set comment="kpoint 212">
       <r>   -2.7444    1.0000 </r>
       <r>   -1.2778    1.0000 </r>
       <r>    1.4424    1.0000 </r>
       <r>    2.7368    1.0000 </r>
       <r>    8.4691    0.0000 </r>
       <r>   10.4701    0.0000 </r>
       <r>   11.0340    0.0000 </r>
       <r>   11.5024    0.0000 </r>
      </set>
      <set comment="kpoint 213">
       <r>   -2.7508    1.0000 </r>
       <r>   -1.2636    1.0000 </r>
       <r>    1.4709    1.0000 </r>
       <r>    2.6701    1.0000 </r>
       <r>    8.6994    0.0000 </r>
       <r>   10.2734    0.0000 </r>
       <r>   10.7950    0.0000 </r>
       <r>   11.6380    0.0000 </r>
      </set>
      <set comment="kpoint 214">
       <r>   -2.7552    1.0000 </r>
       <r>   -1.2524    1.0000 </r>
       <r>    1.5035    1.0000 </r>
       <r>    2.6072    1.0000 </r>
       <r>    8.9338    0.0000 </r>
       <r>   10.0658    0.0000 </r>
       <r>   10.5632    0.0000 </r>
       <r>   11.7896    0.0000 </r>
      </set>
      <set comment="kpoint 215">
       <r>   -2.7576    1.0000 </r>
       <r>   -1.2447    1.0000 </r>
       <r>    1.5401    1.0000 </r>
       <r>    2.5493    1.0000 </r>
       <r>    9.1668    0.0000 </r>
       <r>    9.8541    0.0000 </r>
       <r>   10.3436    0.0000 </r>
       <r>   11.9502    0.0000 </r>
      </set>
      <set comment="kpoint 216">
       <r>   -2.7579    1.0000 </r>
       <r>   -1.2407    1.0000 </r>
       <r>    1.5804    1.0000 </r>
       <r>    2.4972    1.0000 </r>
       <r>    9.3816    0.0000 </r>
       <r>    9.6419    0.0000 </r>
       <r>   10.1524    0.0000 </r>
       <r>   12.1169    0.0000 </r>
      </set>
      <set comment="kpoint 217">
       <r>   -2.7561    1.0000 </r>
       <r>   -1.2407    1.0000 </r>
       <r>    1.6244    1.0000 </r>
       <r>    2.4515    1.0000 </r>
       <r>    9.4306    0.0000 </r>
       <r>    9.5139    0.0000 </r>
       <r>   10.0535    0.0000 </r>
       <r>   12.2881    0.0000 </r>
      </set>
      <set comment="kpoint 218">
       <r>   -2.7523    1.0000 </r>
       <r>   -1.2450    1.0000 </r>
       <r>    1.6720    1.0000 </r>
       <r>    2.4130    1.0000 </r>
       <r>    9.2215    0.0000 </r>
       <r>    9.4583    0.0000 </r>
       <r>   10.1520    0.0000 </r>
       <r>   12.4627    0.0000 </r>
      </set>
      <set comment="kpoint 219">
       <r>   -2.7463    1.0000 </r>
       <r>   -1.2537    1.0000 </r>
       <r>    1.7229    1.0000 </r>
       <r>    2.3820    1.0000 </r>
       <r>    9.0151    0.0000 </r>
       <r>    9.2911    0.0000 </r>
       <r>   10.3713    0.0000 </r>
       <r>   12.6403    0.0000 </r>
      </set>
      <set comment="kpoint 220">
       <r>   -2.7381    1.0000 </r>
       <r>   -1.2670    1.0000 </r>
       <r>    1.7769    1.0000 </r>
       <r>    2.3588    1.0000 </r>
       <r>    8.8120    0.0000 </r>
       <r>    9.0954    0.0000 </r>
       <r>   10.6278    0.0000 </r>
       <r>   12.8204    0.0000 </r>
      </set>
      <set comment="kpoint 221">
       <r>   -2.7279    1.0000 </r>
       <r>   -1.2849    1.0000 </r>
       <r>    1.8339    1.0000 </r>
       <r>    2.3435    1.0000 </r>
       <r>    8.6128    0.0000 </r>
       <r>    8.8937    0.0000 </r>
       <r>   10.8994    0.0000 </r>
       <r>   13.0023    0.0000 </r>
      </set>
      <set comment="kpoint 222">
       <r>   -2.7154    1.0000 </r>
       <r>   -1.3073    1.0000 </r>
       <r>    1.8935    1.0000 </r>
       <r>    2.3362    1.0000 </r>
       <r>    8.4179    0.0000 </r>
       <r>    8.6922    0.0000 </r>
       <r>   11.1791    0.0000 </r>
       <r>   13.1857    0.0000 </r>
      </set>
      <set comment="kpoint 223">
       <r>   -2.7008    1.0000 </r>
       <r>   -1.3341    1.0000 </r>
       <r>    1.9555    1.0000 </r>
       <r>    2.3365    1.0000 </r>
       <r>    8.2277    0.0000 </r>
       <r>    8.4935    0.0000 </r>
       <r>   11.4645    0.0000 </r>
       <r>   13.3701    0.0000 </r>
      </set>
      <set comment="kpoint 224">
       <r>   -2.6840    1.0000 </r>
       <r>   -1.3651    1.0000 </r>
       <r>    2.0196    1.0000 </r>
       <r>    2.3443    1.0000 </r>
       <r>    8.0426    0.0000 </r>
       <r>    8.2990    0.0000 </r>
       <r>   11.7540    0.0000 </r>
       <r>   13.5550    0.0000 </r>
      </set>
      <set comment="kpoint 225">
       <r>   -2.6650    1.0000 </r>
       <r>   -1.3999    1.0000 </r>
       <r>    2.0853    1.0000 </r>
       <r>    2.3591    1.0000 </r>
       <r>    7.8633    0.0000 </r>
       <r>    8.1095    0.0000 </r>
       <r>   12.0468    0.0000 </r>
       <r>   13.7397    0.0000 </r>
      </set>
      <set comment="kpoint 226">
       <r>   -2.6438    1.0000 </r>
       <r>   -1.4383    1.0000 </r>
       <r>    2.1523    1.0000 </r>
       <r>    2.3804    1.0000 </r>
       <r>    7.6901    0.0000 </r>
       <r>    7.9257    0.0000 </r>
       <r>   12.3421    0.0000 </r>
       <r>   13.9235    0.0000 </r>
      </set>
      <set comment="kpoint 227">
       <r>   -2.6204    1.0000 </r>
       <r>   -1.4798    1.0000 </r>
       <r>    2.2201    1.0000 </r>
       <r>    2.4074    1.0000 </r>
       <r>    7.5238    0.0000 </r>
       <r>    7.7481    0.0000 </r>
       <r>   12.6391    0.0000 </r>
       <r>   14.1054    0.0000 </r>
      </set>
      <set comment="kpoint 228">
       <r>   -2.5948    1.0000 </r>
       <r>   -1.5240    1.0000 </r>
       <r>    2.2881    1.0000 </r>
       <r>    2.4393    1.0000 </r>
       <r>    7.3648    0.0000 </r>
       <r>    7.5775    0.0000 </r>
       <r>   12.9371    0.0000 </r>
       <r>   14.2836    0.0000 </r>
      </set>
      <set comment="kpoint 229">
       <r>   -2.5671    1.0000 </r>
       <r>   -1.5706    1.0000 </r>
       <r>    2.3556    1.0000 </r>
       <r>    2.4754    1.0000 </r>
       <r>    7.2140    0.0000 </r>
       <r>    7.4143    0.0000 </r>
       <r>   13.2353    0.0000 </r>
       <r>   14.4569    0.0000 </r>
      </set>
      <set comment="kpoint 230">
       <r>   -2.5373    1.0000 </r>
       <r>   -1.6192    1.0000 </r>
       <r>    2.4220    1.0000 </r>
       <r>    2.5147    1.0000 </r>
       <r>    7.0722    0.0000 </r>
       <r>    7.2595    0.0000 </r>
       <r>   13.5324    0.0000 </r>
       <r>   14.6230    0.0000 </r>
      </set>
      <set comment="kpoint 231">
       <r>   -2.5053    1.0000 </r>
       <r>   -1.6692    1.0000 </r>
       <r>    2.4865    1.0000 </r>
       <r>    2.5561    1.0000 </r>
       <r>    6.9401    0.0000 </r>
       <r>    7.1135    0.0000 </r>
       <r>   13.8271    0.0000 </r>
       <r>   14.7796    0.0000 </r>
      </set>
      <set comment="kpoint 232">
       <r>   -2.4713    1.0000 </r>
       <r>   -1.7204    1.0000 </r>
       <r>    2.5481    1.0000 </r>
       <r>    2.5985    1.0000 </r>
       <r>    6.8188    0.0000 </r>
       <r>    6.9774    0.0000 </r>
       <r>   14.1172    0.0000 </r>
       <r>   14.9248    0.0000 </r>
      </set>
      <set comment="kpoint 233">
       <r>   -2.4353    1.0000 </r>
       <r>   -1.7724    1.0000 </r>
       <r>    2.6058    1.0000 </r>
       <r>    2.6406    1.0000 </r>
       <r>    6.7094    0.0000 </r>
       <r>    6.8521    0.0000 </r>
       <r>   14.3999    0.0000 </r>
       <r>   15.0551    0.0000 </r>
      </set>
      <set comment="kpoint 234">
       <r>   -2.3973    1.0000 </r>
       <r>   -1.8248    1.0000 </r>
       <r>    2.6587    1.0000 </r>
       <r>    2.6813    1.0000 </r>
       <r>    6.6129    0.0000 </r>
       <r>    6.7386    0.0000 </r>
       <r>   14.6711    0.0000 </r>
       <r>   15.1722    0.0000 </r>
      </set>
      <set comment="kpoint 235">
       <r>   -2.3574    1.0000 </r>
       <r>   -1.8773    1.0000 </r>
       <r>    2.7056    1.0000 </r>
       <r>    2.7191    1.0000 </r>
       <r>    6.5306    0.0000 </r>
       <r>    6.6379    0.0000 </r>
       <r>   14.9233    0.0000 </r>
       <r>   15.2723    0.0000 </r>
      </set>
      <set comment="kpoint 236">
       <r>   -2.3156    1.0000 </r>
       <r>   -1.9296    1.0000 </r>
       <r>    2.7456    1.0000 </r>
       <r>    2.7526    1.0000 </r>
       <r>    6.4636    0.0000 </r>
       <r>    6.5514    0.0000 </r>
       <r>   15.1475    0.0000 </r>
       <r>   15.3604    0.0000 </r>
      </set>
      <set comment="kpoint 237">
       <r>   -2.2721    1.0000 </r>
       <r>   -1.9815    1.0000 </r>
       <r>    2.7776    1.0000 </r>
       <r>    2.7806    1.0000 </r>
       <r>    6.4128    0.0000 </r>
       <r>    6.4799    0.0000 </r>
       <r>   15.3296    0.0000 </r>
       <r>   15.4340    0.0000 </r>
      </set>
      <set comment="kpoint 238">
       <r>   -2.2270    1.0000 </r>
       <r>   -2.0327    1.0000 </r>
       <r>    2.8009    1.0000 </r>
       <r>    2.8018    1.0000 </r>
       <r>    6.3792    0.0000 </r>
       <r>    6.4246    0.0000 </r>
       <r>   15.4580    0.0000 </r>
       <r>   15.4919    0.0000 </r>
      </set>
      <set comment="kpoint 239">
       <r>   -2.1804    1.0000 </r>
       <r>   -2.0831    1.0000 </r>
       <r>    2.8150    1.0000 </r>
       <r>    2.8151    1.0000 </r>
       <r>    6.3635    0.0000 </r>
       <r>    6.3864    0.0000 </r>
       <r>   15.5285    0.0000 </r>
       <r>   15.5345    0.0000 </r>
      </set>
      <set comment="kpoint 240">
       <r>   -2.1323    1.0000 </r>
       <r>   -2.1323    1.0000 </r>
       <r>    2.8196    1.0000 </r>
       <r>    2.8196    1.0000 </r>
       <r>    6.3659    0.0000 </r>
       <r>    6.3659    0.0000 </r>
       <r>   15.5482    0.0000 </r>
       <r>   15.5484    0.0000 </r>
      </set>
     </set>
    </set>
   </array>
  </eigenvalues>
  <separator name="orbital magnetization" >
   <v name="MAGDIPOLOUT">      0.00000000      0.00000000      0.00000000</v>
  </separator>
  <dos>
   <i name="efermi">      5.87596879 </i>
   <total>
    <array>
     <dimension dim="1">gridpoints</dimension>
     <dimension dim="2">spin</dimension>
     <field>energy</field>
     <field>total</field>
     <field>integrated</field>
     <set>
      <set comment="spin 1">
       <r>    -7.2872     0.0000     0.0000 </r>
       <r>    -7.2075     0.0000     0.0000 </r>
       <r>    -7.1277     0.0000     0.0000 </r>
       <r>    -7.0480     0.0000     0.0000 </r>
       <r>    -6.9682     0.0000     0.0000 </r>
       <r>    -6.8885     0.0000     0.0000 </r>
       <r>    -6.8087     0.0000     0.0000 </r>
       <r>    -6.7290     0.0000     0.0000 </r>
       <r>    -6.6492     0.0000     0.0000 </r>
       <r>    -6.5695     0.0000     0.0000 </r>
       <r>    -6.4898     0.0000     0.0000 </r>
       <r>    -6.4100     0.0000     0.0000 </r>
       <r>    -6.3303     0.0001     0.0000 </r>
       <r>    -6.2505     0.0641     0.0051 </r>
       <r>    -6.1708     0.9875     0.0839 </r>
       <r>    -6.0910     1.0844     0.1703 </r>
       <r>    -6.0113     0.6571     0.2227 </r>
       <r>    -5.9315     0.5188     0.2641 </r>
       <r>    -5.8518     0.4451     0.2996 </r>
       <r>    -5.7720     0.3966     0.3312 </r>
       <r>    -5.6923     0.3616     0.3601 </r>
       <r>    -5.6125     0.3352     0.3868 </r>
       <r>    -5.5328     0.3150     0.4119 </r>
       <r>    -5.4530     0.2999     0.4358 </r>
       <r>    -5.3733     0.2863     0.4587 </r>
       <r>    -5.2936     0.2684     0.4801 </r>
       <r>    -5.2138     0.2520     0.5002 </r>
       <r>    -5.1341     0.2541     0.5204 </r>
       <r>    -5.0543     0.2559     0.5408 </r>
       <r>    -4.9746     0.2262     0.5589 </r>
       <r>    -4.8948     0.2247     0.5768 </r>
       <r>    -4.8151     0.2498     0.5967 </r>
       <r>    -4.7353     0.2066     0.6132 </r>
       <r>    -4.6556     0.2144     0.6303 </r>
       <r>    -4.5758     0.2356     0.6491 </r>
       <r>    -4.4961     0.1824     0.6636 </r>
       <r>    -4.4163     0.2416     0.6829 </r>
       <r>    -4.3366     0.1997     0.6988 </r>
       <r>    -4.2568     0.2146     0.7159 </r>
       <r>    -4.1771     0.2361     0.7348 </r>
       <r>    -4.0974     0.2009     0.7508 </r>
       <r>    -4.0176     0.2888     0.7738 </r>
       <r>    -3.9379     0.4460     0.8094 </r>
       <r>    -3.8581     0.8816     0.8797 </r>
       <r>    -3.7784     0.4682     0.9170 </r>
       <r>    -3.6986     0.4021     0.9491 </r>
       <r>    -3.6189     0.3140     0.9741 </r>
       <r>    -3.5391     0.3151     0.9993 </r>
       <r>    -3.4594     0.2774     1.0214 </r>
       <r>    -3.3796     0.2763     1.0434 </r>
       <r>    -3.2999     0.2533     1.0636 </r>
       <r>    -3.2201     0.2627     1.0845 </r>
       <r>    -3.1404     0.2308     1.1029 </r>
       <r>    -3.0606     0.2558     1.1233 </r>
       <r>    -2.9809     0.2296     1.1417 </r>
       <r>    -2.9012     0.2257     1.1597 </r>
       <r>    -2.8214     0.2871     1.1826 </r>
       <r>    -2.7417     0.9431     1.2578 </r>
       <r>    -2.6619     1.4778     1.3756 </r>
       <r>    -2.5822     0.9550     1.4518 </r>
       <r>    -2.5024     0.7149     1.5088 </r>
       <r>    -2.4227     0.4018     1.5408 </r>
       <r>    -2.3429     0.3462     1.5684 </r>
       <r>    -2.2632     0.3638     1.5975 </r>
       <r>    -2.1834     0.4363     1.6322 </r>
       <r>    -2.1037     2.6671     1.8449 </r>
       <r>    -2.0239     3.5568     2.1286 </r>
       <r>    -1.9442     2.9377     2.3629 </r>
       <r>    -1.8644     0.6342     2.4134 </r>
       <r>    -1.7847     0.2754     2.4354 </r>
       <r>    -1.7050     0.3435     2.4628 </r>
       <r>    -1.6252     0.2993     2.4867 </r>
       <r>    -1.5455     0.4729     2.5244 </r>
       <r>    -1.4657     0.7312     2.5827 </r>
       <r>    -1.3860     0.7575     2.6431 </r>
       <r>    -1.3062     1.0379     2.7259 </r>
       <r>    -1.2265     2.0020     2.8855 </r>
       <r>    -1.1467     1.6094     3.0139 </r>
       <r>    -1.0670     1.2688     3.1150 </r>
       <r>    -0.9872     0.3282     3.1412 </r>
       <r>    -0.9075     0.1891     3.1563 </r>
       <r>    -0.8277     0.1817     3.1708 </r>
       <r>    -0.7480     0.1312     3.1812 </r>
       <r>    -0.6682     0.1953     3.1968 </r>
       <r>    -0.5885     0.1357     3.2076 </r>
       <r>    -0.5088     0.1354     3.2184 </r>
       <r>    -0.4290     0.1790     3.2327 </r>
       <r>    -0.3493     0.1183     3.2421 </r>
       <r>    -0.2695     0.1417     3.2534 </r>
       <r>    -0.1898     0.1607     3.2663 </r>
       <r>    -0.1100     0.1074     3.2748 </r>
       <r>    -0.0303     0.1460     3.2865 </r>
       <r>     0.0495     0.1591     3.2991 </r>
       <r>     0.1292     0.0582     3.3038 </r>
       <r>     0.2090     0.2244     3.3217 </r>
       <r>     0.2887     0.0514     3.3258 </r>
       <r>     0.3685     0.1594     3.3385 </r>
       <r>     0.4482     0.1360     3.3493 </r>
       <r>     0.5280     0.0853     3.3561 </r>
       <r>     0.6077     0.1607     3.3690 </r>
       <r>     0.6874     0.0904     3.3762 </r>
       <r>     0.7672     0.1511     3.3882 </r>
       <r>     0.8469     0.0959     3.3959 </r>
       <r>     0.9267     0.1261     3.4059 </r>
       <r>     1.0064     0.1277     3.4161 </r>
       <r>     1.0862     0.0886     3.4232 </r>
       <r>     1.1659     0.1577     3.4358 </r>
       <r>     1.2457     0.0965     3.4434 </r>
       <r>     1.3254     0.5183     3.4848 </r>
       <r>     1.4052     1.2907     3.5877 </r>
       <r>     1.4849     0.7625     3.6485 </r>
       <r>     1.5647     0.6834     3.7030 </r>
       <r>     1.6444     0.9987     3.7827 </r>
       <r>     1.7242     0.6974     3.8383 </r>
       <r>     1.8039     0.7572     3.8986 </r>
       <r>     1.8836     1.5933     4.0257 </r>
       <r>     1.9634     1.5711     4.1510 </r>
       <r>     2.0431     1.2216     4.2484 </r>
       <r>     2.1229     1.0314     4.3307 </r>
       <r>     2.2026     0.9392     4.4056 </r>
       <r>     2.2824     0.9894     4.4845 </r>
       <r>     2.3621     1.3470     4.5919 </r>
       <r>     2.4419     1.4906     4.7107 </r>
       <r>     2.5216     1.3551     4.8188 </r>
       <r>     2.6014     1.2171     4.9159 </r>
       <r>     2.6811     1.3752     5.0255 </r>
       <r>     2.7609     1.6311     5.1556 </r>
       <r>     2.8406     2.6591     5.3677 </r>
       <r>     2.9204     1.5242     5.4892 </r>
       <r>     3.0001     0.9282     5.5632 </r>
       <r>     3.0799     0.7660     5.6243 </r>
       <r>     3.1596     0.7706     5.6858 </r>
       <r>     3.2393     0.9645     5.7627 </r>
       <r>     3.3191     0.8714     5.8322 </r>
       <r>     3.3988     0.6544     5.8844 </r>
       <r>     3.4786     0.6414     5.9355 </r>
       <r>     3.5583     0.6517     5.9875 </r>
       <r>     3.6381     0.5558     6.0318 </r>
       <r>     3.7178     0.6301     6.0821 </r>
       <r>     3.7976     0.6254     6.1319 </r>
       <r>     3.8773     0.5454     6.1754 </r>
       <r>     3.9571     0.6015     6.2234 </r>
       <r>     4.0368     0.6944     6.2788 </r>
       <r>     4.1166     0.5024     6.3188 </r>
       <r>     4.1963     0.6624     6.3717 </r>
       <r>     4.2761     0.7517     6.4316 </r>
       <r>     4.3558     0.6701     6.4850 </r>
       <r>     4.4355     1.6270     6.6148 </r>
       <r>     4.5153     1.9063     6.7668 </r>
       <r>     4.5950     1.1257     6.8566 </r>
       <r>     4.6748     0.9930     6.9358 </r>
       <r>     4.7545     0.8817     7.0061 </r>
       <r>     4.8343     0.8101     7.0707 </r>
       <r>     4.9140     0.8511     7.1386 </r>
       <r>     4.9938     0.7581     7.1990 </r>
       <r>     5.0735     0.8282     7.2651 </r>
       <r>     5.1533     0.8071     7.3294 </r>
       <r>     5.2330     0.8281     7.3955 </r>
       <r>     5.3128     0.8868     7.4662 </r>
       <r>     5.3925     0.9723     7.5437 </r>
       <r>     5.4723     1.1218     7.6332 </r>
       <r>     5.5520     1.5797     7.7592 </r>
       <r>     5.6317     2.4333     7.9532 </r>
       <r>     5.7115     0.5827     7.9997 </r>
       <r>     5.7912     0.0040     8.0000 </r>
       <r>     5.8710     0.0000     8.0000 </r>
       <r>     5.9507     0.0000     8.0000 </r>
       <r>     6.0305     0.0000     8.0000 </r>
       <r>     6.1102     0.0002     8.0000 </r>
       <r>     6.1900     0.0736     8.0059 </r>
       <r>     6.2697     0.6278     8.0560 </r>
       <r>     6.3495     0.9081     8.1284 </r>
       <r>     6.4292     1.6505     8.2600 </r>
       <r>     6.5090     1.0692     8.3452 </r>
       <r>     6.5887     0.8038     8.4094 </r>
       <r>     6.6685     0.6935     8.4647 </r>
       <r>     6.7482     0.6275     8.5147 </r>
       <r>     6.8279     0.6312     8.5650 </r>
       <r>     6.9077     0.7936     8.6283 </r>
       <r>     6.9874     0.7447     8.6877 </r>
       <r>     7.0672     0.8811     8.7580 </r>
       <r>     7.1469     1.4519     8.8738 </r>
       <r>     7.2267     1.1037     8.9618 </r>
       <r>     7.3064     0.9554     9.0380 </r>
       <r>     7.3862     0.8995     9.1097 </r>
       <r>     7.4659     0.8378     9.1765 </r>
       <r>     7.5457     0.8028     9.2405 </r>
       <r>     7.6254     0.7657     9.3016 </r>
       <r>     7.7052     0.8049     9.3658 </r>
       <r>     7.7849     0.7571     9.4262 </r>
       <r>     7.8647     0.7634     9.4870 </r>
       <r>     7.9444     0.7738     9.5487 </r>
       <r>     8.0241     0.7998     9.6125 </r>
       <r>     8.1039     0.9281     9.6865 </r>
       <r>     8.1836     2.3574     9.8745 </r>
       <r>     8.2634     2.8619    10.1028 </r>
       <r>     8.3431     1.6850    10.2371 </r>
       <r>     8.4229     1.4757    10.3548 </r>
       <r>     8.5026     1.5904    10.4816 </r>
       <r>     8.5824     1.5785    10.6075 </r>
       <r>     8.6621     1.4579    10.7238 </r>
       <r>     8.7419     1.7129    10.8604 </r>
       <r>     8.8216     2.3024    11.0440 </r>
       <r>     8.9014     1.9373    11.1985 </r>
       <r>     8.9811     2.7945    11.4213 </r>
       <r>     9.0609     3.1110    11.6694 </r>
       <r>     9.1406     2.7807    11.8912 </r>
       <r>     9.2203     1.7346    12.0295 </r>
       <r>     9.3001     0.8921    12.1007 </r>
       <r>     9.3798     1.0462    12.1841 </r>
       <r>     9.4596     0.9143    12.2570 </r>
       <r>     9.5393     0.9676    12.3342 </r>
       <r>     9.6191     0.8837    12.4046 </r>
       <r>     9.6988     0.8510    12.4725 </r>
       <r>     9.7786     1.0935    12.5597 </r>
       <r>     9.8583     1.0457    12.6431 </r>
       <r>     9.9381     1.3675    12.7522 </r>
       <r>    10.0178     0.5315    12.7945 </r>
       <r>    10.0976     0.5846    12.8412 </r>
       <r>    10.1773     0.6401    12.8922 </r>
       <r>    10.2571     0.4257    12.9262 </r>
       <r>    10.3368     0.4657    12.9633 </r>
       <r>    10.4165     0.5767    13.0093 </r>
       <r>    10.4963     0.6121    13.0581 </r>
       <r>    10.5760     1.2099    13.1546 </r>
       <r>    10.6558     0.9107    13.2272 </r>
       <r>    10.7355     0.8666    13.2963 </r>
       <r>    10.8153     0.7458    13.3558 </r>
       <r>    10.8950     0.6674    13.4090 </r>
       <r>    10.9748     0.7346    13.4676 </r>
       <r>    11.0545     0.6051    13.5158 </r>
       <r>    11.1343     0.6911    13.5709 </r>
       <r>    11.2140     0.9903    13.6499 </r>
       <r>    11.2938     0.9022    13.7219 </r>
       <r>    11.3735     0.7550    13.7821 </r>
       <r>    11.4533     0.8686    13.8513 </r>
       <r>    11.5330     0.7616    13.9121 </r>
       <r>    11.6127     0.7294    13.9703 </r>
       <r>    11.6925     0.8667    14.0394 </r>
       <r>    11.7722     0.5606    14.0841 </r>
       <r>    11.8520     0.9250    14.1578 </r>
       <r>    11.9317     0.5362    14.2006 </r>
       <r>    12.0115     0.5216    14.2422 </r>
       <r>    12.0912     0.7857    14.3048 </r>
       <r>    12.1710     0.6138    14.3538 </r>
       <r>    12.2507     0.3248    14.3797 </r>
       <r>    12.3305     0.9157    14.4527 </r>
       <r>    12.4102     0.4350    14.4874 </r>
       <r>    12.4900     0.5968    14.5350 </r>
       <r>    12.5697     0.6281    14.5851 </r>
       <r>    12.6495     0.5594    14.6297 </r>
       <r>    12.7292     0.3943    14.6611 </r>
       <r>    12.8089     0.5762    14.7071 </r>
       <r>    12.8887     0.4790    14.7453 </r>
       <r>    12.9684     0.4520    14.7813 </r>
       <r>    13.0482     0.6053    14.8296 </r>
       <r>    13.1279     0.4600    14.8663 </r>
       <r>    13.2077     0.2794    14.8886 </r>
       <r>    13.2874     0.6880    14.9434 </r>
       <r>    13.3672     1.2295    15.0415 </r>
       <r>    13.4469     1.0907    15.1285 </r>
       <r>    13.5267     1.0104    15.2090 </r>
       <r>    13.6064     0.7003    15.2649 </r>
       <r>    13.6862     0.5585    15.3094 </r>
       <r>    13.7659     0.4409    15.3446 </r>
       <r>    13.8457     0.2437    15.3640 </r>
       <r>    13.9254     0.1963    15.3797 </r>
       <r>    14.0051     0.3275    15.4058 </r>
       <r>    14.0849     0.1605    15.4186 </r>
       <r>    14.1646     0.3001    15.4425 </r>
       <r>    14.2444     0.2708    15.4641 </r>
       <r>    14.3241     0.2266    15.4822 </r>
       <r>    14.4039     0.2044    15.4985 </r>
       <r>    14.4836     0.3895    15.5296 </r>
       <r>    14.5634     0.1663    15.5428 </r>
       <r>    14.6431     0.2315    15.5613 </r>
       <r>    14.7229     0.3996    15.5931 </r>
       <r>    14.8026     0.1868    15.6080 </r>
       <r>    14.8824     0.2597    15.6288 </r>
       <r>    14.9621     0.3998    15.6606 </r>
       <r>    15.0419     0.2229    15.6784 </r>
       <r>    15.1216     0.3381    15.7054 </r>
       <r>    15.2013     0.4099    15.7381 </r>
       <r>    15.2811     0.2932    15.7614 </r>
       <r>    15.3608     0.5275    15.8035 </r>
       <r>    15.4406     0.4936    15.8429 </r>
       <r>    15.5203     0.9709    15.9203 </r>
       <r>    15.6001     0.9341    15.9948 </r>
       <r>    15.6798     0.0652    16.0000 </r>
       <r>    15.7596     0.0001    16.0000 </r>
       <r>    15.8393     0.0000    16.0000 </r>
       <r>    15.9191     0.0000    16.0000 </r>
       <r>    15.9988     0.0000    16.0000 </r>
       <r>    16.0786     0.0000    16.0000 </r>
       <r>    16.1583     0.0000    16.0000 </r>
       <r>    16.2381     0.0000    16.0000 </r>
       <r>    16.3178     0.0000    16.0000 </r>
       <r>    16.3975     0.0000    16.0000 </r>
       <r>    16.4773     0.0000    16.0000 </r>
       <r>    16.5570     0.0000    16.0000 </r>
       <r>    16.6368     0.0000    16.0000 </r>
      </set>
     </set>
    </array>
   </total>
   <partial>
    <array>
     <dimension dim="1">gridpoints</dimension>
     <dimension dim="2">spin</dimension>
     <dimension dim="3">ion</dimension>
     <field>energy</field>
     <field>    s</field>
     <field>   py</field>
     <field>   pz</field>
     <field>   px</field>
     <field>  dxy</field>
     <field>  dyz</field>
     <field>  dz2</field>
     <field>  dxz</field>
     <field>x2-y2</field>
     <set>
      <set comment="ion 1">
       <set comment="spin 1">
        <r>    -7.2872     0.0000     0.0000     0.0000     0.0000     0.0000     0.0000     0.0000     0.0000     0.0000 </r>
        <r>    -7.2075     0.0000     0.0000     0.0000     0.0000     0.0000     0.0000     0.0000     0.0000     0.0000 </r>
        <r>    -7.1277     0.0000     0.0000     0.0000     0.0000     0.0000     0.0000     0.0000     0.0000     0.0000 </r>
        <r>    -7.0480     0.0000     0.0000     0.0000     0.0000     0.0000     0.0000     0.0000     0.0000     0.0000 </r>
        <r>    -6.9682     0.0000     0.0000     0.0000     0.0000     0.0000     0.0000     0.0000     0.0000     0.0000 </r>
        <r>    -6.8885     0.0000     0.0000     0.0000     0.0000     0.0000     0.0000     0.0000     0.0000     0.0000 </r>
        <r>    -6.8087     0.0000     0.0000     0.0000     0.0000     0.0000     0.0000     0.0000     0.0000     0.0000 </r>
        <r>    -6.7290     0.0000     0.0000     0.0000     0.0000     0.0000     0.0000     0.0000     0.0000     0.0000 </r>
        <r>    -6.6492     0.0000     0.0000     0.0000     0.0000     0.0000     0.0000     0.0000     0.0000     0.0000 </r>
        <r>    -6.5695     0.0000     0.0000     0.0000     0.0000     0.0000     0.0000     0.0000     0.0000     0.0000 </r>
        <r>    -6.4898     0.0000     0.0000     0.0000     0.0000     0.0000     0.0000     0.0000     0.0000     0.0000 </r>
        <r>    -6.4100     0.0000     0.0000     0.0000     0.0000     0.0000     0.0000     0.0000     0.0000     0.0000 </r>
        <r>    -6.3303     0.0000     0.0000     0.0000     0.0000     0.0000     0.0000     0.0000     0.0000     0.0000 </r>
        <r>    -6.2505     0.0136     0.0000     0.0000     0.0000     0.0000     0.0000     0.0000     0.0000     0.0000 </r>
        <r>    -6.1708     0.2092     0.0001     0.0000     0.0000     0.0000     0.0000     0.0000     0.0000     0.0000 </r>
        <r>    -6.0910     0.2296     0.0004     0.0001     0.0002     0.0000     0.0000     0.0000     0.0000     0.0000 </r>
        <r>    -6.0113     0.1388     0.0006     0.0001     0.0003     0.0000     0.0000     0.0000     0.0000     0.0000 </r>
        <r>    -5.9315     0.1094     0.0007     0.0002     0.0003     0.0000     0.0000     0.0000     0.0000     0.0000 </r>
        <r>    -5.8518     0.0937     0.0009     0.0002     0.0004     0.0000     0.0000     0.0000     0.0000     0.0000 </r>
        <r>    -5.7720     0.0834     0.0010     0.0002     0.0004     0.0000     0.0000     0.0000     0.0000     0.0000 </r>
        <r>    -5.6923     0.0759     0.0011     0.0002     0.0005     0.0000     0.0000     0.0000     0.0000     0.0000 </r>
        <r>    -5.6125     0.0702     0.0012     0.0002     0.0005     0.0000     0.0000     0.0000     0.0000     0.0000 </r>
        <r>    -5.5328     0.0659     0.0012     0.0003     0.0006     0.0000     0.0000     0.0000     0.0000     0.0000 </r>
        <r>    -5.4530     0.0627     0.0013     0.0003     0.0006     0.0000     0.0000     0.0000     0.0000     0.0000 </r>
        <r>    -5.3733     0.0598     0.0014     0.0003     0.0006     0.0000     0.0000     0.0000     0.0000     0.0000 </r>
        <r>    -5.2936     0.0560     0.0014     0.0003     0.0006     0.0000     0.0000     0.0000     0.0000     0.0000 </r>
        <r>    -5.2138     0.0525     0.0014     0.0003     0.0006     0.0000     0.0000     0.0000     0.0000     0.0000 </r>
        <r>    -5.1341     0.0529     0.0016     0.0003     0.0007     0.0000     0.0000     0.0000     0.0000     0.0000 </r>
        <r>    -5.0543     0.0532     0.0017     0.0004     0.0008     0.0000     0.0000     0.0000     0.0000     0.0000 </r>
        <r>    -4.9746     0.0471     0.0016     0.0004     0.0007     0.0000     0.0000     0.0000     0.0000     0.0000 </r>
        <r>    -4.8948     0.0467     0.0017     0.0004     0.0007     0.0000     0.0000     0.0000     0.0000     0.0000 </r>
        <r>    -4.8151     0.0519     0.0020     0.0004     0.0009     0.0000     0.0000     0.0000     0.0000     0.0000 </r>
        <r>    -4.7353     0.0430     0.0017     0.0004     0.0008     0.0000     0.0000     0.0000     0.0000     0.0000 </r>
        <r>    -4.6556     0.0446     0.0018     0.0004     0.0008     0.0000     0.0000     0.0000     0.0000     0.0000 </r>
        <r>    -4.5758     0.0490     0.0022     0.0005     0.0009     0.0000     0.0000     0.0000     0.0000     0.0000 </r>
        <r>    -4.4961     0.0381     0.0016     0.0005     0.0008     0.0000     0.0000     0.0000     0.0000     0.0000 </r>
        <r>    -4.4163     0.0504     0.0024     0.0005     0.0010     0.0000     0.0000     0.0000     0.0000     0.0000 </r>
        <r>    -4.3366     0.0418     0.0019     0.0005     0.0009     0.0000     0.0000     0.0000     0.0000     0.0000 </r>
        <r>    -4.2568     0.0450     0.0021     0.0006     0.0009     0.0000     0.0000     0.0000     0.0000     0.0000 </r>
        <r>    -4.1771     0.0496     0.0024     0.0006     0.0011     0.0000     0.0000     0.0000     0.0000     0.0000 </r>
        <r>    -4.0974     0.0427     0.0019     0.0006     0.0009     0.0000     0.0000     0.0000     0.0000     0.0000 </r>
        <r>    -4.0176     0.0613     0.0030     0.0009     0.0013     0.0000     0.0000     0.0000     0.0000     0.0000 </r>
        <r>    -3.9379     0.0980     0.0029     0.0018     0.0020     0.0000     0.0000     0.0000     0.0000     0.0000 </r>
        <r>    -3.8581     0.1942     0.0059     0.0036     0.0038     0.0000     0.0000     0.0000     0.0000     0.0000 </r>
        <r>    -3.7784     0.1029     0.0032     0.0022     0.0021     0.0000     0.0000     0.0000     0.0000     0.0000 </r>
        <r>    -3.6986     0.0869     0.0041     0.0018     0.0016     0.0000     0.0000     0.0000     0.0000     0.0000 </r>
        <r>    -3.6189     0.0681     0.0028     0.0018     0.0014     0.0000     0.0000     0.0000     0.0000     0.0000 </r>
        <r>    -3.5391     0.0674     0.0040     0.0017     0.0011     0.0000     0.0000     0.0000     0.0000     0.0000 </r>
        <r>    -3.4594     0.0597     0.0028     0.0019     0.0013     0.0000     0.0000     0.0000     0.0000     0.0000 </r>
        <r>    -3.3796     0.0587     0.0040     0.0017     0.0009     0.0000     0.0000     0.0000     0.0000     0.0000 </r>
        <r>    -3.2999     0.0542     0.0029     0.0020     0.0011     0.0000     0.0000     0.0000     0.0000     0.0000 </r>
        <r>    -3.2201     0.0555     0.0040     0.0019     0.0008     0.0000     0.0000     0.0000     0.0000     0.0000 </r>
        <r>    -3.1404     0.0490     0.0031     0.0020     0.0008     0.0000     0.0000     0.0000     0.0000     0.0000 </r>
        <r>    -3.0606     0.0540     0.0038     0.0023     0.0009     0.0000     0.0000     0.0000     0.0000     0.0000 </r>
        <r>    -2.9809     0.0484     0.0036     0.0021     0.0007     0.0000     0.0000     0.0000     0.0000     0.0000 </r>
        <r>    -2.9012     0.0477     0.0032     0.0024     0.0008     0.0000     0.0000     0.0000     0.0000     0.0000 </r>
        <r>    -2.8214     0.0600     0.0050     0.0029     0.0008     0.0000     0.0000     0.0000     0.0000     0.0000 </r>
        <r>    -2.7417     0.1976     0.0174     0.0102     0.0019     0.0000     0.0000     0.0000     0.0000     0.0000 </r>
        <r>    -2.6619     0.3078     0.0288     0.0157     0.0028     0.0000     0.0000     0.0000     0.0000     0.0000 </r>
        <r>    -2.5822     0.1986     0.0173     0.0120     0.0022     0.0000     0.0000     0.0000     0.0000     0.0000 </r>
        <r>    -2.5024     0.1468     0.0155     0.0081     0.0014     0.0000     0.0000     0.0000     0.0000     0.0000 </r>
        <r>    -2.4227     0.0807     0.0123     0.0026     0.0002     0.0000     0.0000     0.0000     0.0000     0.0000 </r>
        <r>    -2.3429     0.0690     0.0115     0.0019     0.0001     0.0000     0.0000     0.0000     0.0000     0.0000 </r>
        <r>    -2.2632     0.0721     0.0127     0.0019     0.0000     0.0000     0.0000     0.0000     0.0000     0.0000 </r>
        <r>    -2.1834     0.0859     0.0163     0.0019     0.0000     0.0000     0.0000     0.0000     0.0000     0.0000 </r>
        <r>    -2.1037     0.5194     0.1116     0.0042     0.0000     0.0000     0.0000     0.0000     0.0000     0.0000 </r>
        <r>    -2.0239     0.7034     0.1334     0.0183     0.0001     0.0000     0.0000     0.0000     0.0000     0.0000 </r>
        <r>    -1.9442     0.5929     0.0860     0.0363     0.0000     0.0000     0.0000     0.0000     0.0000     0.0000 </r>
        <r>    -1.8644     0.1267     0.0199     0.0073     0.0000     0.0000     0.0000     0.0000     0.0000     0.0000 </r>
        <r>    -1.7847     0.0541     0.0101     0.0025     0.0000     0.0000     0.0000     0.0000     0.0000     0.0000 </r>
        <r>    -1.7050     0.0670     0.0134     0.0027     0.0000     0.0000     0.0000     0.0000     0.0000     0.0000 </r>
        <r>    -1.6252     0.0584     0.0110     0.0032     0.0001     0.0000     0.0000     0.0000     0.0000     0.0000 </r>
        <r>    -1.5455     0.0904     0.0132     0.0096     0.0009     0.0000     0.0000     0.0000     0.0000     0.0000 </r>
        <r>    -1.4657     0.1378     0.0167     0.0192     0.0021     0.0000     0.0000     0.0000     0.0000     0.0000 </r>
        <r>    -1.3860     0.1423     0.0162     0.0216     0.0024     0.0000     0.0000     0.0000     0.0000     0.0000 </r>
        <r>    -1.3062     0.1911     0.0260     0.0273     0.0043     0.0000     0.0000     0.0000     0.0000     0.0000 </r>
        <r>    -1.2265     0.3093     0.0540     0.0566     0.0272     0.0000     0.0000     0.0000     0.0000     0.0000 </r>
        <r>    -1.1467     0.2150     0.0460     0.0471     0.0327     0.0000     0.0000     0.0000     0.0000     0.0000 </r>
        <r>    -1.0670     0.1746     0.0377     0.0358     0.0244     0.0000     0.0000     0.0000     0.0000     0.0000 </r>
        <r>    -0.9872     0.0457     0.0084     0.0104     0.0064     0.0000     0.0000     0.0000     0.0000     0.0000 </r>
        <r>    -0.9075     0.0279     0.0062     0.0047     0.0031     0.0000     0.0000     0.0000     0.0000     0.0000 </r>
        <r>    -0.8277     0.0278     0.0056     0.0048     0.0028     0.0000     0.0000     0.0000     0.0000     0.0000 </r>
        <r>    -0.7480     0.0189     0.0031     0.0044     0.0026     0.0000     0.0000     0.0000     0.0000     0.0000 </r>
        <r>    -0.6682     0.0297     0.0074     0.0042     0.0029     0.0000     0.0000     0.0000     0.0000     0.0000 </r>
        <r>    -0.5885     0.0210     0.0036     0.0042     0.0022     0.0000     0.0000     0.0000     0.0000     0.0000 </r>
        <r>    -0.5088     0.0184     0.0043     0.0039     0.0030     0.0000     0.0000     0.0000     0.0000     0.0000 </r>
        <r>    -0.4290     0.0295     0.0067     0.0039     0.0021     0.0000     0.0000     0.0000     0.0000     0.0000 </r>
        <r>    -0.3493     0.0153     0.0035     0.0037     0.0030     0.0000     0.0000     0.0000     0.0000     0.0000 </r>
        <r>    -0.2695     0.0227     0.0049     0.0037     0.0020     0.0000     0.0000     0.0000     0.0000     0.0000 </r>
        <r>    -0.1898     0.0233     0.0067     0.0035     0.0029     0.0000     0.0000     0.0000     0.0000     0.0000 </r>
        <r>    -0.1100     0.0159     0.0026     0.0038     0.0023     0.0000     0.0000     0.0000     0.0000     0.0000 </r>
        <r>    -0.0303     0.0217     0.0067     0.0028     0.0023     0.0000     0.0000     0.0000     0.0000     0.0000 </r>
        <r>     0.0495     0.0236     0.0055     0.0045     0.0030     0.0000     0.0000     0.0000     0.0000     0.0000 </r>
        <r>     0.1292     0.0079     0.0020     0.0017     0.0014     0.0000     0.0000     0.0000     0.0000     0.0000 </r>
        <r>     0.2090     0.0332     0.0094     0.0053     0.0040     0.0000     0.0000     0.0000     0.0000     0.0000 </r>
        <r>     0.2887     0.0079     0.0022     0.0012     0.0008     0.0000     0.0000     0.0000     0.0000     0.0000 </r>
        <r>     0.3685     0.0215     0.0055     0.0050     0.0040     0.0000     0.0000     0.0000     0.0000     0.0000 </r>
        <r>     0.4482     0.0214     0.0072     0.0022     0.0017     0.0000     0.0000     0.0000     0.0000     0.0000 </r>
        <r>     0.5280     0.0115     0.0029     0.0027     0.0022     0.0000     0.0000     0.0000     0.0000     0.0000 </r>
        <r>     0.6077     0.0220     0.0064     0.0045     0.0038     0.0000     0.0000     0.0000     0.0000     0.0000 </r>
        <r>     0.6874     0.0148     0.0058     0.0009     0.0007     0.0000     0.0000     0.0000     0.0000     0.0000 </r>
        <r>     0.7672     0.0193     0.0049     0.0053     0.0045     0.0000     0.0000     0.0000     0.0000     0.0000 </r>
        <r>     0.8469     0.0141     0.0055     0.0016     0.0015     0.0000     0.0000     0.0000     0.0000     0.0000 </r>
        <r>     0.9267     0.0188     0.0064     0.0027     0.0023     0.0000     0.0000     0.0000     0.0000     0.0000 </r>
        <r>     1.0064     0.0153     0.0044     0.0044     0.0041     0.0000     0.0000     0.0000     0.0000     0.0000 </r>
        <r>     1.0862     0.0140     0.0061     0.0009     0.0008     0.0000     0.0000     0.0000     0.0000     0.0000 </r>
        <r>     1.1659     0.0215     0.0070     0.0043     0.0040     0.0000     0.0000     0.0000     0.0000     0.0000 </r>
        <r>     1.2457     0.0091     0.0040     0.0036     0.0034     0.0000     0.0000     0.0000     0.0000     0.0000 </r>
        <r>     1.3254     0.0194     0.0269     0.0233     0.0212     0.0000     0.0000     0.0000     0.0000     0.0000 </r>
        <r>     1.4052     0.0205     0.0614     0.0635     0.0646     0.0000     0.0000     0.0000     0.0000     0.0000 </r>
        <r>     1.4849     0.0084     0.0345     0.0402     0.0391     0.0000     0.0000     0.0000     0.0000     0.0000 </r>
        <r>     1.5647     0.0254     0.0313     0.0335     0.0311     0.0000     0.0000     0.0000     0.0000     0.0000 </r>
        <r>     1.6444     0.0198     0.0438     0.0517     0.0523     0.0000     0.0000     0.0000     0.0000     0.0000 </r>
        <r>     1.7242     0.0119     0.0304     0.0376     0.0366     0.0000     0.0000     0.0000     0.0000     0.0000 </r>
        <r>     1.8039     0.0280     0.0346     0.0369     0.0370     0.0000     0.0000     0.0000     0.0000     0.0000 </r>
        <r>     1.8836     0.0154     0.0651     0.0828     0.1003     0.0000     0.0000     0.0000     0.0000     0.0000 </r>
        <r>     1.9634     0.0140     0.0596     0.0871     0.1005     0.0000     0.0000     0.0000     0.0000     0.0000 </r>
        <r>     2.0431     0.0271     0.0443     0.0691     0.0740     0.0000     0.0000     0.0000     0.0000     0.0000 </r>
        <r>     2.1229     0.0142     0.0320     0.0655     0.0660     0.0000     0.0000     0.0000     0.0000     0.0000 </r>
        <r>     2.2026     0.0167     0.0298     0.0597     0.0597     0.0000     0.0000     0.0000     0.0000     0.0000 </r>
        <r>     2.2824     0.0249     0.0313     0.0621     0.0623     0.0000     0.0000     0.0000     0.0000     0.0000 </r>
        <r>     2.3621     0.0128     0.0377     0.0882     0.0975     0.0000     0.0000     0.0000     0.0000     0.0000 </r>
        <r>     2.4419     0.0189     0.0449     0.0946     0.1084     0.0000     0.0000     0.0000     0.0000     0.0000 </r>
        <r>     2.5216     0.0227     0.0381     0.0902     0.0979     0.0000     0.0000     0.0000     0.0000     0.0000 </r>
        <r>     2.6014     0.0119     0.0280     0.0877     0.0955     0.0000     0.0000     0.0000     0.0000     0.0000 </r>
        <r>     2.6811     0.0204     0.0342     0.1003     0.1047     0.0000     0.0000     0.0000     0.0000     0.0000 </r>
        <r>     2.7609     0.0186     0.0278     0.1290     0.1377     0.0000     0.0000     0.0000     0.0000     0.0000 </r>
        <r>     2.8406     0.0121     0.0253     0.2361     0.2398     0.0000     0.0000     0.0000     0.0000     0.0000 </r>
        <r>     2.9204     0.0176     0.0281     0.1225     0.1308     0.0000     0.0000     0.0000     0.0000     0.0000 </r>
        <r>     3.0001     0.0166     0.0271     0.0654     0.0725     0.0000     0.0000     0.0000     0.0000     0.0000 </r>
        <r>     3.0799     0.0118     0.0263     0.0511     0.0603     0.0000     0.0000     0.0000     0.0000     0.0000 </r>
        <r>     3.1596     0.0159     0.0337     0.0456     0.0576     0.0000     0.0000     0.0000     0.0000     0.0000 </r>
        <r>     3.2393     0.0155     0.0527     0.0444     0.0789     0.0000     0.0000     0.0000     0.0000     0.0000 </r>
        <r>     3.3191     0.0121     0.0485     0.0407     0.0716     0.0000     0.0000     0.0000     0.0000     0.0000 </r>
        <r>     3.3988     0.0139     0.0325     0.0374     0.0480     0.0000     0.0000     0.0000     0.0000     0.0000 </r>
        <r>     3.4786     0.0132     0.0278     0.0378     0.0504     0.0000     0.0000     0.0000     0.0000     0.0000 </r>
        <r>     3.5583     0.0147     0.0312     0.0386     0.0473     0.0000     0.0000     0.0000     0.0000     0.0000 </r>
        <r>     3.6381     0.0100     0.0282     0.0321     0.0424     0.0000     0.0000     0.0000     0.0000     0.0000 </r>
        <r>     3.7178     0.0122     0.0277     0.0385     0.0489     0.0000     0.0000     0.0000     0.0000     0.0000 </r>
        <r>     3.7976     0.0167     0.0347     0.0337     0.0447     0.0000     0.0000     0.0000     0.0000     0.0000 </r>
        <r>     3.8773     0.0062     0.0255     0.0352     0.0428     0.0000     0.0000     0.0000     0.0000     0.0000 </r>
        <r>     3.9571     0.0118     0.0295     0.0343     0.0485     0.0000     0.0000     0.0000     0.0000     0.0000 </r>
        <r>     4.0368     0.0170     0.0387     0.0402     0.0489     0.0000     0.0000     0.0000     0.0000     0.0000 </r>
        <r>     4.1166     0.0033     0.0239     0.0315     0.0437     0.0000     0.0000     0.0000     0.0000     0.0000 </r>
        <r>     4.1963     0.0124     0.0361     0.0379     0.0522     0.0000     0.0000     0.0000     0.0000     0.0000 </r>
        <r>     4.2761     0.0143     0.0421     0.0436     0.0582     0.0000     0.0000     0.0000     0.0000     0.0000 </r>
        <r>     4.3558     0.0020     0.0338     0.0419     0.0620     0.0000     0.0000     0.0000     0.0000     0.0000 </r>
        <r>     4.4355     0.0134     0.1032     0.1019     0.1295     0.0000     0.0000     0.0000     0.0000     0.0000 </r>
        <r>     4.5153     0.0088     0.1267     0.1268     0.1459     0.0000     0.0000     0.0000     0.0000     0.0000 </r>
        <r>     4.5950     0.0031     0.0705     0.0817     0.0824     0.0000     0.0000     0.0000     0.0000     0.0000 </r>
        <r>     4.6748     0.0117     0.0688     0.0611     0.0706     0.0000     0.0000     0.0000     0.0000     0.0000 </r>
        <r>     4.7545     0.0055     0.0534     0.0615     0.0653     0.0000     0.0000     0.0000     0.0000     0.0000 </r>
        <r>     4.8343     0.0064     0.0546     0.0518     0.0590     0.0000     0.0000     0.0000     0.0000     0.0000 </r>
        <r>     4.9140     0.0072     0.0528     0.0581     0.0617     0.0000     0.0000     0.0000     0.0000     0.0000 </r>
        <r>     4.9938     0.0059     0.0520     0.0462     0.0568     0.0000     0.0000     0.0000     0.0000     0.0000 </r>
        <r>     5.0735     0.0055     0.0517     0.0583     0.0595     0.0000     0.0000     0.0000     0.0000     0.0000 </r>
        <r>     5.1533     0.0055     0.0542     0.0500     0.0617     0.0000     0.0000     0.0000     0.0000     0.0000 </r>
        <r>     5.2330     0.0050     0.0561     0.0547     0.0601     0.0000     0.0000     0.0000     0.0000     0.0000 </r>
        <r>     5.3128     0.0041     0.0594     0.0588     0.0662     0.0000     0.0000     0.0000     0.0000     0.0000 </r>
        <r>     5.3925     0.0041     0.0666     0.0622     0.0743     0.0000     0.0000     0.0000     0.0000     0.0000 </r>
        <r>     5.4723     0.0031     0.0791     0.0728     0.0843     0.0000     0.0000     0.0000     0.0000     0.0000 </r>
        <r>     5.5520     0.0024     0.1126     0.1014     0.1212     0.0000     0.0000     0.0000     0.0000     0.0000 </r>
        <r>     5.6317     0.0010     0.1768     0.1560     0.1866     0.0000     0.0000     0.0000     0.0000     0.0000 </r>
        <r>     5.7115     0.0001     0.0424     0.0378     0.0443     0.0000     0.0000     0.0000     0.0000     0.0000 </r>
        <r>     5.7912     0.0000     0.0003     0.0003     0.0003     0.0000     0.0000     0.0000     0.0000     0.0000 </r>
        <r>     5.8710     0.0000     0.0000     0.0000     0.0000     0.0000     0.0000     0.0000     0.0000     0.0000 </r>
        <r>     5.9507     0.0000     0.0000     0.0000     0.0000     0.0000     0.0000     0.0000     0.0000     0.0000 </r>
        <r>     6.0305     0.0000     0.0000     0.0000     0.0000     0.0000     0.0000     0.0000     0.0000     0.0000 </r>
        <r>     6.1102     0.0000     0.0000     0.0000     0.0000     0.0000     0.0000     0.0000     0.0000     0.0000 </r>
        <r>     6.1900     0.0039     0.0033     0.0000     0.0000     0.0000     0.0000     0.0000     0.0000     0.0000 </r>
        <r>     6.2697     0.0327     0.0282     0.0000     0.0000     0.0000     0.0000     0.0000     0.0000     0.0000 </r>
        <r>     6.3495     0.0466     0.0383     0.0001     0.0001     0.0000     0.0000     0.0000     0.0000     0.0000 </r>
        <r>     6.4292     0.0837     0.0637     0.0007     0.0009     0.0000     0.0000     0.0000     0.0000     0.0000 </r>
        <r>     6.5090     0.0532     0.0419     0.0014     0.0020     0.0000     0.0000     0.0000     0.0000     0.0000 </r>
        <r>     6.5887     0.0391     0.0320     0.0019     0.0026     0.0000     0.0000     0.0000     0.0000     0.0000 </r>
        <r>     6.6685     0.0331     0.0278     0.0022     0.0031     0.0000     0.0000     0.0000     0.0000     0.0000 </r>
        <r>     6.7482     0.0293     0.0253     0.0025     0.0036     0.0000     0.0000     0.0000     0.0000     0.0000 </r>
        <r>     6.8279     0.0293     0.0232     0.0053     0.0039     0.0000     0.0000     0.0000     0.0000     0.0000 </r>
        <r>     6.9077     0.0375     0.0222     0.0132     0.0045     0.0000     0.0000     0.0000     0.0000     0.0000 </r>
        <r>     6.9874     0.0348     0.0216     0.0123     0.0053     0.0000     0.0000     0.0000     0.0000     0.0000 </r>
        <r>     7.0672     0.0724     0.0214     0.0125     0.0068     0.0000     0.0000     0.0000     0.0000     0.0000 </r>
        <r>     7.1469     0.1763     0.0268     0.0162     0.0116     0.0000     0.0000     0.0000     0.0000     0.0000 </r>
        <r>     7.2267     0.1178     0.0237     0.0149     0.0098     0.0000     0.0000     0.0000     0.0000     0.0000 </r>
        <r>     7.3064     0.0901     0.0234     0.0142     0.0095     0.0000     0.0000     0.0000     0.0000     0.0000 </r>
        <r>     7.3862     0.0787     0.0242     0.0141     0.0095     0.0000     0.0000     0.0000     0.0000     0.0000 </r>
        <r>     7.4659     0.0698     0.0235     0.0143     0.0099     0.0000     0.0000     0.0000     0.0000     0.0000 </r>
        <r>     7.5457     0.0639     0.0242     0.0140     0.0097     0.0000     0.0000     0.0000     0.0000     0.0000 </r>
        <r>     7.6254     0.0599     0.0240     0.0141     0.0099     0.0000     0.0000     0.0000     0.0000     0.0000 </r>
        <r>     7.7052     0.0594     0.0257     0.0160     0.0110     0.0000     0.0000     0.0000     0.0000     0.0000 </r>
        <r>     7.7849     0.0546     0.0264     0.0150     0.0108     0.0000     0.0000     0.0000     0.0000     0.0000 </r>
        <r>     7.8647     0.0529     0.0272     0.0166     0.0114     0.0000     0.0000     0.0000     0.0000     0.0000 </r>
        <r>     7.9444     0.0514     0.0303     0.0164     0.0122     0.0000     0.0000     0.0000     0.0000     0.0000 </r>
        <r>     8.0241     0.0508     0.0336     0.0179     0.0128     0.0000     0.0000     0.0000     0.0000     0.0000 </r>
        <r>     8.1039     0.0509     0.0441     0.0229     0.0177     0.0000     0.0000     0.0000     0.0000     0.0000 </r>
        <r>     8.1836     0.0512     0.1203     0.0883     0.0936     0.0000     0.0000     0.0000     0.0000     0.0000 </r>
        <r>     8.2634     0.0467     0.1200     0.1265     0.1350     0.0000     0.0000     0.0000     0.0000     0.0000 </r>
        <r>     8.3431     0.0391     0.0573     0.0803     0.0704     0.0000     0.0000     0.0000     0.0000     0.0000 </r>
        <r>     8.4229     0.0474     0.0441     0.0793     0.0565     0.0000     0.0000     0.0000     0.0000     0.0000 </r>
        <r>     8.5026     0.0674     0.0423     0.0831     0.0515     0.0000     0.0000     0.0000     0.0000     0.0000 </r>
        <r>     8.5824     0.0826     0.0349     0.0986     0.0460     0.0000     0.0000     0.0000     0.0000     0.0000 </r>
        <r>     8.6621     0.0684     0.0368     0.0792     0.0459     0.0000     0.0000     0.0000     0.0000     0.0000 </r>
        <r>     8.7419     0.1113     0.0460     0.0514     0.0595     0.0000     0.0000     0.0000     0.0000     0.0000 </r>
        <r>     8.8216     0.2073     0.0564     0.0617     0.0698     0.0000     0.0000     0.0000     0.0000     0.0000 </r>
        <r>     8.9014     0.1182     0.0574     0.0586     0.0609     0.0000     0.0000     0.0000     0.0000     0.0000 </r>
        <r>     8.9811     0.0850     0.0866     0.0941     0.0959     0.0000     0.0000     0.0000     0.0000     0.0000 </r>
        <r>     9.0609     0.0817     0.0972     0.0988     0.1200     0.0000     0.0000     0.0000     0.0000     0.0000 </r>
        <r>     9.1406     0.0531     0.0944     0.0981     0.1194     0.0000     0.0000     0.0000     0.0000     0.0000 </r>
        <r>     9.2203     0.0792     0.0498     0.0555     0.0745     0.0000     0.0000     0.0000     0.0000     0.0000 </r>
        <r>     9.3001     0.0352     0.0212     0.0228     0.0410     0.0000     0.0000     0.0000     0.0000     0.0000 </r>
        <r>     9.3798     0.0737     0.0233     0.0298     0.0496     0.0000     0.0000     0.0000     0.0000     0.0000 </r>
        <r>     9.4596     0.0418     0.0212     0.0198     0.0427     0.0000     0.0000     0.0000     0.0000     0.0000 </r>
        <r>     9.5393     0.0448     0.0199     0.0280     0.0507     0.0000     0.0000     0.0000     0.0000     0.0000 </r>
        <r>     9.6191     0.0588     0.0236     0.0203     0.0407     0.0000     0.0000     0.0000     0.0000     0.0000 </r>
        <r>     9.6988     0.0414     0.0211     0.0219     0.0405     0.0000     0.0000     0.0000     0.0000     0.0000 </r>
        <r>     9.7786     0.0548     0.0299     0.0280     0.0531     0.0000     0.0000     0.0000     0.0000     0.0000 </r>
        <r>     9.8583     0.0626     0.0285     0.0154     0.0515     0.0000     0.0000     0.0000     0.0000     0.0000 </r>
        <r>     9.9381     0.0589     0.0322     0.0278     0.0776     0.0000     0.0000     0.0000     0.0000     0.0000 </r>
        <r>    10.0178     0.0262     0.0122     0.0145     0.0281     0.0000     0.0000     0.0000     0.0000     0.0000 </r>
        <r>    10.0976     0.0232     0.0177     0.0233     0.0248     0.0000     0.0000     0.0000     0.0000     0.0000 </r>
        <r>    10.1773     0.0306     0.0178     0.0275     0.0280     0.0000     0.0000     0.0000     0.0000     0.0000 </r>
        <r>    10.2571     0.0223     0.0135     0.0167     0.0172     0.0000     0.0000     0.0000     0.0000     0.0000 </r>
        <r>    10.3368     0.0140     0.0104     0.0200     0.0259     0.0000     0.0000     0.0000     0.0000     0.0000 </r>
        <r>    10.4165     0.0293     0.0173     0.0243     0.0256     0.0000     0.0000     0.0000     0.0000     0.0000 </r>
        <r>    10.4963     0.0294     0.0204     0.0217     0.0224     0.0000     0.0000     0.0000     0.0000     0.0000 </r>
        <r>    10.5760     0.0506     0.0440     0.0549     0.0373     0.0000     0.0000     0.0000     0.0000     0.0000 </r>
        <r>    10.6558     0.0473     0.0322     0.0336     0.0301     0.0000     0.0000     0.0000     0.0000     0.0000 </r>
        <r>    10.7355     0.0321     0.0257     0.0320     0.0377     0.0000     0.0000     0.0000     0.0000     0.0000 </r>
        <r>    10.8153     0.0289     0.0210     0.0293     0.0352     0.0000     0.0000     0.0000     0.0000     0.0000 </r>
        <r>    10.8950     0.0307     0.0238     0.0250     0.0241     0.0000     0.0000     0.0000     0.0000     0.0000 </r>
        <r>    10.9748     0.0332     0.0255     0.0288     0.0324     0.0000     0.0000     0.0000     0.0000     0.0000 </r>
        <r>    11.0545     0.0234     0.0180     0.0258     0.0260     0.0000     0.0000     0.0000     0.0000     0.0000 </r>
        <r>    11.1343     0.0370     0.0280     0.0203     0.0300     0.0000     0.0000     0.0000     0.0000     0.0000 </r>
        <r>    11.2140     0.0487     0.0347     0.0307     0.0469     0.0000     0.0000     0.0000     0.0000     0.0000 </r>
        <r>    11.2938     0.0360     0.0332     0.0232     0.0398     0.0000     0.0000     0.0000     0.0000     0.0000 </r>
        <r>    11.3735     0.0371     0.0310     0.0245     0.0293     0.0000     0.0000     0.0000     0.0000     0.0000 </r>
        <r>    11.4533     0.0307     0.0316     0.0407     0.0339     0.0000     0.0000     0.0000     0.0000     0.0000 </r>
        <r>    11.5330     0.0274     0.0321     0.0253     0.0302     0.0000     0.0000     0.0000     0.0000     0.0000 </r>
        <r>    11.6127     0.0305     0.0251     0.0287     0.0281     0.0000     0.0000     0.0000     0.0000     0.0000 </r>
        <r>    11.6925     0.0241     0.0314     0.0338     0.0403     0.0000     0.0000     0.0000     0.0000     0.0000 </r>
        <r>    11.7722     0.0186     0.0184     0.0200     0.0215     0.0000     0.0000     0.0000     0.0000     0.0000 </r>
        <r>    11.8520     0.0327     0.0323     0.0342     0.0408     0.0000     0.0000     0.0000     0.0000     0.0000 </r>
        <r>    11.9317     0.0143     0.0201     0.0221     0.0296     0.0000     0.0000     0.0000     0.0000     0.0000 </r>
        <r>    12.0115     0.0194     0.0194     0.0164     0.0242     0.0000     0.0000     0.0000     0.0000     0.0000 </r>
        <r>    12.0912     0.0279     0.0294     0.0312     0.0421     0.0000     0.0000     0.0000     0.0000     0.0000 </r>
        <r>    12.1710     0.0161     0.0214     0.0231     0.0350     0.0000     0.0000     0.0000     0.0000     0.0000 </r>
        <r>    12.2507     0.0144     0.0146     0.0124     0.0137     0.0000     0.0000     0.0000     0.0000     0.0000 </r>
        <r>    12.3305     0.0257     0.0333     0.0336     0.0462     0.0000     0.0000     0.0000     0.0000     0.0000 </r>
        <r>    12.4102     0.0096     0.0143     0.0177     0.0226     0.0000     0.0000     0.0000     0.0000     0.0000 </r>
        <r>    12.4900     0.0233     0.0221     0.0241     0.0288     0.0000     0.0000     0.0000     0.0000     0.0000 </r>
        <r>    12.5697     0.0169     0.0188     0.0347     0.0346     0.0000     0.0000     0.0000     0.0000     0.0000 </r>
        <r>    12.6495     0.0140     0.0139     0.0255     0.0292     0.0000     0.0000     0.0000     0.0000     0.0000 </r>
        <r>    12.7292     0.0134     0.0155     0.0163     0.0205     0.0000     0.0000     0.0000     0.0000     0.0000 </r>
        <r>    12.8089     0.0090     0.0156     0.0228     0.0368     0.0000     0.0000     0.0000     0.0000     0.0000 </r>
        <r>    12.8887     0.0134     0.0150     0.0227     0.0253     0.0000     0.0000     0.0000     0.0000     0.0000 </r>
        <r>    12.9684     0.0099     0.0156     0.0129     0.0279     0.0000     0.0000     0.0000     0.0000     0.0000 </r>
        <r>    13.0482     0.0095     0.0208     0.0247     0.0392     0.0000     0.0000     0.0000     0.0000     0.0000 </r>
        <r>    13.1279     0.0128     0.0114     0.0192     0.0247     0.0000     0.0000     0.0000     0.0000     0.0000 </r>
        <r>    13.2077     0.0066     0.0089     0.0104     0.0150     0.0000     0.0000     0.0000     0.0000     0.0000 </r>
        <r>    13.2874     0.0117     0.0137     0.0316     0.0340     0.0000     0.0000     0.0000     0.0000     0.0000 </r>
        <r>    13.3672     0.0163     0.0272     0.0346     0.0366     0.0000     0.0000     0.0000     0.0000     0.0000 </r>
        <r>    13.4469     0.0108     0.0293     0.0315     0.0336     0.0000     0.0000     0.0000     0.0000     0.0000 </r>
        <r>    13.5267     0.0139     0.0225     0.0485     0.0366     0.0000     0.0000     0.0000     0.0000     0.0000 </r>
        <r>    13.6064     0.0106     0.0200     0.0366     0.0224     0.0000     0.0000     0.0000     0.0000     0.0000 </r>
        <r>    13.6862     0.0032     0.0230     0.0267     0.0183     0.0000     0.0000     0.0000     0.0000     0.0000 </r>
        <r>    13.7659     0.0032     0.0107     0.0256     0.0263     0.0000     0.0000     0.0000     0.0000     0.0000 </r>
        <r>    13.8457     0.0038     0.0054     0.0111     0.0172     0.0000     0.0000     0.0000     0.0000     0.0000 </r>
        <r>    13.9254     0.0030     0.0043     0.0094     0.0140     0.0000     0.0000     0.0000     0.0000     0.0000 </r>
        <r>    14.0051     0.0030     0.0045     0.0203     0.0250     0.0000     0.0000     0.0000     0.0000     0.0000 </r>
        <r>    14.0849     0.0022     0.0032     0.0082     0.0121     0.0000     0.0000     0.0000     0.0000     0.0000 </r>
        <r>    14.1646     0.0044     0.0063     0.0146     0.0225     0.0000     0.0000     0.0000     0.0000     0.0000 </r>
        <r>    14.2444     0.0018     0.0026     0.0186     0.0220     0.0000     0.0000     0.0000     0.0000     0.0000 </r>
        <r>    14.3241     0.0031     0.0046     0.0120     0.0175     0.0000     0.0000     0.0000     0.0000     0.0000 </r>
        <r>    14.4039     0.0024     0.0034     0.0114     0.0167     0.0000     0.0000     0.0000     0.0000     0.0000 </r>
        <r>    14.4836     0.0033     0.0048     0.0257     0.0324     0.0000     0.0000     0.0000     0.0000     0.0000 </r>
        <r>    14.5634     0.0019     0.0028     0.0098     0.0140     0.0000     0.0000     0.0000     0.0000     0.0000 </r>
        <r>    14.6431     0.0024     0.0035     0.0147     0.0201     0.0000     0.0000     0.0000     0.0000     0.0000 </r>
        <r>    14.7229     0.0028     0.0041     0.0280     0.0355     0.0000     0.0000     0.0000     0.0000     0.0000 </r>
        <r>    14.8026     0.0018     0.0026     0.0128     0.0170     0.0000     0.0000     0.0000     0.0000     0.0000 </r>
        <r>    14.8824     0.0021     0.0030     0.0186     0.0243     0.0000     0.0000     0.0000     0.0000     0.0000 </r>
        <r>    14.9621     0.0022     0.0031     0.0315     0.0383     0.0000     0.0000     0.0000     0.0000     0.0000 </r>
        <r>    15.0419     0.0017     0.0024     0.0170     0.0221     0.0000     0.0000     0.0000     0.0000     0.0000 </r>
        <r>    15.1216     0.0017     0.0024     0.0291     0.0346     0.0000     0.0000     0.0000     0.0000     0.0000 </r>
        <r>    15.2013     0.0017     0.0023     0.0363     0.0427     0.0000     0.0000     0.0000     0.0000     0.0000 </r>
        <r>    15.2811     0.0013     0.0017     0.0278     0.0321     0.0000     0.0000     0.0000     0.0000     0.0000 </r>
        <r>    15.3608     0.0013     0.0017     0.0529     0.0584     0.0000     0.0000     0.0000     0.0000     0.0000 </r>
        <r>    15.4406     0.0009     0.0011     0.0529     0.0568     0.0000     0.0000     0.0000     0.0000     0.0000 </r>
        <r>    15.5203     0.0006     0.0008     0.1119     0.1145     0.0000     0.0000     0.0000     0.0000     0.0000 </r>
        <r>    15.6001     0.0002     0.0002     0.1106     0.1120     0.0000     0.0000     0.0000     0.0000     0.0000 </r>
        <r>    15.6798     0.0000     0.0000     0.0078     0.0078     0.0000     0.0000     0.0000     0.0000     0.0000 </r>
        <r>    15.7596     0.0000     0.0000     0.0000     0.0000     0.0000     0.0000     0.0000     0.0000     0.0000 </r>
        <r>    15.8393     0.0000     0.0000     0.0000     0.0000     0.0000     0.0000     0.0000     0.0000     0.0000 </r>
        <r>    15.9191     0.0000     0.0000     0.0000     0.0000     0.0000     0.0000     0.0000     0.0000     0.0000 </r>
        <r>    15.9988     0.0000     0.0000     0.0000     0.0000     0.0000     0.0000     0.0000     0.0000     0.0000 </r>
        <r>    16.0786     0.0000     0.0000     0.0000     0.0000     0.0000     0.0000     0.0000     0.0000     0.0000 </r>
        <r>    16.1583     0.0000     0.0000     0.0000     0.0000     0.0000     0.0000     0.0000     0.0000     0.0000 </r>
        <r>    16.2381     0.0000     0.0000     0.0000     0.0000     0.0000     0.0000     0.0000     0.0000     0.0000 </r>
        <r>    16.3178     0.0000     0.0000     0.0000     0.0000     0.0000     0.0000     0.0000     0.0000     0.0000 </r>
        <r>    16.3975     0.0000     0.0000     0.0000     0.0000     0.0000     0.0000     0.0000     0.0000     0.0000 </r>
        <r>    16.4773     0.0000     0.0000     0.0000     0.0000     0.0000     0.0000     0.0000     0.0000     0.0000 </r>
        <r>    16.5570     0.0000     0.0000     0.0000     0.0000     0.0000     0.0000     0.0000     0.0000     0.0000 </r>
        <r>    16.6368     0.0000     0.0000     0.0000     0.0000     0.0000     0.0000     0.0000     0.0000     0.0000 </r>
       </set>
      </set>
      <set comment="ion 2">
       <set comment="spin 1">
        <r>    -7.2872     0.0000     0.0000     0.0000     0.0000     0.0000     0.0000     0.0000     0.0000     0.0000 </r>
        <r>    -7.2075     0.0000     0.0000     0.0000     0.0000     0.0000     0.0000     0.0000     0.0000     0.0000 </r>
        <r>    -7.1277     0.0000     0.0000     0.0000     0.0000     0.0000     0.0000     0.0000     0.0000     0.0000 </r>
        <r>    -7.0480     0.0000     0.0000     0.0000     0.0000     0.0000     0.0000     0.0000     0.0000     0.0000 </r>
        <r>    -6.9682     0.0000     0.0000     0.0000     0.0000     0.0000     0.0000     0.0000     0.0000     0.0000 </r>
        <r>    -6.8885     0.0000     0.0000     0.0000     0.0000     0.0000     0.0000     0.0000     0.0000     0.0000 </r>
        <r>    -6.8087     0.0000     0.0000     0.0000     0.0000     0.0000     0.0000     0.0000     0.0000     0.0000 </r>
        <r>    -6.7290     0.0000     0.0000     0.0000     0.0000     0.0000     0.0000     0.0000     0.0000     0.0000 </r>
        <r>    -6.6492     0.0000     0.0000     0.0000     0.0000     0.0000     0.0000     0.0000     0.0000     0.0000 </r>
        <r>    -6.5695     0.0000     0.0000     0.0000     0.0000     0.0000     0.0000     0.0000     0.0000     0.0000 </r>
        <r>    -6.4898     0.0000     0.0000     0.0000     0.0000     0.0000     0.0000     0.0000     0.0000     0.0000 </r>
        <r>    -6.4100     0.0000     0.0000     0.0000     0.0000     0.0000     0.0000     0.0000     0.0000     0.0000 </r>
        <r>    -6.3303     0.0000     0.0000     0.0000     0.0000     0.0000     0.0000     0.0000     0.0000     0.0000 </r>
        <r>    -6.2505     0.0136     0.0000     0.0000     0.0000     0.0000     0.0000     0.0000     0.0000     0.0000 </r>
        <r>    -6.1708     0.2092     0.0001     0.0000     0.0000     0.0000     0.0000     0.0000     0.0000     0.0000 </r>
        <r>    -6.0910     0.2296     0.0004     0.0001     0.0002     0.0000     0.0000     0.0000     0.0000     0.0000 </r>
        <r>    -6.0113     0.1388     0.0006     0.0001     0.0003     0.0000     0.0000     0.0000     0.0000     0.0000 </r>
        <r>    -5.9315     0.1094     0.0007     0.0002     0.0003     0.0000     0.0000     0.0000     0.0000     0.0000 </r>
        <r>    -5.8518     0.0937     0.0009     0.0002     0.0004     0.0000     0.0000     0.0000     0.0000     0.0000 </r>
        <r>    -5.7720     0.0834     0.0010     0.0002     0.0004     0.0000     0.0000     0.0000     0.0000     0.0000 </r>
        <r>    -5.6923     0.0759     0.0011     0.0002     0.0005     0.0000     0.0000     0.0000     0.0000     0.0000 </r>
        <r>    -5.6125     0.0702     0.0012     0.0002     0.0005     0.0000     0.0000     0.0000     0.0000     0.0000 </r>
        <r>    -5.5328     0.0659     0.0012     0.0003     0.0006     0.0000     0.0000     0.0000     0.0000     0.0000 </r>
        <r>    -5.4530     0.0627     0.0013     0.0003     0.0006     0.0000     0.0000     0.0000     0.0000     0.0000 </r>
        <r>    -5.3733     0.0598     0.0014     0.0003     0.0006     0.0000     0.0000     0.0000     0.0000     0.0000 </r>
        <r>    -5.2936     0.0560     0.0014     0.0003     0.0006     0.0000     0.0000     0.0000     0.0000     0.0000 </r>
        <r>    -5.2138     0.0525     0.0014     0.0003     0.0006     0.0000     0.0000     0.0000     0.0000     0.0000 </r>
        <r>    -5.1341     0.0529     0.0016     0.0003     0.0007     0.0000     0.0000     0.0000     0.0000     0.0000 </r>
        <r>    -5.0543     0.0532     0.0017     0.0004     0.0008     0.0000     0.0000     0.0000     0.0000     0.0000 </r>
        <r>    -4.9746     0.0471     0.0016     0.0004     0.0007     0.0000     0.0000     0.0000     0.0000     0.0000 </r>
        <r>    -4.8948     0.0467     0.0017     0.0004     0.0007     0.0000     0.0000     0.0000     0.0000     0.0000 </r>
        <r>    -4.8151     0.0519     0.0020     0.0004     0.0009     0.0000     0.0000     0.0000     0.0000     0.0000 </r>
        <r>    -4.7353     0.0430     0.0017     0.0004     0.0008     0.0000     0.0000     0.0000     0.0000     0.0000 </r>
        <r>    -4.6556     0.0446     0.0018     0.0004     0.0008     0.0000     0.0000     0.0000     0.0000     0.0000 </r>
        <r>    -4.5758     0.0490     0.0022     0.0005     0.0009     0.0000     0.0000     0.0000     0.0000     0.0000 </r>
        <r>    -4.4961     0.0381     0.0016     0.0005     0.0008     0.0000     0.0000     0.0000     0.0000     0.0000 </r>
        <r>    -4.4163     0.0504     0.0024     0.0005     0.0010     0.0000     0.0000     0.0000     0.0000     0.0000 </r>
        <r>    -4.3366     0.0418     0.0019     0.0005     0.0009     0.0000     0.0000     0.0000     0.0000     0.0000 </r>
        <r>    -4.2568     0.0450     0.0021     0.0006     0.0009     0.0000     0.0000     0.0000     0.0000     0.0000 </r>
        <r>    -4.1771     0.0496     0.0024     0.0006     0.0011     0.0000     0.0000     0.0000     0.0000     0.0000 </r>
        <r>    -4.0974     0.0427     0.0019     0.0006     0.0009     0.0000     0.0000     0.0000     0.0000     0.0000 </r>
        <r>    -4.0176     0.0613     0.0030     0.0009     0.0013     0.0000     0.0000     0.0000     0.0000     0.0000 </r>
        <r>    -3.9379     0.0980     0.0029     0.0018     0.0020     0.0000     0.0000     0.0000     0.0000     0.0000 </r>
        <r>    -3.8581     0.1942     0.0059     0.0036     0.0038     0.0000     0.0000     0.0000     0.0000     0.0000 </r>
        <r>    -3.7784     0.1029     0.0032     0.0022     0.0021     0.0000     0.0000     0.0000     0.0000     0.0000 </r>
        <r>    -3.6986     0.0869     0.0041     0.0018     0.0016     0.0000     0.0000     0.0000     0.0000     0.0000 </r>
        <r>    -3.6189     0.0681     0.0028     0.0018     0.0014     0.0000     0.0000     0.0000     0.0000     0.0000 </r>
        <r>    -3.5391     0.0674     0.0040     0.0017     0.0011     0.0000     0.0000     0.0000     0.0000     0.0000 </r>
        <r>    -3.4594     0.0597     0.0028     0.0019     0.0013     0.0000     0.0000     0.0000     0.0000     0.0000 </r>
        <r>    -3.3796     0.0587     0.0040     0.0017     0.0009     0.0000     0.0000     0.0000     0.0000     0.0000 </r>
        <r>    -3.2999     0.0542     0.0029     0.0020     0.0011     0.0000     0.0000     0.0000     0.0000     0.0000 </r>
        <r>    -3.2201     0.0555     0.0040     0.0019     0.0008     0.0000     0.0000     0.0000     0.0000     0.0000 </r>
        <r>    -3.1404     0.0490     0.0031     0.0020     0.0008     0.0000     0.0000     0.0000     0.0000     0.0000 </r>
        <r>    -3.0606     0.0540     0.0038     0.0023     0.0009     0.0000     0.0000     0.0000     0.0000     0.0000 </r>
        <r>    -2.9809     0.0484     0.0036     0.0021     0.0007     0.0000     0.0000     0.0000     0.0000     0.0000 </r>
        <r>    -2.9012     0.0477     0.0032     0.0024     0.0008     0.0000     0.0000     0.0000     0.0000     0.0000 </r>
        <r>    -2.8214     0.0600     0.0050     0.0029     0.0008     0.0000     0.0000     0.0000     0.0000     0.0000 </r>
        <r>    -2.7417     0.1976     0.0174     0.0102     0.0019     0.0000     0.0000     0.0000     0.0000     0.0000 </r>
        <r>    -2.6619     0.3078     0.0288     0.0157     0.0028     0.0000     0.0000     0.0000     0.0000     0.0000 </r>
        <r>    -2.5822     0.1986     0.0173     0.0120     0.0022     0.0000     0.0000     0.0000     0.0000     0.0000 </r>
        <r>    -2.5024     0.1468     0.0155     0.0081     0.0014     0.0000     0.0000     0.0000     0.0000     0.0000 </r>
        <r>    -2.4227     0.0807     0.0123     0.0026     0.0002     0.0000     0.0000     0.0000     0.0000     0.0000 </r>
        <r>    -2.3429     0.0690     0.0115     0.0019     0.0001     0.0000     0.0000     0.0000     0.0000     0.0000 </r>
        <r>    -2.2632     0.0721     0.0127     0.0019     0.0000     0.0000     0.0000     0.0000     0.0000     0.0000 </r>
        <r>    -2.1834     0.0859     0.0163     0.0019     0.0000     0.0000     0.0000     0.0000     0.0000     0.0000 </r>
        <r>    -2.1037     0.5194     0.1116     0.0042     0.0000     0.0000     0.0000     0.0000     0.0000     0.0000 </r>
        <r>    -2.0239     0.7034     0.1334     0.0183     0.0001     0.0000     0.0000     0.0000     0.0000     0.0000 </r>
        <r>    -1.9442     0.5929     0.0860     0.0363     0.0000     0.0000     0.0000     0.0000     0.0000     0.0000 </r>
        <r>    -1.8644     0.1267     0.0199     0.0073     0.0000     0.0000     0.0000     0.0000     0.0000     0.0000 </r>
        <r>    -1.7847     0.0541     0.0101     0.0025     0.0000     0.0000     0.0000     0.0000     0.0000     0.0000 </r>
        <r>    -1.7050     0.0670     0.0134     0.0027     0.0000     0.0000     0.0000     0.0000     0.0000     0.0000 </r>
        <r>    -1.6252     0.0584     0.0110     0.0032     0.0001     0.0000     0.0000     0.0000     0.0000     0.0000 </r>
        <r>    -1.5455     0.0904     0.0132     0.0096     0.0009     0.0000     0.0000     0.0000     0.0000     0.0000 </r>
        <r>    -1.4657     0.1378     0.0167     0.0192     0.0021     0.0000     0.0000     0.0000     0.0000     0.0000 </r>
        <r>    -1.3860     0.1423     0.0162     0.0216     0.0024     0.0000     0.0000     0.0000     0.0000     0.0000 </r>
        <r>    -1.3062     0.1911     0.0260     0.0273     0.0043     0.0000     0.0000     0.0000     0.0000     0.0000 </r>
        <r>    -1.2265     0.3093     0.0540     0.0566     0.0272     0.0000     0.0000     0.0000     0.0000     0.0000 </r>
        <r>    -1.1467     0.2150     0.0460     0.0471     0.0327     0.0000     0.0000     0.0000     0.0000     0.0000 </r>
        <r>    -1.0670     0.1746     0.0377     0.0358     0.0244     0.0000     0.0000     0.0000     0.0000     0.0000 </r>
        <r>    -0.9872     0.0457     0.0084     0.0104     0.0064     0.0000     0.0000     0.0000     0.0000     0.0000 </r>
        <r>    -0.9075     0.0279     0.0062     0.0047     0.0031     0.0000     0.0000     0.0000     0.0000     0.0000 </r>
        <r>    -0.8277     0.0278     0.0056     0.0048     0.0028     0.0000     0.0000     0.0000     0.0000     0.0000 </r>
        <r>    -0.7480     0.0189     0.0031     0.0044     0.0026     0.0000     0.0000     0.0000     0.0000     0.0000 </r>
        <r>    -0.6682     0.0297     0.0074     0.0042     0.0029     0.0000     0.0000     0.0000     0.0000     0.0000 </r>
        <r>    -0.5885     0.0210     0.0036     0.0042     0.0022     0.0000     0.0000     0.0000     0.0000     0.0000 </r>
        <r>    -0.5088     0.0184     0.0043     0.0039     0.0030     0.0000     0.0000     0.0000     0.0000     0.0000 </r>
        <r>    -0.4290     0.0295     0.0067     0.0039     0.0021     0.0000     0.0000     0.0000     0.0000     0.0000 </r>
        <r>    -0.3493     0.0153     0.0035     0.0037     0.0030     0.0000     0.0000     0.0000     0.0000     0.0000 </r>
        <r>    -0.2695     0.0227     0.0049     0.0037     0.0020     0.0000     0.0000     0.0000     0.0000     0.0000 </r>
        <r>    -0.1898     0.0233     0.0067     0.0035     0.0029     0.0000     0.0000     0.0000     0.0000     0.0000 </r>
        <r>    -0.1100     0.0159     0.0026     0.0038     0.0023     0.0000     0.0000     0.0000     0.0000     0.0000 </r>
        <r>    -0.0303     0.0217     0.0067     0.0028     0.0023     0.0000     0.0000     0.0000     0.0000     0.0000 </r>
        <r>     0.0495     0.0236     0.0055     0.0045     0.0030     0.0000     0.0000     0.0000     0.0000     0.0000 </r>
        <r>     0.1292     0.0079     0.0020     0.0017     0.0014     0.0000     0.0000     0.0000     0.0000     0.0000 </r>
        <r>     0.2090     0.0332     0.0094     0.0053     0.0040     0.0000     0.0000     0.0000     0.0000     0.0000 </r>
        <r>     0.2887     0.0079     0.0022     0.0012     0.0008     0.0000     0.0000     0.0000     0.0000     0.0000 </r>
        <r>     0.3685     0.0215     0.0055     0.0050     0.0040     0.0000     0.0000     0.0000     0.0000     0.0000 </r>
        <r>     0.4482     0.0214     0.0072     0.0022     0.0017     0.0000     0.0000     0.0000     0.0000     0.0000 </r>
        <r>     0.5280     0.0115     0.0029     0.0027     0.0022     0.0000     0.0000     0.0000     0.0000     0.0000 </r>
        <r>     0.6077     0.0220     0.0064     0.0045     0.0038     0.0000     0.0000     0.0000     0.0000     0.0000 </r>
        <r>     0.6874     0.0148     0.0058     0.0009     0.0007     0.0000     0.0000     0.0000     0.0000     0.0000 </r>
        <r>     0.7672     0.0193     0.0049     0.0053     0.0045     0.0000     0.0000     0.0000     0.0000     0.0000 </r>
        <r>     0.8469     0.0141     0.0055     0.0016     0.0015     0.0000     0.0000     0.0000     0.0000     0.0000 </r>
        <r>     0.9267     0.0188     0.0064     0.0027     0.0023     0.0000     0.0000     0.0000     0.0000     0.0000 </r>
        <r>     1.0064     0.0153     0.0044     0.0044     0.0041     0.0000     0.0000     0.0000     0.0000     0.0000 </r>
        <r>     1.0862     0.0140     0.0061     0.0009     0.0008     0.0000     0.0000     0.0000     0.0000     0.0000 </r>
        <r>     1.1659     0.0215     0.0070     0.0043     0.0040     0.0000     0.0000     0.0000     0.0000     0.0000 </r>
        <r>     1.2457     0.0091     0.0040     0.0036     0.0034     0.0000     0.0000     0.0000     0.0000     0.0000 </r>
        <r>     1.3254     0.0194     0.0269     0.0233     0.0212     0.0000     0.0000     0.0000     0.0000     0.0000 </r>
        <r>     1.4052     0.0205     0.0614     0.0635     0.0646     0.0000     0.0000     0.0000     0.0000     0.0000 </r>
        <r>     1.4849     0.0084     0.0345     0.0402     0.0391     0.0000     0.0000     0.0000     0.0000     0.0000 </r>
        <r>     1.5647     0.0254     0.0313     0.0335     0.0311     0.0000     0.0000     0.0000     0.0000     0.0000 </r>
        <r>     1.6444     0.0198     0.0438     0.0517     0.0523     0.0000     0.0000     0.0000     0.0000     0.0000 </r>
        <r>     1.7242     0.0119     0.0304     0.0376     0.0366     0.0000     0.0000     0.0000     0.0000     0.0000 </r>
        <r>     1.8039     0.0280     0.0346     0.0369     0.0370     0.0000     0.0000     0.0000     0.0000     0.0000 </r>
        <r>     1.8836     0.0154     0.0651     0.0828     0.1003     0.0000     0.0000     0.0000     0.0000     0.0000 </r>
        <r>     1.9634     0.0140     0.0596     0.0871     0.1005     0.0000     0.0000     0.0000     0.0000     0.0000 </r>
        <r>     2.0431     0.0271     0.0443     0.0691     0.0740     0.0000     0.0000     0.0000     0.0000     0.0000 </r>
        <r>     2.1229     0.0142     0.0320     0.0655     0.0660     0.0000     0.0000     0.0000     0.0000     0.0000 </r>
        <r>     2.2026     0.0167     0.0298     0.0597     0.0597     0.0000     0.0000     0.0000     0.0000     0.0000 </r>
        <r>     2.2824     0.0249     0.0313     0.0621     0.0623     0.0000     0.0000     0.0000     0.0000     0.0000 </r>
        <r>     2.3621     0.0128     0.0377     0.0882     0.0975     0.0000     0.0000     0.0000     0.0000     0.0000 </r>
        <r>     2.4419     0.0189     0.0449     0.0946     0.1084     0.0000     0.0000     0.0000     0.0000     0.0000 </r>
        <r>     2.5216     0.0227     0.0381     0.0902     0.0979     0.0000     0.0000     0.0000     0.0000     0.0000 </r>
        <r>     2.6014     0.0119     0.0280     0.0877     0.0955     0.0000     0.0000     0.0000     0.0000     0.0000 </r>
        <r>     2.6811     0.0204     0.0342     0.1003     0.1047     0.0000     0.0000     0.0000     0.0000     0.0000 </r>
        <r>     2.7609     0.0186     0.0278     0.1290     0.1377     0.0000     0.0000     0.0000     0.0000     0.0000 </r>
        <r>     2.8406     0.0121     0.0253     0.2361     0.2398     0.0000     0.0000     0.0000     0.0000     0.0000 </r>
        <r>     2.9204     0.0176     0.0281     0.1225     0.1308     0.0000     0.0000     0.0000     0.0000     0.0000 </r>
        <r>     3.0001     0.0166     0.0271     0.0654     0.0725     0.0000     0.0000     0.0000     0.0000     0.0000 </r>
        <r>     3.0799     0.0118     0.0263     0.0511     0.0603     0.0000     0.0000     0.0000     0.0000     0.0000 </r>
        <r>     3.1596     0.0159     0.0337     0.0456     0.0576     0.0000     0.0000     0.0000     0.0000     0.0000 </r>
        <r>     3.2393     0.0155     0.0527     0.0444     0.0789     0.0000     0.0000     0.0000     0.0000     0.0000 </r>
        <r>     3.3191     0.0121     0.0485     0.0407     0.0716     0.0000     0.0000     0.0000     0.0000     0.0000 </r>
        <r>     3.3988     0.0139     0.0325     0.0374     0.0480     0.0000     0.0000     0.0000     0.0000     0.0000 </r>
        <r>     3.4786     0.0132     0.0278     0.0378     0.0504     0.0000     0.0000     0.0000     0.0000     0.0000 </r>
        <r>     3.5583     0.0147     0.0312     0.0386     0.0473     0.0000     0.0000     0.0000     0.0000     0.0000 </r>
        <r>     3.6381     0.0100     0.0282     0.0321     0.0424     0.0000     0.0000     0.0000     0.0000     0.0000 </r>
        <r>     3.7178     0.0122     0.0277     0.0385     0.0489     0.0000     0.0000     0.0000     0.0000     0.0000 </r>
        <r>     3.7976     0.0167     0.0347     0.0337     0.0447     0.0000     0.0000     0.0000     0.0000     0.0000 </r>
        <r>     3.8773     0.0062     0.0255     0.0352     0.0428     0.0000     0.0000     0.0000     0.0000     0.0000 </r>
        <r>     3.9571     0.0118     0.0295     0.0343     0.0485     0.0000     0.0000     0.0000     0.0000     0.0000 </r>
        <r>     4.0368     0.0170     0.0387     0.0402     0.0489     0.0000     0.0000     0.0000     0.0000     0.0000 </r>
        <r>     4.1166     0.0033     0.0239     0.0315     0.0437     0.0000     0.0000     0.0000     0.0000     0.0000 </r>
        <r>     4.1963     0.0124     0.0361     0.0379     0.0522     0.0000     0.0000     0.0000     0.0000     0.0000 </r>
        <r>     4.2761     0.0143     0.0421     0.0436     0.0582     0.0000     0.0000     0.0000     0.0000     0.0000 </r>
        <r>     4.3558     0.0020     0.0338     0.0419     0.0620     0.0000     0.0000     0.0000     0.0000     0.0000 </r>
        <r>     4.4355     0.0134     0.1032     0.1019     0.1295     0.0000     0.0000     0.0000     0.0000     0.0000 </r>
        <r>     4.5153     0.0088     0.1267     0.1268     0.1459     0.0000     0.0000     0.0000     0.0000     0.0000 </r>
        <r>     4.5950     0.0031     0.0705     0.0817     0.0824     0.0000     0.0000     0.0000     0.0000     0.0000 </r>
        <r>     4.6748     0.0117     0.0688     0.0611     0.0706     0.0000     0.0000     0.0000     0.0000     0.0000 </r>
        <r>     4.7545     0.0055     0.0534     0.0615     0.0653     0.0000     0.0000     0.0000     0.0000     0.0000 </r>
        <r>     4.8343     0.0064     0.0546     0.0518     0.0590     0.0000     0.0000     0.0000     0.0000     0.0000 </r>
        <r>     4.9140     0.0072     0.0528     0.0581     0.0617     0.0000     0.0000     0.0000     0.0000     0.0000 </r>
        <r>     4.9938     0.0059     0.0520     0.0462     0.0568     0.0000     0.0000     0.0000     0.0000     0.0000 </r>
        <r>     5.0735     0.0055     0.0517     0.0583     0.0595     0.0000     0.0000     0.0000     0.0000     0.0000 </r>
        <r>     5.1533     0.0055     0.0542     0.0500     0.0617     0.0000     0.0000     0.0000     0.0000     0.0000 </r>
        <r>     5.2330     0.0050     0.0561     0.0547     0.0601     0.0000     0.0000     0.0000     0.0000     0.0000 </r>
        <r>     5.3128     0.0041     0.0594     0.0588     0.0662     0.0000     0.0000     0.0000     0.0000     0.0000 </r>
        <r>     5.3925     0.0041     0.0666     0.0622     0.0743     0.0000     0.0000     0.0000     0.0000     0.0000 </r>
        <r>     5.4723     0.0031     0.0791     0.0728     0.0843     0.0000     0.0000     0.0000     0.0000     0.0000 </r>
        <r>     5.5520     0.0024     0.1126     0.1014     0.1212     0.0000     0.0000     0.0000     0.0000     0.0000 </r>
        <r>     5.6317     0.0010     0.1768     0.1560     0.1866     0.0000     0.0000     0.0000     0.0000     0.0000 </r>
        <r>     5.7115     0.0001     0.0424     0.0378     0.0443     0.0000     0.0000     0.0000     0.0000     0.0000 </r>
        <r>     5.7912     0.0000     0.0003     0.0003     0.0003     0.0000     0.0000     0.0000     0.0000     0.0000 </r>
        <r>     5.8710     0.0000     0.0000     0.0000     0.0000     0.0000     0.0000     0.0000     0.0000     0.0000 </r>
        <r>     5.9507     0.0000     0.0000     0.0000     0.0000     0.0000     0.0000     0.0000     0.0000     0.0000 </r>
        <r>     6.0305     0.0000     0.0000     0.0000     0.0000     0.0000     0.0000     0.0000     0.0000     0.0000 </r>
        <r>     6.1102     0.0000     0.0000     0.0000     0.0000     0.0000     0.0000     0.0000     0.0000     0.0000 </r>
        <r>     6.1900     0.0039     0.0033     0.0000     0.0000     0.0000     0.0000     0.0000     0.0000     0.0000 </r>
        <r>     6.2697     0.0327     0.0282     0.0000     0.0000     0.0000     0.0000     0.0000     0.0000     0.0000 </r>
        <r>     6.3495     0.0466     0.0383     0.0001     0.0001     0.0000     0.0000     0.0000     0.0000     0.0000 </r>
        <r>     6.4292     0.0837     0.0637     0.0007     0.0009     0.0000     0.0000     0.0000     0.0000     0.0000 </r>
        <r>     6.5090     0.0532     0.0419     0.0014     0.0020     0.0000     0.0000     0.0000     0.0000     0.0000 </r>
        <r>     6.5887     0.0391     0.0320     0.0019     0.0026     0.0000     0.0000     0.0000     0.0000     0.0000 </r>
        <r>     6.6685     0.0331     0.0278     0.0022     0.0031     0.0000     0.0000     0.0000     0.0000     0.0000 </r>
        <r>     6.7482     0.0293     0.0253     0.0025     0.0036     0.0000     0.0000     0.0000     0.0000     0.0000 </r>
        <r>     6.8279     0.0293     0.0232     0.0053     0.0039     0.0000     0.0000     0.0000     0.0000     0.0000 </r>
        <r>     6.9077     0.0375     0.0222     0.0132     0.0045     0.0000     0.0000     0.0000     0.0000     0.0000 </r>
        <r>     6.9874     0.0348     0.0216     0.0123     0.0053     0.0000     0.0000     0.0000     0.0000     0.0000 </r>
        <r>     7.0672     0.0724     0.0214     0.0125     0.0068     0.0000     0.0000     0.0000     0.0000     0.0000 </r>
        <r>     7.1469     0.1763     0.0268     0.0162     0.0116     0.0000     0.0000     0.0000     0.0000     0.0000 </r>
        <r>     7.2267     0.1178     0.0237     0.0149     0.0098     0.0000     0.0000     0.0000     0.0000     0.0000 </r>
        <r>     7.3064     0.0901     0.0234     0.0142     0.0095     0.0000     0.0000     0.0000     0.0000     0.0000 </r>
        <r>     7.3862     0.0787     0.0242     0.0141     0.0095     0.0000     0.0000     0.0000     0.0000     0.0000 </r>
        <r>     7.4659     0.0698     0.0235     0.0143     0.0099     0.0000     0.0000     0.0000     0.0000     0.0000 </r>
        <r>     7.5457     0.0639     0.0242     0.0140     0.0097     0.0000     0.0000     0.0000     0.0000     0.0000 </r>
        <r>     7.6254     0.0599     0.0240     0.0141     0.0099     0.0000     0.0000     0.0000     0.0000     0.0000 </r>
        <r>     7.7052     0.0594     0.0257     0.0160     0.0110     0.0000     0.0000     0.0000     0.0000     0.0000 </r>
        <r>     7.7849     0.0546     0.0264     0.0150     0.0108     0.0000     0.0000     0.0000     0.0000     0.0000 </r>
        <r>     7.8647     0.0529     0.0272     0.0166     0.0114     0.0000     0.0000     0.0000     0.0000     0.0000 </r>
        <r>     7.9444     0.0514     0.0303     0.0164     0.0122     0.0000     0.0000     0.0000     0.0000     0.0000 </r>
        <r>     8.0241     0.0508     0.0336     0.0179     0.0128     0.0000     0.0000     0.0000     0.0000     0.0000 </r>
        <r>     8.1039     0.0509     0.0441     0.0229     0.0177     0.0000     0.0000     0.0000     0.0000     0.0000 </r>
        <r>     8.1836     0.0512     0.1203     0.0883     0.0936     0.0000     0.0000     0.0000     0.0000     0.0000 </r>
        <r>     8.2634     0.0467     0.1200     0.1265     0.1350     0.0000     0.0000     0.0000     0.0000     0.0000 </r>
        <r>     8.3431     0.0391     0.0573     0.0803     0.0704     0.0000     0.0000     0.0000     0.0000     0.0000 </r>
        <r>     8.4229     0.0474     0.0441     0.0793     0.0565     0.0000     0.0000     0.0000     0.0000     0.0000 </r>
        <r>     8.5026     0.0674     0.0423     0.0831     0.0515     0.0000     0.0000     0.0000     0.0000     0.0000 </r>
        <r>     8.5824     0.0826     0.0349     0.0986     0.0460     0.0000     0.0000     0.0000     0.0000     0.0000 </r>
        <r>     8.6621     0.0684     0.0368     0.0792     0.0459     0.0000     0.0000     0.0000     0.0000     0.0000 </r>
        <r>     8.7419     0.1113     0.0460     0.0514     0.0595     0.0000     0.0000     0.0000     0.0000     0.0000 </r>
        <r>     8.8216     0.2073     0.0564     0.0617     0.0698     0.0000     0.0000     0.0000     0.0000     0.0000 </r>
        <r>     8.9014     0.1182     0.0574     0.0586     0.0609     0.0000     0.0000     0.0000     0.0000     0.0000 </r>
        <r>     8.9811     0.0850     0.0866     0.0941     0.0959     0.0000     0.0000     0.0000     0.0000     0.0000 </r>
        <r>     9.0609     0.0817     0.0972     0.0988     0.1200     0.0000     0.0000     0.0000     0.0000     0.0000 </r>
        <r>     9.1406     0.0531     0.0944     0.0981     0.1194     0.0000     0.0000     0.0000     0.0000     0.0000 </r>
        <r>     9.2203     0.0792     0.0498     0.0555     0.0745     0.0000     0.0000     0.0000     0.0000     0.0000 </r>
        <r>     9.3001     0.0352     0.0212     0.0228     0.0410     0.0000     0.0000     0.0000     0.0000     0.0000 </r>
        <r>     9.3798     0.0737     0.0233     0.0298     0.0496     0.0000     0.0000     0.0000     0.0000     0.0000 </r>
        <r>     9.4596     0.0418     0.0212     0.0198     0.0427     0.0000     0.0000     0.0000     0.0000     0.0000 </r>
        <r>     9.5393     0.0448     0.0199     0.0280     0.0507     0.0000     0.0000     0.0000     0.0000     0.0000 </r>
        <r>     9.6191     0.0588     0.0236     0.0203     0.0407     0.0000     0.0000     0.0000     0.0000     0.0000 </r>
        <r>     9.6988     0.0414     0.0211     0.0219     0.0405     0.0000     0.0000     0.0000     0.0000     0.0000 </r>
        <r>     9.7786     0.0548     0.0299     0.0280     0.0531     0.0000     0.0000     0.0000     0.0000     0.0000 </r>
        <r>     9.8583     0.0626     0.0285     0.0154     0.0515     0.0000     0.0000     0.0000     0.0000     0.0000 </r>
        <r>     9.9381     0.0589     0.0322     0.0278     0.0776     0.0000     0.0000     0.0000     0.0000     0.0000 </r>
        <r>    10.0178     0.0262     0.0122     0.0145     0.0281     0.0000     0.0000     0.0000     0.0000     0.0000 </r>
        <r>    10.0976     0.0232     0.0177     0.0233     0.0248     0.0000     0.0000     0.0000     0.0000     0.0000 </r>
        <r>    10.1773     0.0306     0.0178     0.0275     0.0280     0.0000     0.0000     0.0000     0.0000     0.0000 </r>
        <r>    10.2571     0.0223     0.0135     0.0167     0.0172     0.0000     0.0000     0.0000     0.0000     0.0000 </r>
        <r>    10.3368     0.0140     0.0104     0.0200     0.0259     0.0000     0.0000     0.0000     0.0000     0.0000 </r>
        <r>    10.4165     0.0293     0.0173     0.0243     0.0256     0.0000     0.0000     0.0000     0.0000     0.0000 </r>
        <r>    10.4963     0.0294     0.0204     0.0217     0.0224     0.0000     0.0000     0.0000     0.0000     0.0000 </r>
        <r>    10.5760     0.0506     0.0439     0.0549     0.0373     0.0000     0.0000     0.0000     0.0000     0.0000 </r>
        <r>    10.6558     0.0473     0.0322     0.0336     0.0301     0.0000     0.0000     0.0000     0.0000     0.0000 </r>
        <r>    10.7355     0.0321     0.0257     0.0320     0.0377     0.0000     0.0000     0.0000     0.0000     0.0000 </r>
        <r>    10.8153     0.0289     0.0210     0.0293     0.0352     0.0000     0.0000     0.0000     0.0000     0.0000 </r>
        <r>    10.8950     0.0307     0.0238     0.0250     0.0241     0.0000     0.0000     0.0000     0.0000     0.0000 </r>
        <r>    10.9748     0.0332     0.0255     0.0288     0.0324     0.0000     0.0000     0.0000     0.0000     0.0000 </r>
        <r>    11.0545     0.0234     0.0180     0.0258     0.0260     0.0000     0.0000     0.0000     0.0000     0.0000 </r>
        <r>    11.1343     0.0370     0.0280     0.0203     0.0300     0.0000     0.0000     0.0000     0.0000     0.0000 </r>
        <r>    11.2140     0.0487     0.0348     0.0307     0.0469     0.0000     0.0000     0.0000     0.0000     0.0000 </r>
        <r>    11.2938     0.0360     0.0333     0.0232     0.0398     0.0000     0.0000     0.0000     0.0000     0.0000 </r>
        <r>    11.3735     0.0371     0.0310     0.0245     0.0293     0.0000     0.0000     0.0000     0.0000     0.0000 </r>
        <r>    11.4533     0.0307     0.0316     0.0407     0.0339     0.0000     0.0000     0.0000     0.0000     0.0000 </r>
        <r>    11.5330     0.0274     0.0321     0.0253     0.0302     0.0000     0.0000     0.0000     0.0000     0.0000 </r>
        <r>    11.6127     0.0305     0.0250     0.0287     0.0280     0.0000     0.0000     0.0000     0.0000     0.0000 </r>
        <r>    11.6925     0.0241     0.0314     0.0338     0.0404     0.0000     0.0000     0.0000     0.0000     0.0000 </r>
        <r>    11.7722     0.0186     0.0184     0.0201     0.0215     0.0000     0.0000     0.0000     0.0000     0.0000 </r>
        <r>    11.8520     0.0327     0.0323     0.0342     0.0408     0.0000     0.0000     0.0000     0.0000     0.0000 </r>
        <r>    11.9317     0.0143     0.0202     0.0221     0.0296     0.0000     0.0000     0.0000     0.0000     0.0000 </r>
        <r>    12.0115     0.0194     0.0194     0.0165     0.0243     0.0000     0.0000     0.0000     0.0000     0.0000 </r>
        <r>    12.0912     0.0279     0.0294     0.0312     0.0422     0.0000     0.0000     0.0000     0.0000     0.0000 </r>
        <r>    12.1710     0.0162     0.0213     0.0230     0.0349     0.0000     0.0000     0.0000     0.0000     0.0000 </r>
        <r>    12.2507     0.0144     0.0146     0.0125     0.0138     0.0000     0.0000     0.0000     0.0000     0.0000 </r>
        <r>    12.3305     0.0254     0.0336     0.0339     0.0466     0.0000     0.0000     0.0000     0.0000     0.0000 </r>
        <r>    12.4102     0.0094     0.0144     0.0179     0.0228     0.0000     0.0000     0.0000     0.0000     0.0000 </r>
        <r>    12.4900     0.0233     0.0221     0.0241     0.0286     0.0000     0.0000     0.0000     0.0000     0.0000 </r>
        <r>    12.5697     0.0167     0.0189     0.0350     0.0346     0.0000     0.0000     0.0000     0.0000     0.0000 </r>
        <r>    12.6495     0.0141     0.0137     0.0253     0.0289     0.0000     0.0000     0.0000     0.0000     0.0000 </r>
        <r>    12.7292     0.0134     0.0155     0.0163     0.0203     0.0000     0.0000     0.0000     0.0000     0.0000 </r>
        <r>    12.8089     0.0090     0.0156     0.0228     0.0367     0.0000     0.0000     0.0000     0.0000     0.0000 </r>
        <r>    12.8887     0.0135     0.0155     0.0230     0.0244     0.0000     0.0000     0.0000     0.0000     0.0000 </r>
        <r>    12.9684     0.0100     0.0159     0.0131     0.0271     0.0000     0.0000     0.0000     0.0000     0.0000 </r>
        <r>    13.0482     0.0091     0.0205     0.0261     0.0384     0.0000     0.0000     0.0000     0.0000     0.0000 </r>
        <r>    13.1279     0.0123     0.0107     0.0215     0.0238     0.0000     0.0000     0.0000     0.0000     0.0000 </r>
        <r>    13.2077     0.0066     0.0081     0.0103     0.0163     0.0000     0.0000     0.0000     0.0000     0.0000 </r>
        <r>    13.2874     0.0107     0.0134     0.0326     0.0378     0.0000     0.0000     0.0000     0.0000     0.0000 </r>
        <r>    13.3672     0.0142     0.0267     0.0379     0.0399     0.0000     0.0000     0.0000     0.0000     0.0000 </r>
        <r>    13.4469     0.0091     0.0298     0.0340     0.0371     0.0000     0.0000     0.0000     0.0000     0.0000 </r>
        <r>    13.5267     0.0098     0.0232     0.0549     0.0424     0.0000     0.0000     0.0000     0.0000     0.0000 </r>
        <r>    13.6064     0.0089     0.0205     0.0394     0.0252     0.0000     0.0000     0.0000     0.0000     0.0000 </r>
        <r>    13.6862     0.0031     0.0230     0.0270     0.0184     0.0000     0.0000     0.0000     0.0000     0.0000 </r>
        <r>    13.7659     0.0032     0.0106     0.0255     0.0261     0.0000     0.0000     0.0000     0.0000     0.0000 </r>
        <r>    13.8457     0.0038     0.0054     0.0111     0.0172     0.0000     0.0000     0.0000     0.0000     0.0000 </r>
        <r>    13.9254     0.0030     0.0043     0.0094     0.0140     0.0000     0.0000     0.0000     0.0000     0.0000 </r>
        <r>    14.0051     0.0030     0.0045     0.0202     0.0250     0.0000     0.0000     0.0000     0.0000     0.0000 </r>
        <r>    14.0849     0.0022     0.0032     0.0082     0.0120     0.0000     0.0000     0.0000     0.0000     0.0000 </r>
        <r>    14.1646     0.0044     0.0064     0.0147     0.0225     0.0000     0.0000     0.0000     0.0000     0.0000 </r>
        <r>    14.2444     0.0018     0.0026     0.0186     0.0220     0.0000     0.0000     0.0000     0.0000     0.0000 </r>
        <r>    14.3241     0.0031     0.0046     0.0120     0.0176     0.0000     0.0000     0.0000     0.0000     0.0000 </r>
        <r>    14.4039     0.0024     0.0035     0.0114     0.0167     0.0000     0.0000     0.0000     0.0000     0.0000 </r>
        <r>    14.4836     0.0032     0.0048     0.0257     0.0324     0.0000     0.0000     0.0000     0.0000     0.0000 </r>
        <r>    14.5634     0.0019     0.0028     0.0098     0.0140     0.0000     0.0000     0.0000     0.0000     0.0000 </r>
        <r>    14.6431     0.0024     0.0035     0.0147     0.0201     0.0000     0.0000     0.0000     0.0000     0.0000 </r>
        <r>    14.7229     0.0028     0.0041     0.0280     0.0355     0.0000     0.0000     0.0000     0.0000     0.0000 </r>
        <r>    14.8026     0.0018     0.0026     0.0128     0.0170     0.0000     0.0000     0.0000     0.0000     0.0000 </r>
        <r>    14.8824     0.0021     0.0030     0.0185     0.0243     0.0000     0.0000     0.0000     0.0000     0.0000 </r>
        <r>    14.9621     0.0022     0.0031     0.0316     0.0382     0.0000     0.0000     0.0000     0.0000     0.0000 </r>
        <r>    15.0419     0.0017     0.0024     0.0170     0.0221     0.0000     0.0000     0.0000     0.0000     0.0000 </r>
        <r>    15.1216     0.0017     0.0023     0.0292     0.0345     0.0000     0.0000     0.0000     0.0000     0.0000 </r>
        <r>    15.2013     0.0017     0.0023     0.0365     0.0426     0.0000     0.0000     0.0000     0.0000     0.0000 </r>
        <r>    15.2811     0.0013     0.0017     0.0277     0.0321     0.0000     0.0000     0.0000     0.0000     0.0000 </r>
        <r>    15.3608     0.0013     0.0017     0.0529     0.0583     0.0000     0.0000     0.0000     0.0000     0.0000 </r>
        <r>    15.4406     0.0009     0.0012     0.0529     0.0567     0.0000     0.0000     0.0000     0.0000     0.0000 </r>
        <r>    15.5203     0.0006     0.0008     0.1112     0.1148     0.0000     0.0000     0.0000     0.0000     0.0000 </r>
        <r>    15.6001     0.0002     0.0002     0.1110     0.1115     0.0000     0.0000     0.0000     0.0000     0.0000 </r>
        <r>    15.6798     0.0000     0.0000     0.0077     0.0079     0.0000     0.0000     0.0000     0.0000     0.0000 </r>
        <r>    15.7596     0.0000     0.0000     0.0000     0.0000     0.0000     0.0000     0.0000     0.0000     0.0000 </r>
        <r>    15.8393     0.0000     0.0000     0.0000     0.0000     0.0000     0.0000     0.0000     0.0000     0.0000 </r>
        <r>    15.9191     0.0000     0.0000     0.0000     0.0000     0.0000     0.0000     0.0000     0.0000     0.0000 </r>
        <r>    15.9988     0.0000     0.0000     0.0000     0.0000     0.0000     0.0000     0.0000     0.0000     0.0000 </r>
        <r>    16.0786     0.0000     0.0000     0.0000     0.0000     0.0000     0.0000     0.0000     0.0000     0.0000 </r>
        <r>    16.1583     0.0000     0.0000     0.0000     0.0000     0.0000     0.0000     0.0000     0.0000     0.0000 </r>
        <r>    16.2381     0.0000     0.0000     0.0000     0.0000     0.0000     0.0000     0.0000     0.0000     0.0000 </r>
        <r>    16.3178     0.0000     0.0000     0.0000     0.0000     0.0000     0.0000     0.0000     0.0000     0.0000 </r>
        <r>    16.3975     0.0000     0.0000     0.0000     0.0000     0.0000     0.0000     0.0000     0.0000     0.0000 </r>
        <r>    16.4773     0.0000     0.0000     0.0000     0.0000     0.0000     0.0000     0.0000     0.0000     0.0000 </r>
        <r>    16.5570     0.0000     0.0000     0.0000     0.0000     0.0000     0.0000     0.0000     0.0000     0.0000 </r>
        <r>    16.6368     0.0000     0.0000     0.0000     0.0000     0.0000     0.0000     0.0000     0.0000     0.0000 </r>
       </set>
      </set>
     </set>
    </array>
   </partial>
  </dos>
  <projected>
   <eigenvalues>
    <array>
     <dimension dim="1">band</dimension>
     <dimension dim="2">kpoint</dimension>
     <dimension dim="3">spin</dimension>
     <field>eigene</field>
     <field>occ</field>
     <set>
      <set comment="spin 1">
       <set comment="kpoint 1">
        <r>   -6.1998    1.0000 </r>
        <r>    5.6131    1.0000 </r>
        <r>    5.6131    1.0000 </r>
        <r>    5.6131    1.0000 </r>
        <r>    8.1703    0.0000 </r>
        <r>    8.1703    0.0000 </r>
        <r>    8.1703    0.0000 </r>
        <r>    8.7437    0.0000 </r>
       </set>
       <set comment="kpoint 2">
        <r>   -6.1969    1.0000 </r>
        <r>    5.5924    1.0000 </r>
        <r>    5.6009    1.0000 </r>
        <r>    5.6009    1.0000 </r>
        <r>    8.1632    0.0000 </r>
        <r>    8.1860    0.0000 </r>
        <r>    8.1860    0.0000 </r>
        <r>    8.7640    0.0000 </r>
       </set>
       <set comment="kpoint 3">
        <r>   -6.1885    1.0000 </r>
        <r>    5.5320    1.0000 </r>
        <r>    5.5653    1.0000 </r>
        <r>    5.5653    1.0000 </r>
        <r>    8.1423    0.0000 </r>
        <r>    8.2320    0.0000 </r>
        <r>    8.2320    0.0000 </r>
        <r>    8.8231    0.0000 </r>
       </set>
       <set comment="kpoint 4">
        <r>   -6.1744    1.0000 </r>
        <r>    5.4362    1.0000 </r>
        <r>    5.5086    1.0000 </r>
        <r>    5.5086    1.0000 </r>
        <r>    8.1081    0.0000 </r>
        <r>    8.3061    0.0000 </r>
        <r>    8.3061    0.0000 </r>
        <r>    8.9160    0.0000 </r>
       </set>
       <set comment="kpoint 5">
        <r>   -6.1546    1.0000 </r>
        <r>    5.3106    1.0000 </r>
        <r>    5.4344    1.0000 </r>
        <r>    5.4344    1.0000 </r>
        <r>    8.0617    0.0000 </r>
        <r>    8.4047    0.0000 </r>
        <r>    8.4047    0.0000 </r>
        <r>    9.0360    0.0000 </r>
       </set>
       <set comment="kpoint 6">
        <r>   -6.1292    1.0000 </r>
        <r>    5.1613    1.0000 </r>
        <r>    5.3461    1.0000 </r>
        <r>    5.3461    1.0000 </r>
        <r>    8.0044    0.0000 </r>
        <r>    8.5241    0.0000 </r>
        <r>    8.5241    0.0000 </r>
        <r>    9.1754    0.0000 </r>
       </set>
       <set comment="kpoint 7">
        <r>   -6.0981    1.0000 </r>
        <r>    4.9933    1.0000 </r>
        <r>    5.2473    1.0000 </r>
        <r>    5.2473    1.0000 </r>
        <r>    7.9377    0.0000 </r>
        <r>    8.6611    0.0000 </r>
        <r>    8.6611    0.0000 </r>
        <r>    9.3263    0.0000 </r>
       </set>
       <set comment="kpoint 8">
        <r>   -6.0614    1.0000 </r>
        <r>    4.8110    1.0000 </r>
        <r>    5.1408    1.0000 </r>
        <r>    5.1408    1.0000 </r>
        <r>    7.8631    0.0000 </r>
        <r>    8.8125    0.0000 </r>
        <r>    8.8125    0.0000 </r>
        <r>    9.4801    0.0000 </r>
       </set>
       <set comment="kpoint 9">
        <r>   -6.0192    1.0000 </r>
        <r>    4.6178    1.0000 </r>
        <r>    5.0292    1.0000 </r>
        <r>    5.0292    1.0000 </r>
        <r>    7.7821    0.0000 </r>
        <r>    8.9759    0.0000 </r>
        <r>    8.9759    0.0000 </r>
        <r>    9.6271    0.0000 </r>
       </set>
       <set comment="kpoint 10">
        <r>   -5.9713    1.0000 </r>
        <r>    4.4162    1.0000 </r>
        <r>    4.9142    1.0000 </r>
        <r>    4.9142    1.0000 </r>
        <r>    7.6961    0.0000 </r>
        <r>    9.1493    0.0000 </r>
        <r>    9.1493    0.0000 </r>
        <r>    9.7555    0.0000 </r>
       </set>
       <set comment="kpoint 11">
        <r>   -5.9179    1.0000 </r>
        <r>    4.2081    1.0000 </r>
        <r>    4.7976    1.0000 </r>
        <r>    4.7976    1.0000 </r>
        <r>    7.6066    0.0000 </r>
        <r>    9.3310    0.0000 </r>
        <r>    9.3310    0.0000 </r>
        <r>    9.8509    0.0000 </r>
       </set>
       <set comment="kpoint 12">
        <r>   -5.8589    1.0000 </r>
        <r>    3.9952    1.0000 </r>
        <r>    4.6805    1.0000 </r>
        <r>    4.6805    1.0000 </r>
        <r>    7.5147    0.0000 </r>
        <r>    9.5198    0.0000 </r>
        <r>    9.5198    0.0000 </r>
        <r>    9.8989    0.0000 </r>
       </set>
       <set comment="kpoint 13">
        <r>   -5.7944    1.0000 </r>
        <r>    3.7784    1.0000 </r>
        <r>    4.5639    1.0000 </r>
        <r>    4.5639    1.0000 </r>
        <r>    7.4216    0.0000 </r>
        <r>    9.7146    0.0000 </r>
        <r>    9.7146    0.0000 </r>
        <r>    9.8894    0.0000 </r>
       </set>
       <set comment="kpoint 14">
        <r>   -5.7244    1.0000 </r>
        <r>    3.5587    1.0000 </r>
        <r>    4.4487    1.0000 </r>
        <r>    4.4487    1.0000 </r>
        <r>    7.3283    0.0000 </r>
        <r>    9.8234    0.0000 </r>
        <r>    9.9146    0.0000 </r>
        <r>    9.9146    0.0000 </r>
       </set>
       <set comment="kpoint 15">
        <r>   -5.6489    1.0000 </r>
        <r>    3.3368    1.0000 </r>
        <r>    4.3353    1.0000 </r>
        <r>    4.3353    1.0000 </r>
        <r>    7.2354    0.0000 </r>
        <r>    9.7107    0.0000 </r>
        <r>   10.1190    0.0000 </r>
        <r>   10.1190    0.0000 </r>
       </set>
       <set comment="kpoint 16">
        <r>   -5.5680    1.0000 </r>
        <r>    3.1131    1.0000 </r>
        <r>    4.2244    1.0000 </r>
        <r>    4.2244    1.0000 </r>
        <r>    7.1440    0.0000 </r>
        <r>    9.5648    0.0000 </r>
        <r>   10.3273    0.0000 </r>
        <r>   10.3273    0.0000 </r>
       </set>
       <set comment="kpoint 17">
        <r>   -5.4817    1.0000 </r>
        <r>    2.8881    1.0000 </r>
        <r>    4.1163    1.0000 </r>
        <r>    4.1163    1.0000 </r>
        <r>    7.0546    0.0000 </r>
        <r>    9.3975    0.0000 </r>
        <r>   10.5391    0.0000 </r>
        <r>   10.5391    0.0000 </r>
       </set>
       <set comment="kpoint 18">
        <r>   -5.3900    1.0000 </r>
        <r>    2.6621    1.0000 </r>
        <r>    4.0115    1.0000 </r>
        <r>    4.0115    1.0000 </r>
        <r>    6.9679    0.0000 </r>
        <r>    9.2178    0.0000 </r>
        <r>   10.7542    0.0000 </r>
        <r>   10.7542    0.0000 </r>
       </set>
       <set comment="kpoint 19">
        <r>   -5.2930    1.0000 </r>
        <r>    2.4354    1.0000 </r>
        <r>    3.9101    1.0000 </r>
        <r>    3.9101    1.0000 </r>
        <r>    6.8842    0.0000 </r>
        <r>    9.0318    0.0000 </r>
        <r>   10.9718    0.0000 </r>
        <r>   10.9718    0.0000 </r>
       </set>
       <set comment="kpoint 20">
        <r>   -5.1906    1.0000 </r>
        <r>    2.2083    1.0000 </r>
        <r>    3.8124    1.0000 </r>
        <r>    3.8124    1.0000 </r>
        <r>    6.8041    0.0000 </r>
        <r>    8.8437    0.0000 </r>
        <r>   11.1918    0.0000 </r>
        <r>   11.1918    0.0000 </r>
       </set>
       <set comment="kpoint 21">
        <r>   -5.0830    1.0000 </r>
        <r>    1.9810    1.0000 </r>
        <r>    3.7186    1.0000 </r>
        <r>    3.7186    1.0000 </r>
        <r>    6.7280    0.0000 </r>
        <r>    8.6566    0.0000 </r>
        <r>   11.4141    0.0000 </r>
        <r>   11.4142    0.0000 </r>
       </set>
       <set comment="kpoint 22">
        <r>   -4.9703    1.0000 </r>
        <r>    1.7536    1.0000 </r>
        <r>    3.6290    1.0000 </r>
        <r>    3.6290    1.0000 </r>
        <r>    6.6563    0.0000 </r>
        <r>    8.4724    0.0000 </r>
        <r>   11.6384    0.0000 </r>
        <r>   11.6384    0.0000 </r>
       </set>
       <set comment="kpoint 23">
        <r>   -4.8524    1.0000 </r>
        <r>    1.5264    1.0000 </r>
        <r>    3.5436    1.0000 </r>
        <r>    3.5436    1.0000 </r>
        <r>    6.5892    0.0000 </r>
        <r>    8.2927    0.0000 </r>
        <r>   11.8646    0.0000 </r>
        <r>   11.8646    0.0000 </r>
       </set>
       <set comment="kpoint 24">
        <r>   -4.7294    1.0000 </r>
        <r>    1.2996    1.0000 </r>
        <r>    3.4626    1.0000 </r>
        <r>    3.4626    1.0000 </r>
        <r>    6.5270    0.0000 </r>
        <r>    8.1186    0.0000 </r>
        <r>   12.0925    0.0000 </r>
        <r>   12.0927    0.0000 </r>
       </set>
       <set comment="kpoint 25">
        <r>   -4.6013    1.0000 </r>
        <r>    1.0733    1.0000 </r>
        <r>    3.3860    1.0000 </r>
        <r>    3.3860    1.0000 </r>
        <r>    6.4700    0.0000 </r>
        <r>    7.9507    0.0000 </r>
        <r>   12.3220    0.0000 </r>
        <r>   12.3220    0.0000 </r>
       </set>
       <set comment="kpoint 26">
        <r>   -4.4683    1.0000 </r>
        <r>    0.8477    1.0000 </r>
        <r>    3.3141    1.0000 </r>
        <r>    3.3141    1.0000 </r>
        <r>    6.4185    0.0000 </r>
        <r>    7.7897    0.0000 </r>
        <r>   12.5531    0.0000 </r>
        <r>   12.5531    0.0000 </r>
       </set>
       <set comment="kpoint 27">
        <r>   -4.3304    1.0000 </r>
        <r>    0.6231    1.0000 </r>
        <r>    3.2468    1.0000 </r>
        <r>    3.2468    1.0000 </r>
        <r>    6.3724    0.0000 </r>
        <r>    7.6357    0.0000 </r>
        <r>   12.7855    0.0000 </r>
        <r>   12.7855    0.0000 </r>
       </set>
       <set comment="kpoint 28">
        <r>   -4.1877    1.0000 </r>
        <r>    0.3995    1.0000 </r>
        <r>    3.1842    1.0000 </r>
        <r>    3.1842    1.0000 </r>
        <r>    6.3323    0.0000 </r>
        <r>    7.4898    0.0000 </r>
        <r>   13.0194    0.0000 </r>
        <r>   13.0194    0.0000 </r>
       </set>
       <set comment="kpoint 29">
        <r>   -4.0402    1.0000 </r>
        <r>    0.1771    1.0000 </r>
        <r>    3.1264    1.0000 </r>
        <r>    3.1264    1.0000 </r>
        <r>    6.2983    0.0000 </r>
        <r>    7.3517    0.0000 </r>
        <r>   13.2545    0.0000 </r>
        <r>   13.2546    0.0000 </r>
       </set>
       <set comment="kpoint 30">
        <r>   -3.8881    1.0000 </r>
        <r>   -0.0437    1.0000 </r>
        <r>    3.0736    1.0000 </r>
        <r>    3.0736    1.0000 </r>
        <r>    6.2705    0.0000 </r>
        <r>    7.2215    0.0000 </r>
        <r>   13.4907    0.0000 </r>
        <r>   13.4907    0.0000 </r>
       </set>
       <set comment="kpoint 31">
        <r>   -3.7314    1.0000 </r>
        <r>   -0.2630    1.0000 </r>
        <r>    3.0256    1.0000 </r>
        <r>    3.0256    1.0000 </r>
        <r>    6.2491    0.0000 </r>
        <r>    7.0994    0.0000 </r>
        <r>   13.7277    0.0000 </r>
        <r>   13.7277    0.0000 </r>
       </set>
       <set comment="kpoint 32">
        <r>   -3.5702    1.0000 </r>
        <r>   -0.4804    1.0000 </r>
        <r>    2.9825    1.0000 </r>
        <r>    2.9825    1.0000 </r>
        <r>    6.2342    0.0000 </r>
        <r>    6.9855    0.0000 </r>
        <r>   13.9653    0.0000 </r>
        <r>   13.9654    0.0000 </r>
       </set>
       <set comment="kpoint 33">
        <r>   -3.4046    1.0000 </r>
        <r>   -0.6958    1.0000 </r>
        <r>    2.9445    1.0000 </r>
        <r>    2.9445    1.0000 </r>
        <r>    6.2259    0.0000 </r>
        <r>    6.8798    0.0000 </r>
        <r>   14.2031    0.0000 </r>
        <r>   14.2031    0.0000 </r>
       </set>
       <set comment="kpoint 34">
        <r>   -3.2347    1.0000 </r>
        <r>   -0.9090    1.0000 </r>
        <r>    2.9114    1.0000 </r>
        <r>    2.9114    1.0000 </r>
        <r>    6.2244    0.0000 </r>
        <r>    6.7823    0.0000 </r>
        <r>   14.4401    0.0000 </r>
        <r>   14.4402    0.0000 </r>
       </set>
       <set comment="kpoint 35">
        <r>   -3.0607    1.0000 </r>
        <r>   -1.1199    1.0000 </r>
        <r>    2.8834    1.0000 </r>
        <r>    2.8834    1.0000 </r>
        <r>    6.2299    0.0000 </r>
        <r>    6.6929    0.0000 </r>
        <r>   14.6752    0.0000 </r>
        <r>   14.6752    0.0000 </r>
       </set>
       <set comment="kpoint 36">
        <r>   -2.8826    1.0000 </r>
        <r>   -1.3281    1.0000 </r>
        <r>    2.8605    1.0000 </r>
        <r>    2.8605    1.0000 </r>
        <r>    6.2425    0.0000 </r>
        <r>    6.6116    0.0000 </r>
        <r>   14.9060    0.0000 </r>
        <r>   14.9060    0.0000 </r>
       </set>
       <set comment="kpoint 37">
        <r>   -2.7006    1.0000 </r>
        <r>   -1.5337    1.0000 </r>
        <r>    2.8426    1.0000 </r>
        <r>    2.8426    1.0000 </r>
        <r>    6.2622    0.0000 </r>
        <r>    6.5384    0.0000 </r>
        <r>   15.1273    0.0000 </r>
        <r>   15.1273    0.0000 </r>
       </set>
       <set comment="kpoint 38">
        <r>   -2.5148    1.0000 </r>
        <r>   -1.7363    1.0000 </r>
        <r>    2.8299    1.0000 </r>
        <r>    2.8299    1.0000 </r>
        <r>    6.2893    0.0000 </r>
        <r>    6.4730    0.0000 </r>
        <r>   15.3283    0.0000 </r>
        <r>   15.3284    0.0000 </r>
       </set>
       <set comment="kpoint 39">
        <r>   -2.3253    1.0000 </r>
        <r>   -1.9359    1.0000 </r>
        <r>    2.8222    1.0000 </r>
        <r>    2.8222    1.0000 </r>
        <r>    6.3238    0.0000 </r>
        <r>    6.4156    0.0000 </r>
        <r>   15.4845    0.0000 </r>
        <r>   15.4850    0.0000 </r>
       </set>
       <set comment="kpoint 40">
        <r>   -2.1323    1.0000 </r>
        <r>   -2.1323    1.0000 </r>
        <r>    2.8196    1.0000 </r>
        <r>    2.8196    1.0000 </r>
        <r>    6.3659    0.0000 </r>
        <r>    6.3659    0.0000 </r>
        <r>   15.5479    0.0000 </r>
        <r>   15.5486    0.0000 </r>
       </set>
       <set comment="kpoint 41">
        <r>   -2.1323    1.0000 </r>
        <r>   -2.1323    1.0000 </r>
        <r>    2.8196    1.0000 </r>
        <r>    2.8196    1.0000 </r>
        <r>    6.3659    0.0000 </r>
        <r>    6.3659    0.0000 </r>
        <r>   15.5478    0.0000 </r>
        <r>   15.5493    0.0000 </r>
       </set>
       <set comment="kpoint 42">
        <r>   -2.1321    1.0000 </r>
        <r>   -2.1321    1.0000 </r>
        <r>    2.8175    1.0000 </r>
        <r>    2.8175    1.0000 </r>
        <r>    6.3698    0.0000 </r>
        <r>    6.3698    0.0000 </r>
        <r>   15.5419    0.0000 </r>
        <r>   15.5420    0.0000 </r>
       </set>
       <set comment="kpoint 43">
        <r>   -2.1314    1.0000 </r>
        <r>   -2.1314    1.0000 </r>
        <r>    2.8112    1.0000 </r>
        <r>    2.8112    1.0000 </r>
        <r>    6.3815    0.0000 </r>
        <r>    6.3815    0.0000 </r>
        <r>   15.5233    0.0000 </r>
        <r>   15.5286    0.0000 </r>
       </set>
       <set comment="kpoint 44">
        <r>   -2.1303    1.0000 </r>
        <r>   -2.1303    1.0000 </r>
        <r>    2.8007    1.0000 </r>
        <r>    2.8007    1.0000 </r>
        <r>    6.4010    0.0000 </r>
        <r>    6.4010    0.0000 </r>
        <r>   15.4912    0.0000 </r>
        <r>   15.4915    0.0000 </r>
       </set>
       <set comment="kpoint 45">
        <r>   -2.1287    1.0000 </r>
        <r>   -2.1287    1.0000 </r>
        <r>    2.7863    1.0000 </r>
        <r>    2.7863    1.0000 </r>
        <r>    6.4279    0.0000 </r>
        <r>    6.4279    0.0000 </r>
        <r>   15.4444    0.0000 </r>
        <r>   15.4454    0.0000 </r>
       </set>
       <set comment="kpoint 46">
        <r>   -2.1267    1.0000 </r>
        <r>   -2.1267    1.0000 </r>
        <r>    2.7681    1.0000 </r>
        <r>    2.7681    1.0000 </r>
        <r>    6.4623    0.0000 </r>
        <r>    6.4623    0.0000 </r>
        <r>   15.3817    0.0000 </r>
        <r>   15.3843    0.0000 </r>
       </set>
       <set comment="kpoint 47">
        <r>   -2.1242    1.0000 </r>
        <r>   -2.1242    1.0000 </r>
        <r>    2.7464    1.0000 </r>
        <r>    2.7464    1.0000 </r>
        <r>    6.5037    0.0000 </r>
        <r>    6.5037    0.0000 </r>
        <r>   15.3030    0.0000 </r>
        <r>   15.3032    0.0000 </r>
       </set>
       <set comment="kpoint 48">
        <r>   -2.1213    1.0000 </r>
        <r>   -2.1213    1.0000 </r>
        <r>    2.7216    1.0000 </r>
        <r>    2.7216    1.0000 </r>
        <r>    6.5519    0.0000 </r>
        <r>    6.5519    0.0000 </r>
        <r>   15.2080    0.0000 </r>
        <r>   15.2081    0.0000 </r>
       </set>
       <set comment="kpoint 49">
        <r>   -2.1180    1.0000 </r>
        <r>   -2.1180    1.0000 </r>
        <r>    2.6939    1.0000 </r>
        <r>    2.6939    1.0000 </r>
        <r>    6.6065    0.0000 </r>
        <r>    6.6065    0.0000 </r>
        <r>   15.0988    0.0000 </r>
        <r>   15.0989    0.0000 </r>
       </set>
       <set comment="kpoint 50">
        <r>   -2.1144    1.0000 </r>
        <r>   -2.1144    1.0000 </r>
        <r>    2.6636    1.0000 </r>
        <r>    2.6636    1.0000 </r>
        <r>    6.6675    0.0000 </r>
        <r>    6.6675    0.0000 </r>
        <r>   14.9773    0.0000 </r>
        <r>   14.9773    0.0000 </r>
       </set>
       <set comment="kpoint 51">
        <r>   -2.1104    1.0000 </r>
        <r>   -2.1104    1.0000 </r>
        <r>    2.6312    1.0000 </r>
        <r>    2.6312    1.0000 </r>
        <r>    6.7341    0.0000 </r>
        <r>    6.7341    0.0000 </r>
        <r>   14.8455    0.0000 </r>
        <r>   14.8455    0.0000 </r>
       </set>
       <set comment="kpoint 52">
        <r>   -2.1060    1.0000 </r>
        <r>   -2.1060    1.0000 </r>
        <r>    2.5970    1.0000 </r>
        <r>    2.5970    1.0000 </r>
        <r>    6.8062    0.0000 </r>
        <r>    6.8062    0.0000 </r>
        <r>   14.7055    0.0000 </r>
        <r>   14.7057    0.0000 </r>
       </set>
       <set comment="kpoint 53">
        <r>   -2.1013    1.0000 </r>
        <r>   -2.1013    1.0000 </r>
        <r>    2.5612    1.0000 </r>
        <r>    2.5612    1.0000 </r>
        <r>    6.8837    0.0000 </r>
        <r>    6.8837    0.0000 </r>
        <r>   14.5593    0.0000 </r>
        <r>   14.5594    0.0000 </r>
       </set>
       <set comment="kpoint 54">
        <r>   -2.0963    1.0000 </r>
        <r>   -2.0963    1.0000 </r>
        <r>    2.5242    1.0000 </r>
        <r>    2.5242    1.0000 </r>
        <r>    6.9659    0.0000 </r>
        <r>    6.9659    0.0000 </r>
        <r>   14.4082    0.0000 </r>
        <r>   14.4082    0.0000 </r>
       </set>
       <set comment="kpoint 55">
        <r>   -2.0910    1.0000 </r>
        <r>   -2.0910    1.0000 </r>
        <r>    2.4864    1.0000 </r>
        <r>    2.4864    1.0000 </r>
        <r>    7.0527    0.0000 </r>
        <r>    7.0527    0.0000 </r>
        <r>   14.2532    0.0000 </r>
        <r>   14.2532    0.0000 </r>
       </set>
       <set comment="kpoint 56">
        <r>   -2.0855    1.0000 </r>
        <r>   -2.0855    1.0000 </r>
        <r>    2.4480    1.0000 </r>
        <r>    2.4480    1.0000 </r>
        <r>    7.1437    0.0000 </r>
        <r>    7.1437    0.0000 </r>
        <r>   14.0952    0.0000 </r>
        <r>   14.0952    0.0000 </r>
       </set>
       <set comment="kpoint 57">
        <r>   -2.0798    1.0000 </r>
        <r>   -2.0798    1.0000 </r>
        <r>    2.4093    1.0000 </r>
        <r>    2.4093    1.0000 </r>
        <r>    7.2388    0.0000 </r>
        <r>    7.2388    0.0000 </r>
        <r>   13.9351    0.0000 </r>
        <r>   13.9351    0.0000 </r>
       </set>
       <set comment="kpoint 58">
        <r>   -2.0739    1.0000 </r>
        <r>   -2.0739    1.0000 </r>
        <r>    2.3705    1.0000 </r>
        <r>    2.3705    1.0000 </r>
        <r>    7.3377    0.0000 </r>
        <r>    7.3377    0.0000 </r>
        <r>   13.7735    0.0000 </r>
        <r>   13.7735    0.0000 </r>
       </set>
       <set comment="kpoint 59">
        <r>   -2.0679    1.0000 </r>
        <r>   -2.0679    1.0000 </r>
        <r>    2.3319    1.0000 </r>
        <r>    2.3319    1.0000 </r>
        <r>    7.4402    0.0000 </r>
        <r>    7.4402    0.0000 </r>
        <r>   13.6106    0.0000 </r>
        <r>   13.6107    0.0000 </r>
       </set>
       <set comment="kpoint 60">
        <r>   -2.0617    1.0000 </r>
        <r>   -2.0617    1.0000 </r>
        <r>    2.2937    1.0000 </r>
        <r>    2.2937    1.0000 </r>
        <r>    7.5460    0.0000 </r>
        <r>    7.5460    0.0000 </r>
        <r>   13.4470    0.0000 </r>
        <r>   13.4471    0.0000 </r>
       </set>
       <set comment="kpoint 61">
        <r>   -2.0555    1.0000 </r>
        <r>   -2.0555    1.0000 </r>
        <r>    2.2562    1.0000 </r>
        <r>    2.2562    1.0000 </r>
        <r>    7.6550    0.0000 </r>
        <r>    7.6550    0.0000 </r>
        <r>   13.2830    0.0000 </r>
        <r>   13.2830    0.0000 </r>
       </set>
       <set comment="kpoint 62">
        <r>   -2.0493    1.0000 </r>
        <r>   -2.0493    1.0000 </r>
        <r>    2.2195    1.0000 </r>
        <r>    2.2195    1.0000 </r>
        <r>    7.7669    0.0000 </r>
        <r>    7.7669    0.0000 </r>
        <r>   13.1187    0.0000 </r>
        <r>   13.1187    0.0000 </r>
       </set>
       <set comment="kpoint 63">
        <r>   -2.0431    1.0000 </r>
        <r>   -2.0431    1.0000 </r>
        <r>    2.1838    1.0000 </r>
        <r>    2.1838    1.0000 </r>
        <r>    7.8817    0.0000 </r>
        <r>    7.8817    0.0000 </r>
        <r>   12.9544    0.0000 </r>
        <r>   12.9544    0.0000 </r>
       </set>
       <set comment="kpoint 64">
        <r>   -2.0369    1.0000 </r>
        <r>   -2.0369    1.0000 </r>
        <r>    2.1493    1.0000 </r>
        <r>    2.1493    1.0000 </r>
        <r>    7.9991    0.0000 </r>
        <r>    7.9991    0.0000 </r>
        <r>   12.7903    0.0000 </r>
        <r>   12.7903    0.0000 </r>
       </set>
       <set comment="kpoint 65">
        <r>   -2.0309    1.0000 </r>
        <r>   -2.0309    1.0000 </r>
        <r>    2.1161    1.0000 </r>
        <r>    2.1161    1.0000 </r>
        <r>    8.1189    0.0000 </r>
        <r>    8.1189    0.0000 </r>
        <r>   12.6266    0.0000 </r>
        <r>   12.6266    0.0000 </r>
       </set>
       <set comment="kpoint 66">
        <r>   -2.0250    1.0000 </r>
        <r>   -2.0250    1.0000 </r>
        <r>    2.0844    1.0000 </r>
        <r>    2.0844    1.0000 </r>
        <r>    8.2411    0.0000 </r>
        <r>    8.2411    0.0000 </r>
        <r>   12.4635    0.0000 </r>
        <r>   12.4635    0.0000 </r>
       </set>
       <set comment="kpoint 67">
        <r>   -2.0192    1.0000 </r>
        <r>   -2.0192    1.0000 </r>
        <r>    2.0543    1.0000 </r>
        <r>    2.0543    1.0000 </r>
        <r>    8.3654    0.0000 </r>
        <r>    8.3654    0.0000 </r>
        <r>   12.3011    0.0000 </r>
        <r>   12.3011    0.0000 </r>
       </set>
       <set comment="kpoint 68">
        <r>   -2.0137    1.0000 </r>
        <r>   -2.0137    1.0000 </r>
        <r>    2.0259    1.0000 </r>
        <r>    2.0259    1.0000 </r>
        <r>    8.4917    0.0000 </r>
        <r>    8.4917    0.0000 </r>
        <r>   12.1395    0.0000 </r>
        <r>   12.1395    0.0000 </r>
       </set>
       <set comment="kpoint 69">
        <r>   -2.0085    1.0000 </r>
        <r>   -2.0085    1.0000 </r>
        <r>    1.9994    1.0000 </r>
        <r>    1.9994    1.0000 </r>
        <r>    8.6198    0.0000 </r>
        <r>    8.6198    0.0000 </r>
        <r>   11.9790    0.0000 </r>
        <r>   11.9790    0.0000 </r>
       </set>
       <set comment="kpoint 70">
        <r>   -2.0035    1.0000 </r>
        <r>   -2.0035    1.0000 </r>
        <r>    1.9748    1.0000 </r>
        <r>    1.9748    1.0000 </r>
        <r>    8.7495    0.0000 </r>
        <r>    8.7495    0.0000 </r>
        <r>   11.8196    0.0000 </r>
        <r>   11.8196    0.0000 </r>
       </set>
       <set comment="kpoint 71">
        <r>   -1.9989    1.0000 </r>
        <r>   -1.9989    1.0000 </r>
        <r>    1.9523    1.0000 </r>
        <r>    1.9523    1.0000 </r>
        <r>    8.8806    0.0000 </r>
        <r>    8.8806    0.0000 </r>
        <r>   11.6619    0.0000 </r>
        <r>   11.6619    0.0000 </r>
       </set>
       <set comment="kpoint 72">
        <r>   -1.9947    1.0000 </r>
        <r>   -1.9947    1.0000 </r>
        <r>    1.9319    1.0000 </r>
        <r>    1.9319    1.0000 </r>
        <r>    9.0128    0.0000 </r>
        <r>    9.0128    0.0000 </r>
        <r>   11.5059    0.0000 </r>
        <r>   11.5059    0.0000 </r>
       </set>
       <set comment="kpoint 73">
        <r>   -1.9909    1.0000 </r>
        <r>   -1.9909    1.0000 </r>
        <r>    1.9138    1.0000 </r>
        <r>    1.9138    1.0000 </r>
        <r>    9.1455    0.0000 </r>
        <r>    9.1455    0.0000 </r>
        <r>   11.3522    0.0000 </r>
        <r>   11.3522    0.0000 </r>
       </set>
       <set comment="kpoint 74">
        <r>   -1.9875    1.0000 </r>
        <r>   -1.9875    1.0000 </r>
        <r>    1.8979    1.0000 </r>
        <r>    1.8979    1.0000 </r>
        <r>    9.2781    0.0000 </r>
        <r>    9.2781    0.0000 </r>
        <r>   11.2013    0.0000 </r>
        <r>   11.2013    0.0000 </r>
       </set>
       <set comment="kpoint 75">
        <r>   -1.9846    1.0000 </r>
        <r>   -1.9846    1.0000 </r>
        <r>    1.8844    1.0000 </r>
        <r>    1.8844    1.0000 </r>
        <r>    9.4097    0.0000 </r>
        <r>    9.4097    0.0000 </r>
        <r>   11.0543    0.0000 </r>
        <r>   11.0543    0.0000 </r>
       </set>
       <set comment="kpoint 76">
        <r>   -1.9822    1.0000 </r>
        <r>   -1.9822    1.0000 </r>
        <r>    1.8732    1.0000 </r>
        <r>    1.8732    1.0000 </r>
        <r>    9.5384    0.0000 </r>
        <r>    9.5384    0.0000 </r>
        <r>   10.9130    0.0000 </r>
        <r>   10.9130    0.0000 </r>
       </set>
       <set comment="kpoint 77">
        <r>   -1.9803    1.0000 </r>
        <r>   -1.9803    1.0000 </r>
        <r>    1.8645    1.0000 </r>
        <r>    1.8645    1.0000 </r>
        <r>    9.6608    0.0000 </r>
        <r>    9.6608    0.0000 </r>
        <r>   10.7808    0.0000 </r>
        <r>   10.7808    0.0000 </r>
       </set>
       <set comment="kpoint 78">
        <r>   -1.9790    1.0000 </r>
        <r>   -1.9790    1.0000 </r>
        <r>    1.8582    1.0000 </r>
        <r>    1.8582    1.0000 </r>
        <r>    9.7701    0.0000 </r>
        <r>    9.7701    0.0000 </r>
        <r>   10.6645    0.0000 </r>
        <r>   10.6645    0.0000 </r>
       </set>
       <set comment="kpoint 79">
        <r>   -1.9781    1.0000 </r>
        <r>   -1.9781    1.0000 </r>
        <r>    1.8545    1.0000 </r>
        <r>    1.8545    1.0000 </r>
        <r>    9.8522    0.0000 </r>
        <r>    9.8522    0.0000 </r>
        <r>   10.5781    0.0000 </r>
        <r>   10.5781    0.0000 </r>
       </set>
       <set comment="kpoint 80">
        <r>   -1.9779    1.0000 </r>
        <r>   -1.9779    1.0000 </r>
        <r>    1.8532    1.0000 </r>
        <r>    1.8532    1.0000 </r>
        <r>    9.8843    0.0000 </r>
        <r>    9.8843    0.0000 </r>
        <r>   10.5446    0.0000 </r>
        <r>   10.5446    0.0000 </r>
       </set>
       <set comment="kpoint 81">
        <r>   -1.9779    1.0000 </r>
        <r>   -1.9779    1.0000 </r>
        <r>    1.8532    1.0000 </r>
        <r>    1.8532    1.0000 </r>
        <r>    9.8843    0.0000 </r>
        <r>    9.8843    0.0000 </r>
        <r>   10.5446    0.0000 </r>
        <r>   10.5446    0.0000 </r>
       </set>
       <set comment="kpoint 82">
        <r>   -2.0603    1.0000 </r>
        <r>   -1.8962    1.0000 </r>
        <r>    1.7945    1.0000 </r>
        <r>    1.9169    1.0000 </r>
        <r>    9.8158    0.0000 </r>
        <r>    9.9337    0.0000 </r>
        <r>   10.4901    0.0000 </r>
        <r>   10.6241    0.0000 </r>
       </set>
       <set comment="kpoint 83">
        <r>   -2.1430    1.0000 </r>
        <r>   -1.8156    1.0000 </r>
        <r>    1.7413    1.0000 </r>
        <r>    1.9851    1.0000 </r>
        <r>    9.7386    0.0000 </r>
        <r>    9.9496    0.0000 </r>
        <r>   10.4749    0.0000 </r>
        <r>   10.7182    0.0000 </r>
       </set>
       <set comment="kpoint 84">
        <r>   -2.2257    1.0000 </r>
        <r>   -1.7368    1.0000 </r>
        <r>    1.6942    1.0000 </r>
        <r>    2.0573    1.0000 </r>
        <r>    9.6582    0.0000 </r>
        <r>    9.9254    0.0000 </r>
        <r>   10.5057    0.0000 </r>
        <r>   10.8214    0.0000 </r>
       </set>
       <set comment="kpoint 85">
        <r>   -2.3081    1.0000 </r>
        <r>   -1.6602    1.0000 </r>
        <r>    1.6537    1.0000 </r>
        <r>    2.1331    1.0000 </r>
        <r>    9.5775    0.0000 </r>
        <r>    9.8705    0.0000 </r>
        <r>   10.5728    0.0000 </r>
        <r>   10.9306    0.0000 </r>
       </set>
       <set comment="kpoint 86">
        <r>   -2.3897    1.0000 </r>
        <r>   -1.5864    1.0000 </r>
        <r>    1.6206    1.0000 </r>
        <r>    2.2121    1.0000 </r>
        <r>    9.4982    0.0000 </r>
        <r>    9.7984    0.0000 </r>
        <r>   10.6628    0.0000 </r>
        <r>   11.0445    0.0000 </r>
       </set>
       <set comment="kpoint 87">
        <r>   -2.4705    1.0000 </r>
        <r>   -1.5160    1.0000 </r>
        <r>    1.5954    1.0000 </r>
        <r>    2.2940    1.0000 </r>
        <r>    9.4212    0.0000 </r>
        <r>    9.7180    0.0000 </r>
        <r>   10.7668    0.0000 </r>
        <r>   11.1620    0.0000 </r>
       </set>
       <set comment="kpoint 88">
        <r>   -2.5501    1.0000 </r>
        <r>   -1.4497    1.0000 </r>
        <r>    1.5788    1.0000 </r>
        <r>    2.3783    1.0000 </r>
        <r>    9.3469    0.0000 </r>
        <r>    9.6339    0.0000 </r>
        <r>   10.8800    0.0000 </r>
        <r>   11.2826    0.0000 </r>
       </set>
       <set comment="kpoint 89">
        <r>   -2.6284    1.0000 </r>
        <r>   -1.3880    1.0000 </r>
        <r>    1.5715    1.0000 </r>
        <r>    2.4647    1.0000 </r>
        <r>    9.2760    0.0000 </r>
        <r>    9.5485    0.0000 </r>
        <r>   11.0001    0.0000 </r>
        <r>   11.4059    0.0000 </r>
       </set>
       <set comment="kpoint 90">
        <r>   -2.7053    1.0000 </r>
        <r>   -1.3316    1.0000 </r>
        <r>    1.5740    1.0000 </r>
        <r>    2.5529    1.0000 </r>
        <r>    9.2087    0.0000 </r>
        <r>    9.4630    0.0000 </r>
        <r>   11.1257    0.0000 </r>
        <r>   11.5315    0.0000 </r>
       </set>
       <set comment="kpoint 91">
        <r>   -2.7804    1.0000 </r>
        <r>   -1.2809    1.0000 </r>
        <r>    1.5867    1.0000 </r>
        <r>    2.6426    1.0000 </r>
        <r>    9.1452    0.0000 </r>
        <r>    9.3783    0.0000 </r>
        <r>   11.2560    0.0000 </r>
        <r>   11.6592    0.0000 </r>
       </set>
       <set comment="kpoint 92">
        <r>   -2.8538    1.0000 </r>
        <r>   -1.2362    1.0000 </r>
        <r>    1.6102    1.0000 </r>
        <r>    2.7334    1.0000 </r>
        <r>    9.0856    0.0000 </r>
        <r>    9.2946    0.0000 </r>
        <r>   11.3905    0.0000 </r>
        <r>   11.7887    0.0000 </r>
       </set>
       <set comment="kpoint 93">
        <r>   -2.9253    1.0000 </r>
        <r>   -1.1979    1.0000 </r>
        <r>    1.6445    1.0000 </r>
        <r>    2.8249    1.0000 </r>
        <r>    9.0302    0.0000 </r>
        <r>    9.2123    0.0000 </r>
        <r>   11.5288    0.0000 </r>
        <r>   11.9199    0.0000 </r>
       </set>
       <set comment="kpoint 94">
        <r>   -2.9948    1.0000 </r>
        <r>   -1.1659    1.0000 </r>
        <r>    1.6898    1.0000 </r>
        <r>    2.9170    1.0000 </r>
        <r>    8.9792    0.0000 </r>
        <r>    9.1314    0.0000 </r>
        <r>   11.6707    0.0000 </r>
        <r>   12.0525    0.0000 </r>
       </set>
       <set comment="kpoint 95">
        <r>   -3.0622    1.0000 </r>
        <r>   -1.1401    1.0000 </r>
        <r>    1.7458    1.0000 </r>
        <r>    3.0091    1.0000 </r>
        <r>    8.9326    0.0000 </r>
        <r>    9.0519    0.0000 </r>
        <r>   11.8158    0.0000 </r>
        <r>   12.1859    0.0000 </r>
       </set>
       <set comment="kpoint 96">
        <r>   -3.1274    1.0000 </r>
        <r>   -1.1204    1.0000 </r>
        <r>    1.8122    1.0000 </r>
        <r>    3.1011    1.0000 </r>
        <r>    8.8906    0.0000 </r>
        <r>    8.9739    0.0000 </r>
        <r>   11.9635    0.0000 </r>
        <r>   12.3204    0.0000 </r>
       </set>
       <set comment="kpoint 97">
        <r>   -3.1904    1.0000 </r>
        <r>   -1.1062    1.0000 </r>
        <r>    1.8888    1.0000 </r>
        <r>    3.1925    1.0000 </r>
        <r>    8.8533    0.0000 </r>
        <r>    8.8973    0.0000 </r>
        <r>   12.1085    0.0000 </r>
        <r>   12.3294    0.0000 </r>
       </set>
       <set comment="kpoint 98">
        <r>   -3.2510    1.0000 </r>
        <r>   -1.0972    1.0000 </r>
        <r>    1.9747    1.0000 </r>
        <r>    3.2830    1.0000 </r>
        <r>    8.8205    0.0000 </r>
        <r>    8.8218    0.0000 </r>
        <r>   12.0574    0.0000 </r>
        <r>   12.2874    0.0000 </r>
       </set>
       <set comment="kpoint 99">
        <r>   -3.3093    1.0000 </r>
        <r>   -1.0927    1.0000 </r>
        <r>    2.0695    1.0000 </r>
        <r>    3.3723    1.0000 </r>
        <r>    8.7474    0.0000 </r>
        <r>    8.7928    0.0000 </r>
        <r>   11.8187    0.0000 </r>
        <r>   12.4382    0.0000 </r>
       </set>
       <set comment="kpoint 100">
        <r>   -3.3651    1.0000 </r>
        <r>   -1.0922    1.0000 </r>
        <r>    2.1723    1.0000 </r>
        <r>    3.4600    1.0000 </r>
        <r>    8.6737    0.0000 </r>
        <r>    8.7701    0.0000 </r>
        <r>   11.5789    0.0000 </r>
        <r>   12.5988    0.0000 </r>
       </set>
       <set comment="kpoint 101">
        <r>   -3.4184    1.0000 </r>
        <r>   -1.0950    1.0000 </r>
        <r>    2.2825    1.0000 </r>
        <r>    3.5457    1.0000 </r>
        <r>    8.6005    0.0000 </r>
        <r>    8.7522    0.0000 </r>
        <r>   11.3431    0.0000 </r>
        <r>   12.7637    0.0000 </r>
       </set>
       <set comment="kpoint 102">
        <r>   -3.4692    1.0000 </r>
        <r>   -1.1007    1.0000 </r>
        <r>    2.3993    1.0000 </r>
        <r>    3.6291    1.0000 </r>
        <r>    8.5273    0.0000 </r>
        <r>    8.7393    0.0000 </r>
        <r>   11.1126    0.0000 </r>
        <r>   12.9328    0.0000 </r>
       </set>
       <set comment="kpoint 103">
        <r>   -3.5175    1.0000 </r>
        <r>   -1.1085    1.0000 </r>
        <r>    2.5220    1.0000 </r>
        <r>    3.7099    1.0000 </r>
        <r>    8.4537    0.0000 </r>
        <r>    8.7313    0.0000 </r>
        <r>   10.8887    0.0000 </r>
        <r>   13.1010    0.0000 </r>
       </set>
       <set comment="kpoint 104">
        <r>   -3.5631    1.0000 </r>
        <r>   -1.1181    1.0000 </r>
        <r>    2.6497    1.0000 </r>
        <r>    3.7876    1.0000 </r>
        <r>    8.3791    0.0000 </r>
        <r>    8.7281    0.0000 </r>
        <r>   10.6721    0.0000 </r>
        <r>   13.2809    0.0000 </r>
       </set>
       <set comment="kpoint 105">
        <r>   -3.6061    1.0000 </r>
        <r>   -1.1289    1.0000 </r>
        <r>    2.7818    1.0000 </r>
        <r>    3.8621    1.0000 </r>
        <r>    8.3028    0.0000 </r>
        <r>    8.7296    0.0000 </r>
        <r>   10.4640    0.0000 </r>
        <r>   13.4486    0.0000 </r>
       </set>
       <set comment="kpoint 106">
        <r>   -3.6464    1.0000 </r>
        <r>   -1.1406    1.0000 </r>
        <r>    2.9175    1.0000 </r>
        <r>    3.9329    1.0000 </r>
        <r>    8.2241    0.0000 </r>
        <r>    8.7354    0.0000 </r>
        <r>   10.2657    0.0000 </r>
        <r>   13.5397    0.0000 </r>
       </set>
       <set comment="kpoint 107">
        <r>   -3.6841    1.0000 </r>
        <r>   -1.1528    1.0000 </r>
        <r>    3.0560    1.0000 </r>
        <r>    3.9998    1.0000 </r>
        <r>    8.1421    0.0000 </r>
        <r>    8.7454    0.0000 </r>
        <r>   10.0787    0.0000 </r>
        <r>   13.6076    0.0000 </r>
       </set>
       <set comment="kpoint 108">
        <r>   -3.7191    1.0000 </r>
        <r>   -1.1652    1.0000 </r>
        <r>    3.1963    1.0000 </r>
        <r>    4.0625    1.0000 </r>
        <r>    8.0562    0.0000 </r>
        <r>    8.7592    0.0000 </r>
        <r>    9.9041    0.0000 </r>
        <r>   13.6591    0.0000 </r>
       </set>
       <set comment="kpoint 109">
        <r>   -3.7513    1.0000 </r>
        <r>   -1.1774    1.0000 </r>
        <r>    3.3376    1.0000 </r>
        <r>    4.1208    1.0000 </r>
        <r>    7.9657    0.0000 </r>
        <r>    8.7761    0.0000 </r>
        <r>    9.7434    0.0000 </r>
        <r>   13.6753    0.0000 </r>
       </set>
       <set comment="kpoint 110">
        <r>   -3.7808    1.0000 </r>
        <r>   -1.1893    1.0000 </r>
        <r>    3.4788    1.0000 </r>
        <r>    4.1746    1.0000 </r>
        <r>    7.8704    0.0000 </r>
        <r>    8.7958    0.0000 </r>
        <r>    9.5977    0.0000 </r>
        <r>   13.6737    0.0000 </r>
       </set>
       <set comment="kpoint 111">
        <r>   -3.8075    1.0000 </r>
        <r>   -1.2006    1.0000 </r>
        <r>    3.6186    1.0000 </r>
        <r>    4.2235    1.0000 </r>
        <r>    7.7707    0.0000 </r>
        <r>    8.8174    0.0000 </r>
        <r>    9.4677    0.0000 </r>
        <r>   13.6508    0.0000 </r>
       </set>
       <set comment="kpoint 112">
        <r>   -3.8314    1.0000 </r>
        <r>   -1.2111    1.0000 </r>
        <r>    3.7554    1.0000 </r>
        <r>    4.2676    1.0000 </r>
        <r>    7.6674    0.0000 </r>
        <r>    8.8402    0.0000 </r>
        <r>    9.3540    0.0000 </r>
        <r>   13.6120    0.0000 </r>
       </set>
       <set comment="kpoint 113">
        <r>   -3.8526    1.0000 </r>
        <r>   -1.2207    1.0000 </r>
        <r>    3.8874    1.0000 </r>
        <r>    4.3066    1.0000 </r>
        <r>    7.5625    0.0000 </r>
        <r>    8.8633    0.0000 </r>
        <r>    9.2564    0.0000 </r>
        <r>   13.5632    0.0000 </r>
       </set>
       <set comment="kpoint 114">
        <r>   -3.8709    1.0000 </r>
        <r>   -1.2293    1.0000 </r>
        <r>    4.0124    1.0000 </r>
        <r>    4.3405    1.0000 </r>
        <r>    7.4585    0.0000 </r>
        <r>    8.8860    0.0000 </r>
        <r>    9.1745    0.0000 </r>
        <r>   13.5104    0.0000 </r>
       </set>
       <set comment="kpoint 115">
        <r>   -3.8865    1.0000 </r>
        <r>   -1.2367    1.0000 </r>
        <r>    4.1276    1.0000 </r>
        <r>    4.3693    1.0000 </r>
        <r>    7.3590    0.0000 </r>
        <r>    8.9071    0.0000 </r>
        <r>    9.1073    0.0000 </r>
        <r>   13.4582    0.0000 </r>
       </set>
       <set comment="kpoint 116">
        <r>   -3.8992    1.0000 </r>
        <r>   -1.2429    1.0000 </r>
        <r>    4.2298    1.0000 </r>
        <r>    4.3929    1.0000 </r>
        <r>    7.2681    0.0000 </r>
        <r>    8.9260    0.0000 </r>
        <r>    9.0540    0.0000 </r>
        <r>   13.4107    0.0000 </r>
       </set>
       <set comment="kpoint 117">
        <r>   -3.9091    1.0000 </r>
        <r>   -1.2478    1.0000 </r>
        <r>    4.3154    1.0000 </r>
        <r>    4.4112    1.0000 </r>
        <r>    7.1902    0.0000 </r>
        <r>    8.9416    0.0000 </r>
        <r>    9.0137    0.0000 </r>
        <r>   13.3709    0.0000 </r>
       </set>
       <set comment="kpoint 118">
        <r>   -3.9162    1.0000 </r>
        <r>   -1.2514    1.0000 </r>
        <r>    4.3803    1.0000 </r>
        <r>    4.4243    1.0000 </r>
        <r>    7.1302    0.0000 </r>
        <r>    8.9534    0.0000 </r>
        <r>    8.9854    0.0000 </r>
        <r>   13.3409    0.0000 </r>
       </set>
       <set comment="kpoint 119">
        <r>   -3.9204    1.0000 </r>
        <r>   -1.2535    1.0000 </r>
        <r>    4.4209    1.0000 </r>
        <r>    4.4322    1.0000 </r>
        <r>    7.0922    0.0000 </r>
        <r>    8.9607    0.0000 </r>
        <r>    8.9687    0.0000 </r>
        <r>   13.3223    0.0000 </r>
       </set>
       <set comment="kpoint 120">
        <r>   -3.9218    1.0000 </r>
        <r>   -1.2542    1.0000 </r>
        <r>    4.4348    1.0000 </r>
        <r>    4.4348    1.0000 </r>
        <r>    7.0792    0.0000 </r>
        <r>    8.9632    0.0000 </r>
        <r>    8.9632    0.0000 </r>
        <r>   13.3160    0.0000 </r>
       </set>
       <set comment="kpoint 121">
        <r>   -3.9218    1.0000 </r>
        <r>   -1.2542    1.0000 </r>
        <r>    4.4348    1.0000 </r>
        <r>    4.4348    1.0000 </r>
        <r>    7.0792    0.0000 </r>
        <r>    8.9632    0.0000 </r>
        <r>    8.9632    0.0000 </r>
        <r>   13.3160    0.0000 </r>
       </set>
       <set comment="kpoint 122">
        <r>   -3.9309    1.0000 </r>
        <r>   -1.2411    1.0000 </r>
        <r>    4.4360    1.0000 </r>
        <r>    4.4360    1.0000 </r>
        <r>    7.0805    0.0000 </r>
        <r>    8.9645    0.0000 </r>
        <r>    8.9645    0.0000 </r>
        <r>   13.3180    0.0000 </r>
       </set>
       <set comment="kpoint 123">
        <r>   -3.9577    1.0000 </r>
        <r>   -1.2023    1.0000 </r>
        <r>    4.4395    1.0000 </r>
        <r>    4.4395    1.0000 </r>
        <r>    7.0846    0.0000 </r>
        <r>    8.9684    0.0000 </r>
        <r>    8.9684    0.0000 </r>
        <r>   13.3239    0.0000 </r>
       </set>
       <set comment="kpoint 124">
        <r>   -4.0007    1.0000 </r>
        <r>   -1.1394    1.0000 </r>
        <r>    4.4453    1.0000 </r>
        <r>    4.4453    1.0000 </r>
        <r>    7.0915    0.0000 </r>
        <r>    8.9748    0.0000 </r>
        <r>    8.9748    0.0000 </r>
        <r>   13.3337    0.0000 </r>
       </set>
       <set comment="kpoint 125">
        <r>   -4.0576    1.0000 </r>
        <r>   -1.0545    1.0000 </r>
        <r>    4.4535    1.0000 </r>
        <r>    4.4535    1.0000 </r>
        <r>    7.1009    0.0000 </r>
        <r>    8.9835    0.0000 </r>
        <r>    8.9835    0.0000 </r>
        <r>   13.3469    0.0000 </r>
       </set>
       <set comment="kpoint 126">
        <r>   -4.1261    1.0000 </r>
        <r>   -0.9500    1.0000 </r>
        <r>    4.4640    1.0000 </r>
        <r>    4.4640    1.0000 </r>
        <r>    7.1132    0.0000 </r>
        <r>    8.9944    0.0000 </r>
        <r>    8.9944    0.0000 </r>
        <r>   13.3633    0.0000 </r>
       </set>
       <set comment="kpoint 127">
        <r>   -4.2036    1.0000 </r>
        <r>   -0.8286    1.0000 </r>
        <r>    4.4768    1.0000 </r>
        <r>    4.4768    1.0000 </r>
        <r>    7.1280    0.0000 </r>
        <r>    9.0073    0.0000 </r>
        <r>    9.0073    0.0000 </r>
        <r>   13.3821    0.0000 </r>
       </set>
       <set comment="kpoint 128">
        <r>   -4.2881    1.0000 </r>
        <r>   -0.6923    1.0000 </r>
        <r>    4.4920    1.0000 </r>
        <r>    4.4920    1.0000 </r>
        <r>    7.1456    0.0000 </r>
        <r>    9.0219    0.0000 </r>
        <r>    9.0219    0.0000 </r>
        <r>   13.4024    0.0000 </r>
       </set>
       <set comment="kpoint 129">
        <r>   -4.3774    1.0000 </r>
        <r>   -0.5433    1.0000 </r>
        <r>    4.5094    1.0000 </r>
        <r>    4.5094    1.0000 </r>
        <r>    7.1658    0.0000 </r>
        <r>    9.0376    0.0000 </r>
        <r>    9.0376    0.0000 </r>
        <r>   13.4227    0.0000 </r>
       </set>
       <set comment="kpoint 130">
        <r>   -4.4700    1.0000 </r>
        <r>   -0.3831    1.0000 </r>
        <r>    4.5292    1.0000 </r>
        <r>    4.5292    1.0000 </r>
        <r>    7.1886    0.0000 </r>
        <r>    9.0543    0.0000 </r>
        <r>    9.0543    0.0000 </r>
        <r>   13.4410    0.0000 </r>
       </set>
       <set comment="kpoint 131">
        <r>   -4.5646    1.0000 </r>
        <r>   -0.2132    1.0000 </r>
        <r>    4.5512    1.0000 </r>
        <r>    4.5512    1.0000 </r>
        <r>    7.2139    0.0000 </r>
        <r>    9.0712    0.0000 </r>
        <r>    9.0712    0.0000 </r>
        <r>   13.4537    0.0000 </r>
       </set>
       <set comment="kpoint 132">
        <r>   -4.6601    1.0000 </r>
        <r>   -0.0347    1.0000 </r>
        <r>    4.5755    1.0000 </r>
        <r>    4.5755    1.0000 </r>
        <r>    7.2419    0.0000 </r>
        <r>    9.0877    0.0000 </r>
        <r>    9.0877    0.0000 </r>
        <r>   13.4571    0.0000 </r>
       </set>
       <set comment="kpoint 133">
        <r>   -4.7555    1.0000 </r>
        <r>    0.1514    1.0000 </r>
        <r>    4.6020    1.0000 </r>
        <r>    4.6020    1.0000 </r>
        <r>    7.2723    0.0000 </r>
        <r>    9.1033    0.0000 </r>
        <r>    9.1033    0.0000 </r>
        <r>   13.4398    0.0000 </r>
       </set>
       <set comment="kpoint 134">
        <r>   -4.8501    1.0000 </r>
        <r>    0.3444    1.0000 </r>
        <r>    4.6308    1.0000 </r>
        <r>    4.6308    1.0000 </r>
        <r>    7.3051    0.0000 </r>
        <r>    9.1171    0.0000 </r>
        <r>    9.1171    0.0000 </r>
        <r>   13.4097    0.0000 </r>
       </set>
       <set comment="kpoint 135">
        <r>   -4.9434    1.0000 </r>
        <r>    0.5436    1.0000 </r>
        <r>    4.6617    1.0000 </r>
        <r>    4.6617    1.0000 </r>
        <r>    7.3403    0.0000 </r>
        <r>    9.1283    0.0000 </r>
        <r>    9.1283    0.0000 </r>
        <r>   13.3175    0.0000 </r>
       </set>
       <set comment="kpoint 136">
        <r>   -5.0349    1.0000 </r>
        <r>    0.7484    1.0000 </r>
        <r>    4.6947    1.0000 </r>
        <r>    4.6947    1.0000 </r>
        <r>    7.3778    0.0000 </r>
        <r>    9.1360    0.0000 </r>
        <r>    9.1360    0.0000 </r>
        <r>   13.2132    0.0000 </r>
       </set>
       <set comment="kpoint 137">
        <r>   -5.1242    1.0000 </r>
        <r>    0.9583    1.0000 </r>
        <r>    4.7299    1.0000 </r>
        <r>    4.7299    1.0000 </r>
        <r>    7.4175    0.0000 </r>
        <r>    9.1393    0.0000 </r>
        <r>    9.1393    0.0000 </r>
        <r>   13.0599    0.0000 </r>
       </set>
       <set comment="kpoint 138">
        <r>   -5.2109    1.0000 </r>
        <r>    1.1729    1.0000 </r>
        <r>    4.7670    1.0000 </r>
        <r>    4.7670    1.0000 </r>
        <r>    7.4593    0.0000 </r>
        <r>    9.1373    0.0000 </r>
        <r>    9.1373    0.0000 </r>
        <r>   12.8771    0.0000 </r>
       </set>
       <set comment="kpoint 139">
        <r>   -5.2949    1.0000 </r>
        <r>    1.3918    1.0000 </r>
        <r>    4.8061    1.0000 </r>
        <r>    4.8061    1.0000 </r>
        <r>    7.5030    0.0000 </r>
        <r>    9.1290    0.0000 </r>
        <r>    9.1290    0.0000 </r>
        <r>   12.6763    0.0000 </r>
       </set>
       <set comment="kpoint 140">
        <r>   -5.3758    1.0000 </r>
        <r>    1.6146    1.0000 </r>
        <r>    4.8471    1.0000 </r>
        <r>    4.8471    1.0000 </r>
        <r>    7.5485    0.0000 </r>
        <r>    9.1139    0.0000 </r>
        <r>    9.1139    0.0000 </r>
        <r>   12.4692    0.0000 </r>
       </set>
       <set comment="kpoint 141">
        <r>   -5.4536    1.0000 </r>
        <r>    1.8409    1.0000 </r>
        <r>    4.8897    1.0000 </r>
        <r>    4.8897    1.0000 </r>
        <r>    7.5957    0.0000 </r>
        <r>    9.0913    0.0000 </r>
        <r>    9.0913    0.0000 </r>
        <r>   12.2539    0.0000 </r>
       </set>
       <set comment="kpoint 142">
        <r>   -5.5279    1.0000 </r>
        <r>    2.0703    1.0000 </r>
        <r>    4.9340    1.0000 </r>
        <r>    4.9340    1.0000 </r>
        <r>    7.6443    0.0000 </r>
        <r>    9.0611    0.0000 </r>
        <r>    9.0611    0.0000 </r>
        <r>   12.0332    0.0000 </r>
       </set>
       <set comment="kpoint 143">
        <r>   -5.5988    1.0000 </r>
        <r>    2.3025    1.0000 </r>
        <r>    4.9796    1.0000 </r>
        <r>    4.9796    1.0000 </r>
        <r>    7.6940    0.0000 </r>
        <r>    9.0232    0.0000 </r>
        <r>    9.0232    0.0000 </r>
        <r>   11.8085    0.0000 </r>
       </set>
       <set comment="kpoint 144">
        <r>   -5.6660    1.0000 </r>
        <r>    2.5371    1.0000 </r>
        <r>    5.0266    1.0000 </r>
        <r>    5.0266    1.0000 </r>
        <r>    7.7446    0.0000 </r>
        <r>    8.9779    0.0000 </r>
        <r>    8.9779    0.0000 </r>
        <r>   11.5810    0.0000 </r>
       </set>
       <set comment="kpoint 145">
        <r>   -5.7296    1.0000 </r>
        <r>    2.7735    1.0000 </r>
        <r>    5.0745    1.0000 </r>
        <r>    5.0745    1.0000 </r>
        <r>    7.7958    0.0000 </r>
        <r>    8.9260    0.0000 </r>
        <r>    8.9260    0.0000 </r>
        <r>   11.3515    0.0000 </r>
       </set>
       <set comment="kpoint 146">
        <r>   -5.7893    1.0000 </r>
        <r>    3.0114    1.0000 </r>
        <r>    5.1233    1.0000 </r>
        <r>    5.1233    1.0000 </r>
        <r>    7.8472    0.0000 </r>
        <r>    8.8682    0.0000 </r>
        <r>    8.8682    0.0000 </r>
        <r>   11.1207    0.0000 </r>
       </set>
       <set comment="kpoint 147">
        <r>   -5.8452    1.0000 </r>
        <r>    3.2501    1.0000 </r>
        <r>    5.1724    1.0000 </r>
        <r>    5.1724    1.0000 </r>
        <r>    7.8983    0.0000 </r>
        <r>    8.8056    0.0000 </r>
        <r>    8.8056    0.0000 </r>
        <r>   10.8893    0.0000 </r>
       </set>
       <set comment="kpoint 148">
        <r>   -5.8972    1.0000 </r>
        <r>    3.4890    1.0000 </r>
        <r>    5.2217    1.0000 </r>
        <r>    5.2217    1.0000 </r>
        <r>    7.9487    0.0000 </r>
        <r>    8.7396    0.0000 </r>
        <r>    8.7396    0.0000 </r>
        <r>   10.6581    0.0000 </r>
       </set>
       <set comment="kpoint 149">
        <r>   -5.9451    1.0000 </r>
        <r>    3.7272    1.0000 </r>
        <r>    5.2707    1.0000 </r>
        <r>    5.2707    1.0000 </r>
        <r>    7.9977    0.0000 </r>
        <r>    8.6716    0.0000 </r>
        <r>    8.6716    0.0000 </r>
        <r>   10.4279    0.0000 </r>
       </set>
       <set comment="kpoint 150">
        <r>   -5.9890    1.0000 </r>
        <r>    3.9636    1.0000 </r>
        <r>    5.3189    1.0000 </r>
        <r>    5.3189    1.0000 </r>
        <r>    8.0445    0.0000 </r>
        <r>    8.6028    0.0000 </r>
        <r>    8.6028    0.0000 </r>
        <r>   10.2000    0.0000 </r>
       </set>
       <set comment="kpoint 151">
        <r>   -6.0289    1.0000 </r>
        <r>    4.1972    1.0000 </r>
        <r>    5.3657    1.0000 </r>
        <r>    5.3657    1.0000 </r>
        <r>    8.0883    0.0000 </r>
        <r>    8.5347    0.0000 </r>
        <r>    8.5347    0.0000 </r>
        <r>    9.9758    0.0000 </r>
       </set>
       <set comment="kpoint 152">
        <r>   -6.0646    1.0000 </r>
        <r>    4.4260    1.0000 </r>
        <r>    5.4106    1.0000 </r>
        <r>    5.4106    1.0000 </r>
        <r>    8.1281    0.0000 </r>
        <r>    8.4688    0.0000 </r>
        <r>    8.4688    0.0000 </r>
        <r>    9.7574    0.0000 </r>
       </set>
       <set comment="kpoint 153">
        <r>   -6.0962    1.0000 </r>
        <r>    4.6479    1.0000 </r>
        <r>    5.4529    1.0000 </r>
        <r>    5.4529    1.0000 </r>
        <r>    8.1625    0.0000 </r>
        <r>    8.4063    0.0000 </r>
        <r>    8.4063    0.0000 </r>
        <r>    9.5476    0.0000 </r>
       </set>
       <set comment="kpoint 154">
        <r>   -6.1236    1.0000 </r>
        <r>    4.8600    1.0000 </r>
        <r>    5.4918    1.0000 </r>
        <r>    5.4918    1.0000 </r>
        <r>    8.1898    0.0000 </r>
        <r>    8.3488    0.0000 </r>
        <r>    8.3488    0.0000 </r>
        <r>    9.3503    0.0000 </r>
       </set>
       <set comment="kpoint 155">
        <r>   -6.1469    1.0000 </r>
        <r>    5.0584    1.0000 </r>
        <r>    5.5266    1.0000 </r>
        <r>    5.5266    1.0000 </r>
        <r>    8.2079    0.0000 </r>
        <r>    8.2973    0.0000 </r>
        <r>    8.2973    0.0000 </r>
        <r>    9.1709    0.0000 </r>
       </set>
       <set comment="kpoint 156">
        <r>   -6.1659    1.0000 </r>
        <r>    5.2377    1.0000 </r>
        <r>    5.5565    1.0000 </r>
        <r>    5.5565    1.0000 </r>
        <r>    8.2147    0.0000 </r>
        <r>    8.2533    0.0000 </r>
        <r>    8.2533    0.0000 </r>
        <r>    9.0163    0.0000 </r>
       </set>
       <set comment="kpoint 157">
        <r>   -6.1807    1.0000 </r>
        <r>    5.3911    1.0000 </r>
        <r>    5.5807    1.0000 </r>
        <r>    5.5807    1.0000 </r>
        <r>    8.2091    0.0000 </r>
        <r>    8.2178    0.0000 </r>
        <r>    8.2178    0.0000 </r>
        <r>    8.8936    0.0000 </r>
       </set>
       <set comment="kpoint 158">
        <r>   -6.1913    1.0000 </r>
        <r>    5.5103    1.0000 </r>
        <r>    5.5985    1.0000 </r>
        <r>    5.5985    1.0000 </r>
        <r>    8.1916    0.0000 </r>
        <r>    8.1916    0.0000 </r>
        <r>    8.1938    0.0000 </r>
        <r>    8.8080    0.0000 </r>
       </set>
       <set comment="kpoint 159">
        <r>   -6.1977    1.0000 </r>
        <r>    5.5867    1.0000 </r>
        <r>    5.6094    1.0000 </r>
        <r>    5.6094    1.0000 </r>
        <r>    8.1757    0.0000 </r>
        <r>    8.1757    0.0000 </r>
        <r>    8.1774    0.0000 </r>
        <r>    8.7592    0.0000 </r>
       </set>
       <set comment="kpoint 160">
        <r>   -6.1998    1.0000 </r>
        <r>    5.6131    1.0000 </r>
        <r>    5.6131    1.0000 </r>
        <r>    5.6131    1.0000 </r>
        <r>    8.1703    0.0000 </r>
        <r>    8.1703    0.0000 </r>
        <r>    8.1703    0.0000 </r>
        <r>    8.7437    0.0000 </r>
       </set>
       <set comment="kpoint 161">
        <r>   -6.1998    1.0000 </r>
        <r>    5.6131    1.0000 </r>
        <r>    5.6131    1.0000 </r>
        <r>    5.6131    1.0000 </r>
        <r>    8.1703    0.0000 </r>
        <r>    8.1703    0.0000 </r>
        <r>    8.1703    0.0000 </r>
        <r>    8.7437    0.0000 </r>
       </set>
       <set comment="kpoint 162">
        <r>   -6.1966    1.0000 </r>
        <r>    5.5778    1.0000 </r>
        <r>    5.5993    1.0000 </r>
        <r>    5.6117    1.0000 </r>
        <r>    8.1736    0.0000 </r>
        <r>    8.1767    0.0000 </r>
        <r>    8.1872    0.0000 </r>
        <r>    8.7670    0.0000 </r>
       </set>
       <set comment="kpoint 163">
        <r>   -6.1871    1.0000 </r>
        <r>    5.4772    1.0000 </r>
        <r>    5.5587    1.0000 </r>
        <r>    5.6074    1.0000 </r>
        <r>    8.1834    0.0000 </r>
        <r>    8.1957    0.0000 </r>
        <r>    8.2294    0.0000 </r>
        <r>    8.8398    0.0000 </r>
       </set>
       <set comment="kpoint 164">
        <r>   -6.1712    1.0000 </r>
        <r>    5.3243    1.0000 </r>
        <r>    5.4928    1.0000 </r>
        <r>    5.6002    1.0000 </r>
        <r>    8.1998    0.0000 </r>
        <r>    8.2264    0.0000 </r>
        <r>    8.2795    0.0000 </r>
        <r>    8.9661    0.0000 </r>
       </set>
       <set comment="kpoint 165">
        <r>   -6.1490    1.0000 </r>
        <r>    5.1336    1.0000 </r>
        <r>    5.4041    1.0000 </r>
        <r>    5.5900    1.0000 </r>
        <r>    8.2227    0.0000 </r>
        <r>    8.2674    0.0000 </r>
        <r>    8.3253    0.0000 </r>
        <r>    9.1423    0.0000 </r>
       </set>
       <set comment="kpoint 166">
        <r>   -6.1204    1.0000 </r>
        <r>    4.9173    1.0000 </r>
        <r>    5.2954    1.0000 </r>
        <r>    5.5765    1.0000 </r>
        <r>    8.2521    0.0000 </r>
        <r>    8.3175    0.0000 </r>
        <r>    8.3643    0.0000 </r>
        <r>    9.3571    0.0000 </r>
       </set>
       <set comment="kpoint 167">
        <r>   -6.0856    1.0000 </r>
        <r>    4.6843    1.0000 </r>
        <r>    5.1697    1.0000 </r>
        <r>    5.5596    1.0000 </r>
        <r>    8.2881    0.0000 </r>
        <r>    8.3754    0.0000 </r>
        <r>    8.3982    0.0000 </r>
        <r>    9.5972    0.0000 </r>
       </set>
       <set comment="kpoint 168">
        <r>   -6.0445    1.0000 </r>
        <r>    4.4410    1.0000 </r>
        <r>    5.0299    1.0000 </r>
        <r>    5.5390    1.0000 </r>
        <r>    8.3307    0.0000 </r>
        <r>    8.4291    0.0000 </r>
        <r>    8.4401    0.0000 </r>
        <r>    9.8502    0.0000 </r>
       </set>
       <set comment="kpoint 169">
        <r>   -5.9972    1.0000 </r>
        <r>    4.1918    1.0000 </r>
        <r>    4.8786    1.0000 </r>
        <r>    5.5144    1.0000 </r>
        <r>    8.3797    0.0000 </r>
        <r>    8.4584    0.0000 </r>
        <r>    8.5109    0.0000 </r>
        <r>   10.1053    0.0000 </r>
       </set>
       <set comment="kpoint 170">
        <r>   -5.9437    1.0000 </r>
        <r>    3.9398    1.0000 </r>
        <r>    4.7182    1.0000 </r>
        <r>    5.4856    1.0000 </r>
        <r>    8.4353    0.0000 </r>
        <r>    8.4865    0.0000 </r>
        <r>    8.5872    0.0000 </r>
        <r>   10.3517    0.0000 </r>
       </set>
       <set comment="kpoint 171">
        <r>   -5.8841    1.0000 </r>
        <r>    3.6871    1.0000 </r>
        <r>    4.5509    1.0000 </r>
        <r>    5.4523    1.0000 </r>
        <r>    8.4974    0.0000 </r>
        <r>    8.5135    0.0000 </r>
        <r>    8.6688    0.0000 </r>
        <r>   10.5782    0.0000 </r>
       </set>
       <set comment="kpoint 172">
        <r>   -5.8185    1.0000 </r>
        <r>    3.4353    1.0000 </r>
        <r>    4.3784    1.0000 </r>
        <r>    5.4143    1.0000 </r>
        <r>    8.5389    0.0000 </r>
        <r>    8.5660    0.0000 </r>
        <r>    8.7555    0.0000 </r>
        <r>   10.7739    0.0000 </r>
       </set>
       <set comment="kpoint 173">
        <r>   -5.7469    1.0000 </r>
        <r>    3.1855    1.0000 </r>
        <r>    4.2025    1.0000 </r>
        <r>    5.3713    1.0000 </r>
        <r>    8.5618    0.0000 </r>
        <r>    8.6411    0.0000 </r>
        <r>    8.8473    0.0000 </r>
        <r>   10.9297    0.0000 </r>
       </set>
       <set comment="kpoint 174">
        <r>   -5.6694    1.0000 </r>
        <r>    2.9387    1.0000 </r>
        <r>    4.0245    1.0000 </r>
        <r>    5.3233    1.0000 </r>
        <r>    8.5813    0.0000 </r>
        <r>    8.7226    0.0000 </r>
        <r>    8.9441    0.0000 </r>
        <r>   11.0424    0.0000 </r>
       </set>
       <set comment="kpoint 175">
        <r>   -5.5861    1.0000 </r>
        <r>    2.6954    1.0000 </r>
        <r>    3.8457    1.0000 </r>
        <r>    5.2701    1.0000 </r>
        <r>    8.5959    0.0000 </r>
        <r>    8.8106    0.0000 </r>
        <r>    9.0461    0.0000 </r>
        <r>   11.1154    0.0000 </r>
       </set>
       <set comment="kpoint 176">
        <r>   -5.4971    1.0000 </r>
        <r>    2.4563    1.0000 </r>
        <r>    3.6672    1.0000 </r>
        <r>    5.2118    1.0000 </r>
        <r>    8.6043    0.0000 </r>
        <r>    8.9051    0.0000 </r>
        <r>    9.1533    0.0000 </r>
        <r>   11.1575    0.0000 </r>
       </set>
       <set comment="kpoint 177">
        <r>   -5.4025    1.0000 </r>
        <r>    2.2216    1.0000 </r>
        <r>    3.4898    1.0000 </r>
        <r>    5.1485    1.0000 </r>
        <r>    8.6050    0.0000 </r>
        <r>    9.0060    0.0000 </r>
        <r>    9.2659    0.0000 </r>
        <r>   11.1798    0.0000 </r>
       </set>
       <set comment="kpoint 178">
        <r>   -5.3026    1.0000 </r>
        <r>    1.9918    1.0000 </r>
        <r>    3.3146    1.0000 </r>
        <r>    5.0803    1.0000 </r>
        <r>    8.5965    0.0000 </r>
        <r>    9.1132    0.0000 </r>
        <r>    9.3839    0.0000 </r>
        <r>   11.1921    0.0000 </r>
       </set>
       <set comment="kpoint 179">
        <r>   -5.1974    1.0000 </r>
        <r>    1.7671    1.0000 </r>
        <r>    3.1422    1.0000 </r>
        <r>    5.0074    1.0000 </r>
        <r>    8.5775    0.0000 </r>
        <r>    9.2269    0.0000 </r>
        <r>    9.5073    0.0000 </r>
        <r>   11.2027    0.0000 </r>
       </set>
       <set comment="kpoint 180">
        <r>   -5.0871    1.0000 </r>
        <r>    1.5477    1.0000 </r>
        <r>    2.9734    1.0000 </r>
        <r>    4.9304    1.0000 </r>
        <r>    8.5474    0.0000 </r>
        <r>    9.3470    0.0000 </r>
        <r>    9.6364    0.0000 </r>
        <r>   11.2180    0.0000 </r>
       </set>
       <set comment="kpoint 181">
        <r>   -4.9720    1.0000 </r>
        <r>    1.3338    1.0000 </r>
        <r>    2.8088    1.0000 </r>
        <r>    4.8494    1.0000 </r>
        <r>    8.5056    0.0000 </r>
        <r>    9.4733    0.0000 </r>
        <r>    9.7710    0.0000 </r>
        <r>   11.2420    0.0000 </r>
       </set>
       <set comment="kpoint 182">
        <r>   -4.8523    1.0000 </r>
        <r>    1.1256    1.0000 </r>
        <r>    2.6491    1.0000 </r>
        <r>    4.7651    1.0000 </r>
        <r>    8.4523    0.0000 </r>
        <r>    9.6060    0.0000 </r>
        <r>    9.9112    0.0000 </r>
        <r>   11.2776    0.0000 </r>
       </set>
       <set comment="kpoint 183">
        <r>   -4.7282    1.0000 </r>
        <r>    0.9233    1.0000 </r>
        <r>    2.4949    1.0000 </r>
        <r>    4.6779    1.0000 </r>
        <r>    8.3884    0.0000 </r>
        <r>    9.7449    0.0000 </r>
        <r>   10.0572    0.0000 </r>
        <r>   11.3264    0.0000 </r>
       </set>
       <set comment="kpoint 184">
        <r>   -4.6002    1.0000 </r>
        <r>    0.7268    1.0000 </r>
        <r>    2.3468    1.0000 </r>
        <r>    4.5883    1.0000 </r>
        <r>    8.3149    0.0000 </r>
        <r>    9.8900    0.0000 </r>
        <r>   10.2088    0.0000 </r>
        <r>   11.3886    0.0000 </r>
       </set>
       <set comment="kpoint 185">
        <r>   -4.4686    1.0000 </r>
        <r>    0.5365    1.0000 </r>
        <r>    2.2054    1.0000 </r>
        <r>    4.4970    1.0000 </r>
        <r>    8.2333    0.0000 </r>
        <r>   10.0412    0.0000 </r>
        <r>   10.3659    0.0000 </r>
        <r>   11.4644    0.0000 </r>
       </set>
       <set comment="kpoint 186">
        <r>   -4.3337    1.0000 </r>
        <r>    0.3522    1.0000 </r>
        <r>    2.0713    1.0000 </r>
        <r>    4.4044    1.0000 </r>
        <r>    8.1449    0.0000 </r>
        <r>   10.1986    0.0000 </r>
        <r>   10.5286    0.0000 </r>
        <r>   11.5540    0.0000 </r>
       </set>
       <set comment="kpoint 187">
        <r>   -4.1962    1.0000 </r>
        <r>    0.1742    1.0000 </r>
        <r>    1.9451    1.0000 </r>
        <r>    4.3111    1.0000 </r>
        <r>    8.0514    0.0000 </r>
        <r>   10.3620    0.0000 </r>
        <r>   10.6966    0.0000 </r>
        <r>   11.6540    0.0000 </r>
       </set>
       <set comment="kpoint 188">
        <r>   -4.0566    1.0000 </r>
        <r>    0.0024    1.0000 </r>
        <r>    1.8276    1.0000 </r>
        <r>    4.2177    1.0000 </r>
        <r>    7.9541    0.0000 </r>
        <r>   10.5315    0.0000 </r>
        <r>   10.8696    0.0000 </r>
        <r>   11.7658    0.0000 </r>
       </set>
       <set comment="kpoint 189">
        <r>   -3.9155    1.0000 </r>
        <r>   -0.1630    1.0000 </r>
        <r>    1.7194    1.0000 </r>
        <r>    4.1246    1.0000 </r>
        <r>    7.8545    0.0000 </r>
        <r>   10.7069    0.0000 </r>
        <r>   11.0469    0.0000 </r>
        <r>   11.8883    0.0000 </r>
       </set>
       <set comment="kpoint 190">
        <r>   -3.7737    1.0000 </r>
        <r>   -0.3219    1.0000 </r>
        <r>    1.6214    1.0000 </r>
        <r>    4.0323    1.0000 </r>
        <r>    7.7537    0.0000 </r>
        <r>   10.8882    0.0000 </r>
        <r>   11.2277    0.0000 </r>
        <r>   12.0198    0.0000 </r>
       </set>
       <set comment="kpoint 191">
        <r>   -3.6321    1.0000 </r>
        <r>   -0.4745    1.0000 </r>
        <r>    1.5345    1.0000 </r>
        <r>    3.9413    1.0000 </r>
        <r>    7.6526    0.0000 </r>
        <r>   11.0753    0.0000 </r>
        <r>   11.4091    0.0000 </r>
        <r>   12.1602    0.0000 </r>
       </set>
       <set comment="kpoint 192">
        <r>   -3.4916    1.0000 </r>
        <r>   -0.6205    1.0000 </r>
        <r>    1.4595    1.0000 </r>
        <r>    3.8519    1.0000 </r>
        <r>    7.5523    0.0000 </r>
        <r>   11.2680    0.0000 </r>
        <r>   11.5854    0.0000 </r>
        <r>   12.3086    0.0000 </r>
       </set>
       <set comment="kpoint 193">
        <r>   -3.3532    1.0000 </r>
        <r>   -0.7600    1.0000 </r>
        <r>    1.3975    1.0000 </r>
        <r>    3.7647    1.0000 </r>
        <r>    7.4535    0.0000 </r>
        <r>   11.4663    0.0000 </r>
        <r>   11.7368    0.0000 </r>
        <r>   12.4660    0.0000 </r>
       </set>
       <set comment="kpoint 194">
        <r>   -3.2182    1.0000 </r>
        <r>   -0.8929    1.0000 </r>
        <r>    1.3496    1.0000 </r>
        <r>    3.6798    1.0000 </r>
        <r>    7.3568    0.0000 </r>
        <r>   11.6699    0.0000 </r>
        <r>   11.7892    0.0000 </r>
        <r>   12.5187    0.0000 </r>
       </set>
       <set comment="kpoint 195">
        <r>   -3.0878    1.0000 </r>
        <r>   -1.0192    1.0000 </r>
        <r>    1.3169    1.0000 </r>
        <r>    3.5978    1.0000 </r>
        <r>    7.2628    0.0000 </r>
        <r>   11.6080    0.0000 </r>
        <r>   11.8787    0.0000 </r>
        <r>   12.4965    0.0000 </r>
       </set>
       <set comment="kpoint 196">
        <r>   -2.9633    1.0000 </r>
        <r>   -1.1388    1.0000 </r>
        <r>    1.3004    1.0000 </r>
        <r>    3.5187    1.0000 </r>
        <r>    7.1719    0.0000 </r>
        <r>   11.2709    0.0000 </r>
        <r>   12.0927    0.0000 </r>
        <r>   12.6410    0.0000 </r>
       </set>
       <set comment="kpoint 197">
        <r>   -2.8459    1.0000 </r>
        <r>   -1.2517    1.0000 </r>
        <r>    1.3012    1.0000 </r>
        <r>    3.4430    1.0000 </r>
        <r>    7.0847    0.0000 </r>
        <r>   10.8907    0.0000 </r>
        <r>   12.3114    0.0000 </r>
        <r>   12.8407    0.0000 </r>
       </set>
       <set comment="kpoint 198">
        <r>   -2.7368    1.0000 </r>
        <r>   -1.3579    1.0000 </r>
        <r>    1.3201    1.0000 </r>
        <r>    3.3708    1.0000 </r>
        <r>    7.0015    0.0000 </r>
        <r>   10.5007    0.0000 </r>
        <r>   12.5348    0.0000 </r>
        <r>   13.0581    0.0000 </r>
       </set>
       <set comment="kpoint 199">
        <r>   -2.6370    1.0000 </r>
        <r>   -1.4574    1.0000 </r>
        <r>    1.3576    1.0000 </r>
        <r>    3.3024    1.0000 </r>
        <r>    6.9227    0.0000 </r>
        <r>   10.1110    0.0000 </r>
        <r>   12.7623    0.0000 </r>
        <r>   13.2907    0.0000 </r>
       </set>
       <set comment="kpoint 200">
        <r>   -2.5472    1.0000 </r>
        <r>   -1.5501    1.0000 </r>
        <r>    1.4140    1.0000 </r>
        <r>    3.2380    1.0000 </r>
        <r>    6.8483    0.0000 </r>
        <r>    9.7258    0.0000 </r>
        <r>   12.9939    0.0000 </r>
        <r>   13.5299    0.0000 </r>
       </set>
       <set comment="kpoint 201">
        <r>   -2.5472    1.0000 </r>
        <r>   -1.5501    1.0000 </r>
        <r>    1.4140    1.0000 </r>
        <r>    3.2380    1.0000 </r>
        <r>    6.8483    0.0000 </r>
        <r>    9.7258    0.0000 </r>
        <r>   12.9938    0.0000 </r>
        <r>   13.5299    0.0000 </r>
       </set>
       <set comment="kpoint 202">
        <r>   -2.5745    1.0000 </r>
        <r>   -1.5206    1.0000 </r>
        <r>    1.3943    1.0000 </r>
        <r>    3.2497    1.0000 </r>
        <r>    6.8866    0.0000 </r>
        <r>    9.8545    0.0000 </r>
        <r>   12.8720    0.0000 </r>
        <r>   13.5055    0.0000 </r>
       </set>
       <set comment="kpoint 203">
        <r>   -2.5999    1.0000 </r>
        <r>   -1.4916    1.0000 </r>
        <r>    1.3791    1.0000 </r>
        <r>    3.2436    1.0000 </r>
        <r>    6.9530    0.0000 </r>
        <r>    9.9857    0.0000 </r>
        <r>   12.6892    0.0000 </r>
        <r>   13.3246    0.0000 </r>
       </set>
       <set comment="kpoint 204">
        <r>   -2.6235    1.0000 </r>
        <r>   -1.4632    1.0000 </r>
        <r>    1.3684    1.0000 </r>
        <r>    3.2212    1.0000 </r>
        <r>    7.0458    0.0000 </r>
        <r>   10.1189    0.0000 </r>
        <r>   12.4802    0.0000 </r>
        <r>   13.0641    0.0000 </r>
       </set>
       <set comment="kpoint 205">
        <r>   -2.6452    1.0000 </r>
        <r>   -1.4356    1.0000 </r>
        <r>    1.3621    1.0000 </r>
        <r>    3.1847    1.0000 </r>
        <r>    7.1631    0.0000 </r>
        <r>   10.2531    0.0000 </r>
        <r>   12.2621    0.0000 </r>
        <r>   12.8064    0.0000 </r>
       </set>
       <set comment="kpoint 206">
        <r>   -2.6651    1.0000 </r>
        <r>   -1.4088    1.0000 </r>
        <r>    1.3604    1.0000 </r>
        <r>    3.1365    1.0000 </r>
        <r>    7.3025    0.0000 </r>
        <r>   10.3868    0.0000 </r>
        <r>   12.0428    0.0000 </r>
        <r>   12.5476    0.0000 </r>
       </set>
       <set comment="kpoint 207">
        <r>   -2.6831    1.0000 </r>
        <r>   -1.3830    1.0000 </r>
        <r>    1.3631    1.0000 </r>
        <r>    3.0792    1.0000 </r>
        <r>    7.4613    0.0000 </r>
        <r>   10.5167    0.0000 </r>
        <r>   11.8282    0.0000 </r>
        <r>   12.2894    0.0000 </r>
       </set>
       <set comment="kpoint 208">
        <r>   -2.6992    1.0000 </r>
        <r>   -1.3585    1.0000 </r>
        <r>    1.3703    1.0000 </r>
        <r>    3.0153    1.0000 </r>
        <r>    7.6372    0.0000 </r>
        <r>   10.6352    0.0000 </r>
        <r>   11.6275    0.0000 </r>
        <r>   12.0327    0.0000 </r>
       </set>
       <set comment="kpoint 209">
        <r>   -2.7134    1.0000 </r>
        <r>   -1.3354    1.0000 </r>
        <r>    1.3819    1.0000 </r>
        <r>    2.9472    1.0000 </r>
        <r>    7.8279    0.0000 </r>
        <r>   10.7227    0.0000 </r>
        <r>   11.4613    0.0000 </r>
        <r>   11.7782    0.0000 </r>
       </set>
       <set comment="kpoint 210">
        <r>   -2.7257    1.0000 </r>
        <r>   -1.3140    1.0000 </r>
        <r>    1.3978    1.0000 </r>
        <r>    2.8768    1.0000 </r>
        <r>    8.0314    0.0000 </r>
        <r>   10.7343    0.0000 </r>
        <r>   11.3747    0.0000 </r>
        <r>   11.5266    0.0000 </r>
       </set>
       <set comment="kpoint 211">
        <r>   -2.7360    1.0000 </r>
        <r>   -1.2947    1.0000 </r>
        <r>    1.4180    1.0000 </r>
        <r>    2.8062    1.0000 </r>
        <r>    8.2457    0.0000 </r>
        <r>   10.6376    0.0000 </r>
        <r>   11.2783    0.0000 </r>
        <r>   11.4008    0.0000 </r>
       </set>
       <set comment="kpoint 212">
        <r>   -2.7444    1.0000 </r>
        <r>   -1.2778    1.0000 </r>
        <r>    1.4424    1.0000 </r>
        <r>    2.7368    1.0000 </r>
        <r>    8.4691    0.0000 </r>
        <r>   10.4701    0.0000 </r>
        <r>   11.0340    0.0000 </r>
        <r>   11.5024    0.0000 </r>
       </set>
       <set comment="kpoint 213">
        <r>   -2.7508    1.0000 </r>
        <r>   -1.2636    1.0000 </r>
        <r>    1.4709    1.0000 </r>
        <r>    2.6701    1.0000 </r>
        <r>    8.6994    0.0000 </r>
        <r>   10.2734    0.0000 </r>
        <r>   10.7950    0.0000 </r>
        <r>   11.6380    0.0000 </r>
       </set>
       <set comment="kpoint 214">
        <r>   -2.7552    1.0000 </r>
        <r>   -1.2524    1.0000 </r>
        <r>    1.5035    1.0000 </r>
        <r>    2.6072    1.0000 </r>
        <r>    8.9338    0.0000 </r>
        <r>   10.0658    0.0000 </r>
        <r>   10.5632    0.0000 </r>
        <r>   11.7896    0.0000 </r>
       </set>
       <set comment="kpoint 215">
        <r>   -2.7576    1.0000 </r>
        <r>   -1.2447    1.0000 </r>
        <r>    1.5401    1.0000 </r>
        <r>    2.5493    1.0000 </r>
        <r>    9.1668    0.0000 </r>
        <r>    9.8541    0.0000 </r>
        <r>   10.3436    0.0000 </r>
        <r>   11.9502    0.0000 </r>
       </set>
       <set comment="kpoint 216">
        <r>   -2.7579    1.0000 </r>
        <r>   -1.2407    1.0000 </r>
        <r>    1.5804    1.0000 </r>
        <r>    2.4972    1.0000 </r>
        <r>    9.3816    0.0000 </r>
        <r>    9.6419    0.0000 </r>
        <r>   10.1524    0.0000 </r>
        <r>   12.1169    0.0000 </r>
       </set>
       <set comment="kpoint 217">
        <r>   -2.7561    1.0000 </r>
        <r>   -1.2407    1.0000 </r>
        <r>    1.6244    1.0000 </r>
        <r>    2.4515    1.0000 </r>
        <r>    9.4306    0.0000 </r>
        <r>    9.5139    0.0000 </r>
        <r>   10.0535    0.0000 </r>
        <r>   12.2881    0.0000 </r>
       </set>
       <set comment="kpoint 218">
        <r>   -2.7523    1.0000 </r>
        <r>   -1.2450    1.0000 </r>
        <r>    1.6720    1.0000 </r>
        <r>    2.4130    1.0000 </r>
        <r>    9.2215    0.0000 </r>
        <r>    9.4583    0.0000 </r>
        <r>   10.1520    0.0000 </r>
        <r>   12.4627    0.0000 </r>
       </set>
       <set comment="kpoint 219">
        <r>   -2.7463    1.0000 </r>
        <r>   -1.2537    1.0000 </r>
        <r>    1.7229    1.0000 </r>
        <r>    2.3820    1.0000 </r>
        <r>    9.0151    0.0000 </r>
        <r>    9.2911    0.0000 </r>
        <r>   10.3713    0.0000 </r>
        <r>   12.6403    0.0000 </r>
       </set>
       <set comment="kpoint 220">
        <r>   -2.7381    1.0000 </r>
        <r>   -1.2670    1.0000 </r>
        <r>    1.7769    1.0000 </r>
        <r>    2.3588    1.0000 </r>
        <r>    8.8120    0.0000 </r>
        <r>    9.0954    0.0000 </r>
        <r>   10.6278    0.0000 </r>
        <r>   12.8204    0.0000 </r>
       </set>
       <set comment="kpoint 221">
        <r>   -2.7279    1.0000 </r>
        <r>   -1.2849    1.0000 </r>
        <r>    1.8339    1.0000 </r>
        <r>    2.3435    1.0000 </r>
        <r>    8.6128    0.0000 </r>
        <r>    8.8937    0.0000 </r>
        <r>   10.8994    0.0000 </r>
        <r>   13.0023    0.0000 </r>
       </set>
       <set comment="kpoint 222">
        <r>   -2.7154    1.0000 </r>
        <r>   -1.3073    1.0000 </r>
        <r>    1.8935    1.0000 </r>
        <r>    2.3362    1.0000 </r>
        <r>    8.4179    0.0000 </r>
        <r>    8.6922    0.0000 </r>
        <r>   11.1791    0.0000 </r>
        <r>   13.1857    0.0000 </r>
       </set>
       <set comment="kpoint 223">
        <r>   -2.7008    1.0000 </r>
        <r>   -1.3341    1.0000 </r>
        <r>    1.9555    1.0000 </r>
        <r>    2.3365    1.0000 </r>
        <r>    8.2277    0.0000 </r>
        <r>    8.4935    0.0000 </r>
        <r>   11.4645    0.0000 </r>
        <r>   13.3701    0.0000 </r>
       </set>
       <set comment="kpoint 224">
        <r>   -2.6840    1.0000 </r>
        <r>   -1.3651    1.0000 </r>
        <r>    2.0196    1.0000 </r>
        <r>    2.3443    1.0000 </r>
        <r>    8.0426    0.0000 </r>
        <r>    8.2990    0.0000 </r>
        <r>   11.7540    0.0000 </r>
        <r>   13.5550    0.0000 </r>
       </set>
       <set comment="kpoint 225">
        <r>   -2.6650    1.0000 </r>
        <r>   -1.3999    1.0000 </r>
        <r>    2.0853    1.0000 </r>
        <r>    2.3591    1.0000 </r>
        <r>    7.8633    0.0000 </r>
        <r>    8.1095    0.0000 </r>
        <r>   12.0468    0.0000 </r>
        <r>   13.7397    0.0000 </r>
       </set>
       <set comment="kpoint 226">
        <r>   -2.6438    1.0000 </r>
        <r>   -1.4383    1.0000 </r>
        <r>    2.1523    1.0000 </r>
        <r>    2.3804    1.0000 </r>
        <r>    7.6901    0.0000 </r>
        <r>    7.9257    0.0000 </r>
        <r>   12.3421    0.0000 </r>
        <r>   13.9235    0.0000 </r>
       </set>
       <set comment="kpoint 227">
        <r>   -2.6204    1.0000 </r>
        <r>   -1.4798    1.0000 </r>
        <r>    2.2201    1.0000 </r>
        <r>    2.4074    1.0000 </r>
        <r>    7.5238    0.0000 </r>
        <r>    7.7481    0.0000 </r>
        <r>   12.6391    0.0000 </r>
        <r>   14.1054    0.0000 </r>
       </set>
       <set comment="kpoint 228">
        <r>   -2.5948    1.0000 </r>
        <r>   -1.5240    1.0000 </r>
        <r>    2.2881    1.0000 </r>
        <r>    2.4393    1.0000 </r>
        <r>    7.3648    0.0000 </r>
        <r>    7.5775    0.0000 </r>
        <r>   12.9371    0.0000 </r>
        <r>   14.2836    0.0000 </r>
       </set>
       <set comment="kpoint 229">
        <r>   -2.5671    1.0000 </r>
        <r>   -1.5706    1.0000 </r>
        <r>    2.3556    1.0000 </r>
        <r>    2.4754    1.0000 </r>
        <r>    7.2140    0.0000 </r>
        <r>    7.4143    0.0000 </r>
        <r>   13.2353    0.0000 </r>
        <r>   14.4569    0.0000 </r>
       </set>
       <set comment="kpoint 230">
        <r>   -2.5373    1.0000 </r>
        <r>   -1.6192    1.0000 </r>
        <r>    2.4220    1.0000 </r>
        <r>    2.5147    1.0000 </r>
        <r>    7.0722    0.0000 </r>
        <r>    7.2595    0.0000 </r>
        <r>   13.5324    0.0000 </r>
        <r>   14.6230    0.0000 </r>
       </set>
       <set comment="kpoint 231">
        <r>   -2.5053    1.0000 </r>
        <r>   -1.6692    1.0000 </r>
        <r>    2.4865    1.0000 </r>
        <r>    2.5561    1.0000 </r>
        <r>    6.9401    0.0000 </r>
        <r>    7.1135    0.0000 </r>
        <r>   13.8271    0.0000 </r>
        <r>   14.7796    0.0000 </r>
       </set>
       <set comment="kpoint 232">
        <r>   -2.4713    1.0000 </r>
        <r>   -1.7204    1.0000 </r>
        <r>    2.5481    1.0000 </r>
        <r>    2.5985    1.0000 </r>
        <r>    6.8188    0.0000 </r>
        <r>    6.9774    0.0000 </r>
        <r>   14.1172    0.0000 </r>
        <r>   14.9248    0.0000 </r>
       </set>
       <set comment="kpoint 233">
        <r>   -2.4353    1.0000 </r>
        <r>   -1.7724    1.0000 </r>
        <r>    2.6058    1.0000 </r>
        <r>    2.6406    1.0000 </r>
        <r>    6.7094    0.0000 </r>
        <r>    6.8521    0.0000 </r>
        <r>   14.3999    0.0000 </r>
        <r>   15.0551    0.0000 </r>
       </set>
       <set comment="kpoint 234">
        <r>   -2.3973    1.0000 </r>
        <r>   -1.8248    1.0000 </r>
        <r>    2.6587    1.0000 </r>
        <r>    2.6813    1.0000 </r>
        <r>    6.6129    0.0000 </r>
        <r>    6.7386    0.0000 </r>
        <r>   14.6711    0.0000 </r>
        <r>   15.1722    0.0000 </r>
       </set>
       <set comment="kpoint 235">
        <r>   -2.3574    1.0000 </r>
        <r>   -1.8773    1.0000 </r>
        <r>    2.7056    1.0000 </r>
        <r>    2.7191    1.0000 </r>
        <r>    6.5306    0.0000 </r>
        <r>    6.6379    0.0000 </r>
        <r>   14.9233    0.0000 </r>
        <r>   15.2723    0.0000 </r>
       </set>
       <set comment="kpoint 236">
        <r>   -2.3156    1.0000 </r>
        <r>   -1.9296    1.0000 </r>
        <r>    2.7456    1.0000 </r>
        <r>    2.7526    1.0000 </r>
        <r>    6.4636    0.0000 </r>
        <r>    6.5514    0.0000 </r>
        <r>   15.1475    0.0000 </r>
        <r>   15.3604    0.0000 </r>
       </set>
       <set comment="kpoint 237">
        <r>   -2.2721    1.0000 </r>
        <r>   -1.9815    1.0000 </r>
        <r>    2.7776    1.0000 </r>
        <r>    2.7806    1.0000 </r>
        <r>    6.4128    0.0000 </r>
        <r>    6.4799    0.0000 </r>
        <r>   15.3296    0.0000 </r>
        <r>   15.4340    0.0000 </r>
       </set>
       <set comment="kpoint 238">
        <r>   -2.2270    1.0000 </r>
        <r>   -2.0327    1.0000 </r>
        <r>    2.8009    1.0000 </r>
        <r>    2.8018    1.0000 </r>
        <r>    6.3792    0.0000 </r>
        <r>    6.4246    0.0000 </r>
        <r>   15.4580    0.0000 </r>
        <r>   15.4919    0.0000 </r>
       </set>
       <set comment="kpoint 239">
        <r>   -2.1804    1.0000 </r>
        <r>   -2.0831    1.0000 </r>
        <r>    2.8150    1.0000 </r>
        <r>    2.8151    1.0000 </r>
        <r>    6.3635    0.0000 </r>
        <r>    6.3864    0.0000 </r>
        <r>   15.5285    0.0000 </r>
        <r>   15.5345    0.0000 </r>
       </set>
       <set comment="kpoint 240">
        <r>   -2.1323    1.0000 </r>
        <r>   -2.1323    1.0000 </r>
        <r>    2.8196    1.0000 </r>
        <r>    2.8196    1.0000 </r>
        <r>    6.3659    0.0000 </r>
        <r>    6.3659    0.0000 </r>
        <r>   15.5482    0.0000 </r>
        <r>   15.5484    0.0000 </r>
       </set>
      </set>
     </set>
    </array>
   </eigenvalues>
   <array>
    <dimension dim="1">ion</dimension>
    <dimension dim="2">band</dimension>
    <dimension dim="3">kpoint</dimension>
    <dimension dim="4">spin</dimension>
    <field>    s</field>
    <field>   py</field>
    <field>   pz</field>
    <field>   px</field>
    <field>  dxy</field>
    <field>  dyz</field>
    <field>  dz2</field>
    <field>  dxz</field>
    <field>x2-y2</field>
    <set>
     <set comment="spin1">
      <set comment="kpoint 1">
       <set comment="band 1">
        <r>  0.2120  0.0000  0.0000  0.0000  0.0000  0.0000  0.0000  0.0000  0.0000 </r>
        <r>  0.2120  0.0000  0.0000  0.0000  0.0000  0.0000  0.0000  0.0000  0.0000 </r>
       </set>
       <set comment="band 2">
        <r>  0.0000  0.0713  0.0712  0.0713  0.0000  0.0000  0.0000  0.0000  0.0000 </r>
        <r>  0.0000  0.0713  0.0712  0.0713  0.0000  0.0000  0.0000  0.0000  0.0000 </r>
       </set>
       <set comment="band 3">
        <r>  0.0000  0.1419  0.0401  0.0319  0.0000  0.0000  0.0000  0.0000  0.0000 </r>
        <r>  0.0000  0.1419  0.0401  0.0319  0.0000  0.0000  0.0000  0.0000  0.0000 </r>
       </set>
       <set comment="band 4">
        <r>  0.0000  0.0007  0.1025  0.1106  0.0000  0.0000  0.0000  0.0000  0.0000 </r>
        <r>  0.0000  0.0007  0.1025  0.1106  0.0000  0.0000  0.0000  0.0000  0.0000 </r>
       </set>
       <set comment="band 5">
        <r>  0.0000  0.0433  0.0530  0.0544  0.0000  0.0000  0.0000  0.0000  0.0000 </r>
        <r>  0.0000  0.0433  0.0530  0.0544  0.0000  0.0000  0.0000  0.0000  0.0000 </r>
       </set>
       <set comment="band 6">
        <r>  0.0000  0.0296  0.0379  0.0832  0.0000  0.0000  0.0000  0.0000  0.0000 </r>
        <r>  0.0000  0.0296  0.0379  0.0832  0.0000  0.0000  0.0000  0.0000  0.0000 </r>
       </set>
       <set comment="band 7">
        <r>  0.0000  0.0778  0.0598  0.0131  0.0000  0.0000  0.0000  0.0000  0.0000 </r>
        <r>  0.0000  0.0778  0.0598  0.0131  0.0000  0.0000  0.0000  0.0000  0.0000 </r>
       </set>
       <set comment="band 8">
        <r>  0.3586  0.0000  0.0000  0.0000  0.0000  0.0000  0.0000  0.0000  0.0000 </r>
        <r>  0.3586  0.0000  0.0000  0.0000  0.0000  0.0000  0.0000  0.0000  0.0000 </r>
       </set>
      </set>
      <set comment="kpoint 2">
       <set comment="band 1">
        <r>  0.2119  0.0000  0.0000  0.0000  0.0000  0.0000  0.0000  0.0000  0.0000 </r>
        <r>  0.2119  0.0000  0.0000  0.0000  0.0000  0.0000  0.0000  0.0000  0.0000 </r>
       </set>
       <set comment="band 2">
        <r>  0.0027  0.2120  0.0000  0.0000  0.0000  0.0000  0.0000  0.0000  0.0000 </r>
        <r>  0.0027  0.2120  0.0000  0.0000  0.0000  0.0000  0.0000  0.0000  0.0000 </r>
       </set>
       <set comment="band 3">
        <r>  0.0000  0.0000  0.1067  0.1068  0.0000  0.0000  0.0000  0.0000  0.0000 </r>
        <r>  0.0000  0.0000  0.1067  0.1068  0.0000  0.0000  0.0000  0.0000  0.0000 </r>
       </set>
       <set comment="band 4">
        <r>  0.0000  0.0000  0.1068  0.1067  0.0000  0.0000  0.0000  0.0000  0.0000 </r>
        <r>  0.0000  0.0000  0.1068  0.1067  0.0000  0.0000  0.0000  0.0000  0.0000 </r>
       </set>
       <set comment="band 5">
        <r>  0.0003  0.1502  0.0000  0.0000  0.0000  0.0000  0.0000  0.0000  0.0000 </r>
        <r>  0.0003  0.1502  0.0000  0.0000  0.0000  0.0000  0.0000  0.0000  0.0000 </r>
       </set>
       <set comment="band 6">
        <r>  0.0000  0.0000  0.0727  0.0783  0.0000  0.0000  0.0000  0.0000  0.0000 </r>
        <r>  0.0000  0.0000  0.0766  0.0744  0.0000  0.0000  0.0000  0.0000  0.0000 </r>
       </set>
       <set comment="band 7">
        <r>  0.0000  0.0000  0.0783  0.0727  0.0000  0.0000  0.0000  0.0000  0.0000 </r>
        <r>  0.0000  0.0000  0.0744  0.0766  0.0000  0.0000  0.0000  0.0000  0.0000 </r>
       </set>
       <set comment="band 8">
        <r>  0.3558  0.0020  0.0000  0.0000  0.0000  0.0000  0.0000  0.0000  0.0000 </r>
        <r>  0.3558  0.0020  0.0000  0.0000  0.0000  0.0000  0.0000  0.0000  0.0000 </r>
       </set>
      </set>
      <set comment="kpoint 3">
       <set comment="band 1">
        <r>  0.2119  0.0001  0.0000  0.0000  0.0000  0.0000  0.0000  0.0000  0.0000 </r>
        <r>  0.2119  0.0001  0.0000  0.0000  0.0000  0.0000  0.0000  0.0000  0.0000 </r>
       </set>
       <set comment="band 2">
        <r>  0.0102  0.2069  0.0000  0.0000  0.0000  0.0000  0.0000  0.0000  0.0000 </r>
        <r>  0.0102  0.2069  0.0000  0.0000  0.0000  0.0000  0.0000  0.0000  0.0000 </r>
       </set>
       <set comment="band 3">
        <r>  0.0000  0.0000  0.1063  0.1063  0.0000  0.0000  0.0000  0.0000  0.0000 </r>
        <r>  0.0000  0.0000  0.1063  0.1063  0.0000  0.0000  0.0000  0.0000  0.0000 </r>
       </set>
       <set comment="band 4">
        <r>  0.0000  0.0000  0.1063  0.1063  0.0000  0.0000  0.0000  0.0000  0.0000 </r>
        <r>  0.0000  0.0000  0.1063  0.1063  0.0000  0.0000  0.0000  0.0000  0.0000 </r>
       </set>
       <set comment="band 5">
        <r>  0.0012  0.1488  0.0000  0.0000  0.0000  0.0000  0.0000  0.0000  0.0000 </r>
        <r>  0.0012  0.1488  0.0000  0.0000  0.0000  0.0000  0.0000  0.0000  0.0000 </r>
       </set>
       <set comment="band 6">
        <r>  0.0000  0.0000  0.0767  0.0753  0.0000  0.0000  0.0000  0.0000  0.0000 </r>
        <r>  0.0000  0.0000  0.0765  0.0754  0.0000  0.0000  0.0000  0.0000  0.0000 </r>
       </set>
       <set comment="band 7">
        <r>  0.0000  0.0000  0.0753  0.0767  0.0000  0.0000  0.0000  0.0000  0.0000 </r>
        <r>  0.0000  0.0000  0.0754  0.0765  0.0000  0.0000  0.0000  0.0000  0.0000 </r>
       </set>
       <set comment="band 8">
        <r>  0.3481  0.0075  0.0000  0.0000  0.0000  0.0000  0.0000  0.0000  0.0000 </r>
        <r>  0.3481  0.0075  0.0000  0.0000  0.0000  0.0000  0.0000  0.0000  0.0000 </r>
       </set>
      </set>
      <set comment="kpoint 4">
       <set comment="band 1">
        <r>  0.2118  0.0003  0.0000  0.0000  0.0000  0.0000  0.0000  0.0000  0.0000 </r>
        <r>  0.2118  0.0003  0.0000  0.0000  0.0000  0.0000  0.0000  0.0000  0.0000 </r>
       </set>
       <set comment="band 2">
        <r>  0.0211  0.1994  0.0000  0.0000  0.0000  0.0000  0.0000  0.0000  0.0000 </r>
        <r>  0.0211  0.1994  0.0000  0.0000  0.0000  0.0000  0.0000  0.0000  0.0000 </r>
       </set>
       <set comment="band 3">
        <r>  0.0000  0.0000  0.1058  0.1055  0.0000  0.0000  0.0000  0.0000  0.0000 </r>
        <r>  0.0000  0.0000  0.1058  0.1055  0.0000  0.0000  0.0000  0.0000  0.0000 </r>
       </set>
       <set comment="band 4">
        <r>  0.0000  0.0000  0.1055  0.1058  0.0000  0.0000  0.0000  0.0000  0.0000 </r>
        <r>  0.0000  0.0000  0.1055  0.1058  0.0000  0.0000  0.0000  0.0000  0.0000 </r>
       </set>
       <set comment="band 5">
        <r>  0.0027  0.1464  0.0000  0.0000  0.0000  0.0000  0.0000  0.0000  0.0000 </r>
        <r>  0.0027  0.1464  0.0000  0.0000  0.0000  0.0000  0.0000  0.0000  0.0000 </r>
       </set>
       <set comment="band 6">
        <r>  0.0000  0.0000  0.0756  0.0776  0.0000  0.0000  0.0000  0.0000  0.0000 </r>
        <r>  0.0000  0.0000  0.0626  0.0906  0.0000  0.0000  0.0000  0.0000  0.0000 </r>
       </set>
       <set comment="band 7">
        <r>  0.0000  0.0000  0.0776  0.0756  0.0000  0.0000  0.0000  0.0000  0.0000 </r>
        <r>  0.0000  0.0000  0.0906  0.0626  0.0000  0.0000  0.0000  0.0000  0.0000 </r>
       </set>
       <set comment="band 8">
        <r>  0.3368  0.0157  0.0000  0.0000  0.0000  0.0000  0.0000  0.0000  0.0000 </r>
        <r>  0.3368  0.0157  0.0000  0.0000  0.0000  0.0000  0.0000  0.0000  0.0000 </r>
       </set>
      </set>
      <set comment="kpoint 5">
       <set comment="band 1">
        <r>  0.2117  0.0005  0.0000  0.0000  0.0000  0.0000  0.0000  0.0000  0.0000 </r>
        <r>  0.2117  0.0005  0.0000  0.0000  0.0000  0.0000  0.0000  0.0000  0.0000 </r>
       </set>
       <set comment="band 2">
        <r>  0.0338  0.1906  0.0000  0.0000  0.0000  0.0000  0.0000  0.0000  0.0000 </r>
        <r>  0.0338  0.1906  0.0000  0.0000  0.0000  0.0000  0.0000  0.0000  0.0000 </r>
       </set>
       <set comment="band 3">
        <r>  0.0000  0.0000  0.1049  0.1049  0.0000  0.0000  0.0000  0.0000  0.0000 </r>
        <r>  0.0000  0.0000  0.1049  0.1049  0.0000  0.0000  0.0000  0.0000  0.0000 </r>
       </set>
       <set comment="band 4">
        <r>  0.0000  0.0000  0.1049  0.1049  0.0000  0.0000  0.0000  0.0000  0.0000 </r>
        <r>  0.0000  0.0000  0.1049  0.1049  0.0000  0.0000  0.0000  0.0000  0.0000 </r>
       </set>
       <set comment="band 5">
        <r>  0.0046  0.1434  0.0000  0.0000  0.0000  0.0000  0.0000  0.0000  0.0000 </r>
        <r>  0.0046  0.1434  0.0000  0.0000  0.0000  0.0000  0.0000  0.0000  0.0000 </r>
       </set>
       <set comment="band 6">
        <r>  0.0000  0.0000  0.0932  0.0616  0.0000  0.0000  0.0000  0.0000  0.0000 </r>
        <r>  0.0000  0.0000  0.0896  0.0652  0.0000  0.0000  0.0000  0.0000  0.0000 </r>
       </set>
       <set comment="band 7">
        <r>  0.0000  0.0000  0.0616  0.0932  0.0000  0.0000  0.0000  0.0000  0.0000 </r>
        <r>  0.0000  0.0000  0.0652  0.0896  0.0000  0.0000  0.0000  0.0000  0.0000 </r>
       </set>
       <set comment="band 8">
        <r>  0.3233  0.0255  0.0000  0.0000  0.0000  0.0000  0.0000  0.0000  0.0000 </r>
        <r>  0.3233  0.0255  0.0000  0.0000  0.0000  0.0000  0.0000  0.0000  0.0000 </r>
       </set>
      </set>
      <set comment="kpoint 6">
       <set comment="band 1">
        <r>  0.2116  0.0008  0.0000  0.0000  0.0000  0.0000  0.0000  0.0000  0.0000 </r>
        <r>  0.2116  0.0008  0.0000  0.0000  0.0000  0.0000  0.0000  0.0000  0.0000 </r>
       </set>
       <set comment="band 2">
        <r>  0.0470  0.1814  0.0000  0.0000  0.0000  0.0000  0.0000  0.0000  0.0000 </r>
        <r>  0.0470  0.1814  0.0000  0.0000  0.0000  0.0000  0.0000  0.0000  0.0000 </r>
       </set>
       <set comment="band 3">
        <r>  0.0000  0.0000  0.1041  0.1041  0.0000  0.0000  0.0000  0.0000  0.0000 </r>
        <r>  0.0000  0.0000  0.1041  0.1040  0.0000  0.0000  0.0000  0.0000  0.0000 </r>
       </set>
       <set comment="band 4">
        <r>  0.0000  0.0000  0.1041  0.1041  0.0000  0.0000  0.0000  0.0000  0.0000 </r>
        <r>  0.0000  0.0000  0.1040  0.1041  0.0000  0.0000  0.0000  0.0000  0.0000 </r>
       </set>
       <set comment="band 5">
        <r>  0.0069  0.1397  0.0000  0.0000  0.0000  0.0000  0.0000  0.0000  0.0000 </r>
        <r>  0.0069  0.1397  0.0000  0.0000  0.0000  0.0000  0.0000  0.0000  0.0000 </r>
       </set>
       <set comment="band 6">
        <r>  0.0000  0.0000  0.0749  0.0816  0.0000  0.0000  0.0000  0.0000  0.0000 </r>
        <r>  0.0000  0.0000  0.0791  0.0774  0.0000  0.0000  0.0000  0.0000  0.0000 </r>
       </set>
       <set comment="band 7">
        <r>  0.0000  0.0000  0.0816  0.0749  0.0000  0.0000  0.0000  0.0000  0.0000 </r>
        <r>  0.0000  0.0000  0.0774  0.0791  0.0000  0.0000  0.0000  0.0000  0.0000 </r>
       </set>
       <set comment="band 8">
        <r>  0.3088  0.0359  0.0000  0.0000  0.0000  0.0000  0.0000  0.0000  0.0000 </r>
        <r>  0.3088  0.0359  0.0000  0.0000  0.0000  0.0000  0.0000  0.0000  0.0000 </r>
       </set>
      </set>
      <set comment="kpoint 7">
       <set comment="band 1">
        <r>  0.2115  0.0011  0.0000  0.0000  0.0000  0.0000  0.0000  0.0000  0.0000 </r>
        <r>  0.2115  0.0011  0.0000  0.0000  0.0000  0.0000  0.0000  0.0000  0.0000 </r>
       </set>
       <set comment="band 2">
        <r>  0.0598  0.1724  0.0000  0.0000  0.0000  0.0000  0.0000  0.0000  0.0000 </r>
        <r>  0.0598  0.1724  0.0000  0.0000  0.0000  0.0000  0.0000  0.0000  0.0000 </r>
       </set>
       <set comment="band 3">
        <r>  0.0000  0.0000  0.1033  0.1033  0.0000  0.0000  0.0000  0.0000  0.0000 </r>
        <r>  0.0000  0.0000  0.1032  0.1033  0.0000  0.0000  0.0000  0.0000  0.0000 </r>
       </set>
       <set comment="band 4">
        <r>  0.0000  0.0000  0.1033  0.1033  0.0000  0.0000  0.0000  0.0000  0.0000 </r>
        <r>  0.0000  0.0000  0.1033  0.1032  0.0000  0.0000  0.0000  0.0000  0.0000 </r>
       </set>
       <set comment="band 5">
        <r>  0.0094  0.1355  0.0000  0.0000  0.0000  0.0000  0.0000  0.0000  0.0000 </r>
        <r>  0.0094  0.1355  0.0000  0.0000  0.0000  0.0000  0.0000  0.0000  0.0000 </r>
       </set>
       <set comment="band 6">
        <r>  0.0000  0.0000  0.0601  0.0980  0.0000  0.0000  0.0000  0.0000  0.0000 </r>
        <r>  0.0000  0.0000  0.0908  0.0672  0.0000  0.0000  0.0000  0.0000  0.0000 </r>
       </set>
       <set comment="band 7">
        <r>  0.0000  0.0000  0.0980  0.0601  0.0000  0.0000  0.0000  0.0000  0.0000 </r>
        <r>  0.0000  0.0000  0.0672  0.0908  0.0000  0.0000  0.0000  0.0000  0.0000 </r>
       </set>
       <set comment="band 8">
        <r>  0.2938  0.0464  0.0000  0.0000  0.0000  0.0000  0.0000  0.0000  0.0000 </r>
        <r>  0.2938  0.0464  0.0000  0.0000  0.0000  0.0000  0.0000  0.0000  0.0000 </r>
       </set>
      </set>
      <set comment="kpoint 8">
       <set comment="band 1">
        <r>  0.2113  0.0015  0.0000  0.0000  0.0000  0.0000  0.0000  0.0000  0.0000 </r>
        <r>  0.2113  0.0015  0.0000  0.0000  0.0000  0.0000  0.0000  0.0000  0.0000 </r>
       </set>
       <set comment="band 2">
        <r>  0.0719  0.1638  0.0000  0.0000  0.0000  0.0000  0.0000  0.0000  0.0000 </r>
        <r>  0.0719  0.1638  0.0000  0.0000  0.0000  0.0000  0.0000  0.0000  0.0000 </r>
       </set>
       <set comment="band 3">
        <r>  0.0000  0.0000  0.1025  0.1025  0.0000  0.0000  0.0000  0.0000  0.0000 </r>
        <r>  0.0000  0.0000  0.1025  0.1025  0.0000  0.0000  0.0000  0.0000  0.0000 </r>
       </set>
       <set comment="band 4">
        <r>  0.0000  0.0000  0.1025  0.1025  0.0000  0.0000  0.0000  0.0000  0.0000 </r>
        <r>  0.0000  0.0000  0.1025  0.1025  0.0000  0.0000  0.0000  0.0000  0.0000 </r>
       </set>
       <set comment="band 5">
        <r>  0.0122  0.1310  0.0000  0.0000  0.0000  0.0000  0.0000  0.0000  0.0000 </r>
        <r>  0.0122  0.1310  0.0000  0.0000  0.0000  0.0000  0.0000  0.0000  0.0000 </r>
       </set>
       <set comment="band 6">
        <r>  0.0000  0.0000  0.0692  0.0903  0.0000  0.0000  0.0000  0.0000  0.0000 </r>
        <r>  0.0000  0.0000  0.0746  0.0850  0.0000  0.0000  0.0000  0.0000  0.0000 </r>
       </set>
       <set comment="band 7">
        <r>  0.0000  0.0000  0.0903  0.0692  0.0000  0.0000  0.0000  0.0000  0.0000 </r>
        <r>  0.0000  0.0000  0.0850  0.0745  0.0000  0.0000  0.0000  0.0000  0.0000 </r>
       </set>
       <set comment="band 8">
        <r>  0.2780  0.0564  0.0000  0.0000  0.0000  0.0000  0.0000  0.0000  0.0000 </r>
        <r>  0.2780  0.0564  0.0000  0.0000  0.0000  0.0000  0.0000  0.0000  0.0000 </r>
       </set>
      </set>
      <set comment="kpoint 9">
       <set comment="band 1">
        <r>  0.2111  0.0020  0.0000  0.0000  0.0000  0.0000  0.0000  0.0000  0.0000 </r>
        <r>  0.2111  0.0020  0.0000  0.0000  0.0000  0.0000  0.0000  0.0000  0.0000 </r>
       </set>
       <set comment="band 2">
        <r>  0.0830  0.1558  0.0000  0.0000  0.0000  0.0000  0.0000  0.0000  0.0000 </r>
        <r>  0.0830  0.1558  0.0000  0.0000  0.0000  0.0000  0.0000  0.0000  0.0000 </r>
       </set>
       <set comment="band 3">
        <r>  0.0000  0.0000  0.1019  0.1019  0.0000  0.0000  0.0000  0.0000  0.0000 </r>
        <r>  0.0000  0.0000  0.1019  0.1019  0.0000  0.0000  0.0000  0.0000  0.0000 </r>
       </set>
       <set comment="band 4">
        <r>  0.0000  0.0000  0.1019  0.1019  0.0000  0.0000  0.0000  0.0000  0.0000 </r>
        <r>  0.0000  0.0000  0.1019  0.1019  0.0000  0.0000  0.0000  0.0000  0.0000 </r>
       </set>
       <set comment="band 5">
        <r>  0.0150  0.1264  0.0000  0.0000  0.0000  0.0000  0.0000  0.0000  0.0000 </r>
        <r>  0.0150  0.1264  0.0000  0.0000  0.0000  0.0000  0.0000  0.0000  0.0000 </r>
       </set>
       <set comment="band 6">
        <r>  0.0000  0.0000  0.0757  0.0852  0.0000  0.0000  0.0000  0.0000  0.0000 </r>
        <r>  0.0000  0.0000  0.1257  0.0351  0.0000  0.0000  0.0000  0.0000  0.0000 </r>
       </set>
       <set comment="band 7">
        <r>  0.0000  0.0000  0.0852  0.0757  0.0000  0.0000  0.0000  0.0000  0.0000 </r>
        <r>  0.0000  0.0000  0.0351  0.1257  0.0000  0.0000  0.0000  0.0000  0.0000 </r>
       </set>
       <set comment="band 8">
        <r>  0.2608  0.0656  0.0000  0.0000  0.0000  0.0000  0.0000  0.0000  0.0000 </r>
        <r>  0.2608  0.0656  0.0000  0.0000  0.0000  0.0000  0.0000  0.0000  0.0000 </r>
       </set>
      </set>
      <set comment="kpoint 10">
       <set comment="band 1">
        <r>  0.2108  0.0025  0.0000  0.0000  0.0000  0.0000  0.0000  0.0000  0.0000 </r>
        <r>  0.2108  0.0025  0.0000  0.0000  0.0000  0.0000  0.0000  0.0000  0.0000 </r>
       </set>
       <set comment="band 2">
        <r>  0.0931  0.1485  0.0000  0.0000  0.0000  0.0000  0.0000  0.0000  0.0000 </r>
        <r>  0.0931  0.1485  0.0000  0.0000  0.0000  0.0000  0.0000  0.0000  0.0000 </r>
       </set>
       <set comment="band 3">
        <r>  0.0000  0.0000  0.1013  0.1013  0.0000  0.0000  0.0000  0.0000  0.0000 </r>
        <r>  0.0000  0.0000  0.1013  0.1013  0.0000  0.0000  0.0000  0.0000  0.0000 </r>
       </set>
       <set comment="band 4">
        <r>  0.0000  0.0000  0.1013  0.1013  0.0000  0.0000  0.0000  0.0000  0.0000 </r>
        <r>  0.0000  0.0000  0.1013  0.1013  0.0000  0.0000  0.0000  0.0000  0.0000 </r>
       </set>
       <set comment="band 5">
        <r>  0.0178  0.1216  0.0000  0.0000  0.0000  0.0000  0.0000  0.0000  0.0000 </r>
        <r>  0.0178  0.1216  0.0000  0.0000  0.0000  0.0000  0.0000  0.0000  0.0000 </r>
       </set>
       <set comment="band 6">
        <r>  0.0000  0.0000  0.1353  0.0267  0.0000  0.0000  0.0000  0.0000  0.0000 </r>
        <r>  0.0000  0.0000  0.0297  0.1324  0.0000  0.0000  0.0000  0.0000  0.0000 </r>
       </set>
       <set comment="band 7">
        <r>  0.0000  0.0000  0.0267  0.1353  0.0000  0.0000  0.0000  0.0000  0.0000 </r>
        <r>  0.0000  0.0000  0.1324  0.0297  0.0000  0.0000  0.0000  0.0000  0.0000 </r>
       </set>
       <set comment="band 8">
        <r>  0.2408  0.0731  0.0000  0.0000  0.0000  0.0000  0.0000  0.0000  0.0000 </r>
        <r>  0.2408  0.0731  0.0000  0.0000  0.0000  0.0000  0.0000  0.0000  0.0000 </r>
       </set>
      </set>
      <set comment="kpoint 11">
       <set comment="band 1">
        <r>  0.2106  0.0030  0.0000  0.0000  0.0000  0.0000  0.0000  0.0000  0.0000 </r>
        <r>  0.2106  0.0030  0.0000  0.0000  0.0000  0.0000  0.0000  0.0000  0.0000 </r>
       </set>
       <set comment="band 2">
        <r>  0.1023  0.1417  0.0000  0.0000  0.0000  0.0000  0.0000  0.0000  0.0000 </r>
        <r>  0.1023  0.1417  0.0000  0.0000  0.0000  0.0000  0.0000  0.0000  0.0000 </r>
       </set>
       <set comment="band 3">
        <r>  0.0000  0.0000  0.1007  0.1007  0.0000  0.0000  0.0000  0.0000  0.0000 </r>
        <r>  0.0000  0.0000  0.1007  0.1007  0.0000  0.0000  0.0000  0.0000  0.0000 </r>
       </set>
       <set comment="band 4">
        <r>  0.0000  0.0000  0.1007  0.1007  0.0000  0.0000  0.0000  0.0000  0.0000 </r>
        <r>  0.0000  0.0000  0.1007  0.1007  0.0000  0.0000  0.0000  0.0000  0.0000 </r>
       </set>
       <set comment="band 5">
        <r>  0.0207  0.1168  0.0000  0.0000  0.0000  0.0000  0.0000  0.0000  0.0000 </r>
        <r>  0.0207  0.1168  0.0000  0.0000  0.0000  0.0000  0.0000  0.0000  0.0000 </r>
       </set>
       <set comment="band 6">
        <r>  0.0000  0.0000  0.0226  0.1404  0.0000  0.0000  0.0000  0.0000  0.0000 </r>
        <r>  0.0000  0.0000  0.0996  0.0635  0.0000  0.0000  0.0000  0.0000  0.0000 </r>
       </set>
       <set comment="band 7">
        <r>  0.0000  0.0000  0.1404  0.0226  0.0000  0.0000  0.0000  0.0000  0.0000 </r>
        <r>  0.0000  0.0000  0.0635  0.0996  0.0000  0.0000  0.0000  0.0000  0.0000 </r>
       </set>
       <set comment="band 8">
        <r>  0.2164  0.0781  0.0000  0.0000  0.0000  0.0000  0.0000  0.0000  0.0000 </r>
        <r>  0.2164  0.0781  0.0000  0.0000  0.0000  0.0000  0.0000  0.0000  0.0000 </r>
       </set>
      </set>
      <set comment="kpoint 12">
       <set comment="band 1">
        <r>  0.2103  0.0037  0.0000  0.0000  0.0000  0.0000  0.0000  0.0000  0.0000 </r>
        <r>  0.2103  0.0037  0.0000  0.0000  0.0000  0.0000  0.0000  0.0000  0.0000 </r>
       </set>
       <set comment="band 2">
        <r>  0.1106  0.1355  0.0000  0.0000  0.0000  0.0000  0.0000  0.0000  0.0000 </r>
        <r>  0.1106  0.1355  0.0000  0.0000  0.0000  0.0000  0.0000  0.0000  0.0000 </r>
       </set>
       <set comment="band 3">
        <r>  0.0000  0.0000  0.1003  0.1003  0.0000  0.0000  0.0000  0.0000  0.0000 </r>
        <r>  0.0000  0.0000  0.1003  0.1003  0.0000  0.0000  0.0000  0.0000  0.0000 </r>
       </set>
       <set comment="band 4">
        <r>  0.0000  0.0000  0.1003  0.1003  0.0000  0.0000  0.0000  0.0000  0.0000 </r>
        <r>  0.0000  0.0000  0.1003  0.1003  0.0000  0.0000  0.0000  0.0000  0.0000 </r>
       </set>
       <set comment="band 5">
        <r>  0.0234  0.1121  0.0000  0.0000  0.0000  0.0000  0.0000  0.0000  0.0000 </r>
        <r>  0.0234  0.1121  0.0000  0.0000  0.0000  0.0000  0.0000  0.0000  0.0000 </r>
       </set>
       <set comment="band 6">
        <r>  0.0000  0.0000  0.1567  0.0072  0.0000  0.0000  0.0000  0.0000  0.0000 </r>
        <r>  0.0000  0.0000  0.0297  0.1342  0.0000  0.0000  0.0000  0.0000  0.0000 </r>
       </set>
       <set comment="band 7">
        <r>  0.0000  0.0000  0.0072  0.1567  0.0000  0.0000  0.0000  0.0000  0.0000 </r>
        <r>  0.0000  0.0000  0.1342  0.0297  0.0000  0.0000  0.0000  0.0000  0.0000 </r>
       </set>
       <set comment="band 8">
        <r>  0.1876  0.0792  0.0000  0.0000  0.0000  0.0000  0.0000  0.0000  0.0000 </r>
        <r>  0.1876  0.0792  0.0000  0.0000  0.0000  0.0000  0.0000  0.0000  0.0000 </r>
       </set>
      </set>
      <set comment="kpoint 13">
       <set comment="band 1">
        <r>  0.2100  0.0044  0.0000  0.0000  0.0000  0.0000  0.0000  0.0000  0.0000 </r>
        <r>  0.2100  0.0044  0.0000  0.0000  0.0000  0.0000  0.0000  0.0000  0.0000 </r>
       </set>
       <set comment="band 2">
        <r>  0.1181  0.1297  0.0000  0.0000  0.0000  0.0000  0.0000  0.0000  0.0000 </r>
        <r>  0.1181  0.1297  0.0000  0.0000  0.0000  0.0000  0.0000  0.0000  0.0000 </r>
       </set>
       <set comment="band 3">
        <r>  0.0000  0.0000  0.0998  0.0999  0.0000  0.0000  0.0000  0.0000  0.0000 </r>
        <r>  0.0000  0.0000  0.0998  0.0999  0.0000  0.0000  0.0000  0.0000  0.0000 </r>
       </set>
       <set comment="band 4">
        <r>  0.0000  0.0000  0.0999  0.0998  0.0000  0.0000  0.0000  0.0000  0.0000 </r>
        <r>  0.0000  0.0000  0.0999  0.0998  0.0000  0.0000  0.0000  0.0000  0.0000 </r>
       </set>
       <set comment="band 5">
        <r>  0.0261  0.1074  0.0000  0.0000  0.0000  0.0000  0.0000  0.0000  0.0000 </r>
        <r>  0.0261  0.1074  0.0000  0.0000  0.0000  0.0000  0.0000  0.0000  0.0000 </r>
       </set>
       <set comment="band 6">
        <r>  0.0000  0.0000  0.0903  0.0744  0.0000  0.0000  0.0000  0.0000  0.0000 </r>
        <r>  0.0000  0.0000  0.0868  0.0779  0.0000  0.0000  0.0000  0.0000  0.0000 </r>
       </set>
       <set comment="band 7">
        <r>  0.0000  0.0000  0.0744  0.0903  0.0000  0.0000  0.0000  0.0000  0.0000 </r>
        <r>  0.0000  0.0000  0.0779  0.0868  0.0000  0.0000  0.0000  0.0000  0.0000 </r>
       </set>
       <set comment="band 8">
        <r>  0.1565  0.0763  0.0000  0.0000  0.0000  0.0000  0.0000  0.0000  0.0000 </r>
        <r>  0.1565  0.0763  0.0000  0.0000  0.0000  0.0000  0.0000  0.0000  0.0000 </r>
       </set>
      </set>
      <set comment="kpoint 14">
       <set comment="band 1">
        <r>  0.2096  0.0051  0.0000  0.0000  0.0000  0.0000  0.0000  0.0000  0.0000 </r>
        <r>  0.2096  0.0051  0.0000  0.0000  0.0000  0.0000  0.0000  0.0000  0.0000 </r>
       </set>
       <set comment="band 2">
        <r>  0.1249  0.1244  0.0000  0.0000  0.0000  0.0000  0.0000  0.0000  0.0000 </r>
        <r>  0.1249  0.1244  0.0000  0.0000  0.0000  0.0000  0.0000  0.0000  0.0000 </r>
       </set>
       <set comment="band 3">
        <r>  0.0000  0.0000  0.0995  0.0995  0.0000  0.0000  0.0000  0.0000  0.0000 </r>
        <r>  0.0000  0.0000  0.0995  0.0995  0.0000  0.0000  0.0000  0.0000  0.0000 </r>
       </set>
       <set comment="band 4">
        <r>  0.0000  0.0000  0.0995  0.0995  0.0000  0.0000  0.0000  0.0000  0.0000 </r>
        <r>  0.0000  0.0000  0.0995  0.0995  0.0000  0.0000  0.0000  0.0000  0.0000 </r>
       </set>
       <set comment="band 5">
        <r>  0.0287  0.1029  0.0000  0.0000  0.0000  0.0000  0.0000  0.0000  0.0000 </r>
        <r>  0.0287  0.1029  0.0000  0.0000  0.0000  0.0000  0.0000  0.0000  0.0000 </r>
       </set>
       <set comment="band 6">
        <r>  0.1277  0.0706  0.0000  0.0000  0.0000  0.0000  0.0000  0.0000  0.0000 </r>
        <r>  0.1277  0.0706  0.0000  0.0000  0.0000  0.0000  0.0000  0.0000  0.0000 </r>
       </set>
       <set comment="band 7">
        <r>  0.0000  0.0000  0.0464  0.1190  0.0000  0.0000  0.0000  0.0000  0.0000 </r>
        <r>  0.0000  0.0000  0.1022  0.0632  0.0000  0.0000  0.0000  0.0000  0.0000 </r>
       </set>
       <set comment="band 8">
        <r>  0.0000  0.0000  0.1190  0.0464  0.0000  0.0000  0.0000  0.0000  0.0000 </r>
        <r>  0.0000  0.0000  0.0632  0.1022  0.0000  0.0000  0.0000  0.0000  0.0000 </r>
       </set>
      </set>
      <set comment="kpoint 15">
       <set comment="band 1">
        <r>  0.2093  0.0059  0.0000  0.0000  0.0000  0.0000  0.0000  0.0000  0.0000 </r>
        <r>  0.2093  0.0059  0.0000  0.0000  0.0000  0.0000  0.0000  0.0000  0.0000 </r>
       </set>
       <set comment="band 2">
        <r>  0.1311  0.1194  0.0000  0.0000  0.0000  0.0000  0.0000  0.0000  0.0000 </r>
        <r>  0.1311  0.1194  0.0000  0.0000  0.0000  0.0000  0.0000  0.0000  0.0000 </r>
       </set>
       <set comment="band 3">
        <r>  0.0000  0.0000  0.0992  0.0992  0.0000  0.0000  0.0000  0.0000  0.0000 </r>
        <r>  0.0000  0.0000  0.0992  0.0992  0.0000  0.0000  0.0000  0.0000  0.0000 </r>
       </set>
       <set comment="band 4">
        <r>  0.0000  0.0000  0.0992  0.0992  0.0000  0.0000  0.0000  0.0000  0.0000 </r>
        <r>  0.0000  0.0000  0.0992  0.0992  0.0000  0.0000  0.0000  0.0000  0.0000 </r>
       </set>
       <set comment="band 5">
        <r>  0.0311  0.0986  0.0000  0.0000  0.0000  0.0000  0.0000  0.0000  0.0000 </r>
        <r>  0.0311  0.0986  0.0000  0.0000  0.0000  0.0000  0.0000  0.0000  0.0000 </r>
       </set>
       <set comment="band 6">
        <r>  0.1041  0.0641  0.0000  0.0000  0.0000  0.0000  0.0000  0.0000  0.0000 </r>
        <r>  0.1041  0.0641  0.0000  0.0000  0.0000  0.0000  0.0000  0.0000  0.0000 </r>
       </set>
       <set comment="band 7">
        <r>  0.0000  0.0000  0.0482  0.1177  0.0000  0.0000  0.0000  0.0000  0.0000 </r>
        <r>  0.0000  0.0000  0.1157  0.0502  0.0000  0.0000  0.0000  0.0000  0.0000 </r>
       </set>
       <set comment="band 8">
        <r>  0.0000  0.0000  0.1177  0.0482  0.0000  0.0000  0.0000  0.0000  0.0000 </r>
        <r>  0.0000  0.0000  0.0502  0.1157  0.0000  0.0000  0.0000  0.0000  0.0000 </r>
       </set>
      </set>
      <set comment="kpoint 16">
       <set comment="band 1">
        <r>  0.2089  0.0068  0.0000  0.0000  0.0000  0.0000  0.0000  0.0000  0.0000 </r>
        <r>  0.2089  0.0068  0.0000  0.0000  0.0000  0.0000  0.0000  0.0000  0.0000 </r>
       </set>
       <set comment="band 2">
        <r>  0.1368  0.1148  0.0000  0.0000  0.0000  0.0000  0.0000  0.0000  0.0000 </r>
        <r>  0.1368  0.1148  0.0000  0.0000  0.0000  0.0000  0.0000  0.0000  0.0000 </r>
       </set>
       <set comment="band 3">
        <r>  0.0000  0.0000  0.0989  0.0989  0.0000  0.0000  0.0000  0.0000  0.0000 </r>
        <r>  0.0000  0.0000  0.0989  0.0989  0.0000  0.0000  0.0000  0.0000  0.0000 </r>
       </set>
       <set comment="band 4">
        <r>  0.0000  0.0000  0.0989  0.0989  0.0000  0.0000  0.0000  0.0000  0.0000 </r>
        <r>  0.0000  0.0000  0.0989  0.0989  0.0000  0.0000  0.0000  0.0000  0.0000 </r>
       </set>
       <set comment="band 5">
        <r>  0.0334  0.0943  0.0000  0.0000  0.0000  0.0000  0.0000  0.0000  0.0000 </r>
        <r>  0.0334  0.0943  0.0000  0.0000  0.0000  0.0000  0.0000  0.0000  0.0000 </r>
       </set>
       <set comment="band 6">
        <r>  0.0864  0.0580  0.0000  0.0000  0.0000  0.0000  0.0000  0.0000  0.0000 </r>
        <r>  0.0864  0.0580  0.0000  0.0000  0.0000  0.0000  0.0000  0.0000  0.0000 </r>
       </set>
       <set comment="band 7">
        <r>  0.0000  0.0000  0.0009  0.1653  0.0000  0.0000  0.0000  0.0000  0.0000 </r>
        <r>  0.0000  0.0000  0.1643  0.0020  0.0000  0.0000  0.0000  0.0000  0.0000 </r>
       </set>
       <set comment="band 8">
        <r>  0.0000  0.0000  0.1653  0.0009  0.0000  0.0000  0.0000  0.0000  0.0000 </r>
        <r>  0.0000  0.0000  0.0020  0.1643  0.0000  0.0000  0.0000  0.0000  0.0000 </r>
       </set>
      </set>
      <set comment="kpoint 17">
       <set comment="band 1">
        <r>  0.2085  0.0077  0.0000  0.0000  0.0000  0.0000  0.0000  0.0000  0.0000 </r>
        <r>  0.2085  0.0077  0.0000  0.0000  0.0000  0.0000  0.0000  0.0000  0.0000 </r>
       </set>
       <set comment="band 2">
        <r>  0.1420  0.1104  0.0000  0.0000  0.0000  0.0000  0.0000  0.0000  0.0000 </r>
        <r>  0.1420  0.1104  0.0000  0.0000  0.0000  0.0000  0.0000  0.0000  0.0000 </r>
       </set>
       <set comment="band 3">
        <r>  0.0000  0.0000  0.0987  0.0987  0.0000  0.0000  0.0000  0.0000  0.0000 </r>
        <r>  0.0000  0.0000  0.0987  0.0987  0.0000  0.0000  0.0000  0.0000  0.0000 </r>
       </set>
       <set comment="band 4">
        <r>  0.0000  0.0000  0.0987  0.0987  0.0000  0.0000  0.0000  0.0000  0.0000 </r>
        <r>  0.0000  0.0000  0.0987  0.0987  0.0000  0.0000  0.0000  0.0000  0.0000 </r>
       </set>
       <set comment="band 5">
        <r>  0.0356  0.0903  0.0000  0.0000  0.0000  0.0000  0.0000  0.0000  0.0000 </r>
        <r>  0.0356  0.0903  0.0000  0.0000  0.0000  0.0000  0.0000  0.0000  0.0000 </r>
       </set>
       <set comment="band 6">
        <r>  0.0736  0.0528  0.0000  0.0000  0.0000  0.0000  0.0000  0.0000  0.0000 </r>
        <r>  0.0736  0.0528  0.0000  0.0000  0.0000  0.0000  0.0000  0.0000  0.0000 </r>
       </set>
       <set comment="band 7">
        <r>  0.0000  0.0000  0.0635  0.1030  0.0000  0.0000  0.0000  0.0000  0.0000 </r>
        <r>  0.0000  0.0000  0.0978  0.0688  0.0000  0.0000  0.0000  0.0000  0.0000 </r>
       </set>
       <set comment="band 8">
        <r>  0.0000  0.0000  0.1030  0.0635  0.0000  0.0000  0.0000  0.0000  0.0000 </r>
        <r>  0.0000  0.0000  0.0688  0.0978  0.0000  0.0000  0.0000  0.0000  0.0000 </r>
       </set>
      </set>
      <set comment="kpoint 18">
       <set comment="band 1">
        <r>  0.2080  0.0087  0.0000  0.0000  0.0000  0.0000  0.0000  0.0000  0.0000 </r>
        <r>  0.2080  0.0087  0.0000  0.0000  0.0000  0.0000  0.0000  0.0000  0.0000 </r>
       </set>
       <set comment="band 2">
        <r>  0.1467  0.1063  0.0000  0.0000  0.0000  0.0000  0.0000  0.0000  0.0000 </r>
        <r>  0.1467  0.1063  0.0000  0.0000  0.0000  0.0000  0.0000  0.0000  0.0000 </r>
       </set>
       <set comment="band 3">
        <r>  0.0000  0.0000  0.0985  0.0985  0.0000  0.0000  0.0000  0.0000  0.0000 </r>
        <r>  0.0000  0.0000  0.0985  0.0985  0.0000  0.0000  0.0000  0.0000  0.0000 </r>
       </set>
       <set comment="band 4">
        <r>  0.0000  0.0000  0.0985  0.0985  0.0000  0.0000  0.0000  0.0000  0.0000 </r>
        <r>  0.0000  0.0000  0.0985  0.0985  0.0000  0.0000  0.0000  0.0000  0.0000 </r>
       </set>
       <set comment="band 5">
        <r>  0.0376  0.0864  0.0000  0.0000  0.0000  0.0000  0.0000  0.0000  0.0000 </r>
        <r>  0.0376  0.0864  0.0000  0.0000  0.0000  0.0000  0.0000  0.0000  0.0000 </r>
       </set>
       <set comment="band 6">
        <r>  0.0645  0.0485  0.0000  0.0000  0.0000  0.0000  0.0000  0.0000  0.0000 </r>
        <r>  0.0645  0.0485  0.0000  0.0000  0.0000  0.0000  0.0000  0.0000  0.0000 </r>
       </set>
       <set comment="band 7">
        <r>  0.0000  0.0000  0.1320  0.0348  0.0000  0.0000  0.0000  0.0000  0.0000 </r>
        <r>  0.0000  0.0000  0.0350  0.1318  0.0000  0.0000  0.0000  0.0000  0.0000 </r>
       </set>
       <set comment="band 8">
        <r>  0.0000  0.0000  0.0348  0.1320  0.0000  0.0000  0.0000  0.0000  0.0000 </r>
        <r>  0.0000  0.0000  0.1318  0.0350  0.0000  0.0000  0.0000  0.0000  0.0000 </r>
       </set>
      </set>
      <set comment="kpoint 19">
       <set comment="band 1">
        <r>  0.2076  0.0098  0.0000  0.0000  0.0000  0.0000  0.0000  0.0000  0.0000 </r>
        <r>  0.2076  0.0098  0.0000  0.0000  0.0000  0.0000  0.0000  0.0000  0.0000 </r>
       </set>
       <set comment="band 2">
        <r>  0.1510  0.1024  0.0000  0.0000  0.0000  0.0000  0.0000  0.0000  0.0000 </r>
        <r>  0.1510  0.1024  0.0000  0.0000  0.0000  0.0000  0.0000  0.0000  0.0000 </r>
       </set>
       <set comment="band 3">
        <r>  0.0000  0.0000  0.0983  0.0983  0.0000  0.0000  0.0000  0.0000  0.0000 </r>
        <r>  0.0000  0.0000  0.0983  0.0983  0.0000  0.0000  0.0000  0.0000  0.0000 </r>
       </set>
       <set comment="band 4">
        <r>  0.0000  0.0000  0.0983  0.0983  0.0000  0.0000  0.0000  0.0000  0.0000 </r>
        <r>  0.0000  0.0000  0.0983  0.0983  0.0000  0.0000  0.0000  0.0000  0.0000 </r>
       </set>
       <set comment="band 5">
        <r>  0.0395  0.0827  0.0000  0.0000  0.0000  0.0000  0.0000  0.0000  0.0000 </r>
        <r>  0.0395  0.0827  0.0000  0.0000  0.0000  0.0000  0.0000  0.0000  0.0000 </r>
       </set>
       <set comment="band 6">
        <r>  0.0581  0.0450  0.0000  0.0000  0.0000  0.0000  0.0000  0.0000  0.0000 </r>
        <r>  0.0581  0.0450  0.0000  0.0000  0.0000  0.0000  0.0000  0.0000  0.0000 </r>
       </set>
       <set comment="band 7">
        <r>  0.0000  0.0000  0.1356  0.0313  0.0000  0.0000  0.0000  0.0000  0.0000 </r>
        <r>  0.0000  0.0000  0.0280  0.1389  0.0000  0.0000  0.0000  0.0000  0.0000 </r>
       </set>
       <set comment="band 8">
        <r>  0.0000  0.0000  0.0313  0.1356  0.0000  0.0000  0.0000  0.0000  0.0000 </r>
        <r>  0.0000  0.0000  0.1390  0.0280  0.0000  0.0000  0.0000  0.0000  0.0000 </r>
       </set>
      </set>
      <set comment="kpoint 20">
       <set comment="band 1">
        <r>  0.2071  0.0109  0.0000  0.0000  0.0000  0.0000  0.0000  0.0000  0.0000 </r>
        <r>  0.2071  0.0109  0.0000  0.0000  0.0000  0.0000  0.0000  0.0000  0.0000 </r>
       </set>
       <set comment="band 2">
        <r>  0.1550  0.0987  0.0000  0.0000  0.0000  0.0000  0.0000  0.0000  0.0000 </r>
        <r>  0.1550  0.0987  0.0000  0.0000  0.0000  0.0000  0.0000  0.0000  0.0000 </r>
       </set>
       <set comment="band 3">
        <r>  0.0000  0.0000  0.0982  0.0982  0.0000  0.0000  0.0000  0.0000  0.0000 </r>
        <r>  0.0000  0.0000  0.0982  0.0982  0.0000  0.0000  0.0000  0.0000  0.0000 </r>
       </set>
       <set comment="band 4">
        <r>  0.0000  0.0000  0.0982  0.0982  0.0000  0.0000  0.0000  0.0000  0.0000 </r>
        <r>  0.0000  0.0000  0.0982  0.0982  0.0000  0.0000  0.0000  0.0000  0.0000 </r>
       </set>
       <set comment="band 5">
        <r>  0.0412  0.0791  0.0000  0.0000  0.0000  0.0000  0.0000  0.0000  0.0000 </r>
        <r>  0.0412  0.0791  0.0000  0.0000  0.0000  0.0000  0.0000  0.0000  0.0000 </r>
       </set>
       <set comment="band 6">
        <r>  0.0534  0.0422  0.0000  0.0000  0.0000  0.0000  0.0000  0.0000  0.0000 </r>
        <r>  0.0534  0.0422  0.0000  0.0000  0.0000  0.0000  0.0000  0.0000  0.0000 </r>
       </set>
       <set comment="band 7">
        <r>  0.0000  0.0000  0.1084  0.0585  0.0000  0.0000  0.0000  0.0000  0.0000 </r>
        <r>  0.0000  0.0000  0.0676  0.0994  0.0000  0.0000  0.0000  0.0000  0.0000 </r>
       </set>
       <set comment="band 8">
        <r>  0.0000  0.0000  0.0585  0.1084  0.0000  0.0000  0.0000  0.0000  0.0000 </r>
        <r>  0.0000  0.0000  0.0994  0.0676  0.0000  0.0000  0.0000  0.0000  0.0000 </r>
       </set>
      </set>
      <set comment="kpoint 21">
       <set comment="band 1">
        <r>  0.2066  0.0120  0.0000  0.0000  0.0000  0.0000  0.0000  0.0000  0.0000 </r>
        <r>  0.2066  0.0120  0.0000  0.0000  0.0000  0.0000  0.0000  0.0000  0.0000 </r>
       </set>
       <set comment="band 2">
        <r>  0.1586  0.0951  0.0000  0.0000  0.0000  0.0000  0.0000  0.0000  0.0000 </r>
        <r>  0.1586  0.0951  0.0000  0.0000  0.0000  0.0000  0.0000  0.0000  0.0000 </r>
       </set>
       <set comment="band 3">
        <r>  0.0000  0.0000  0.0981  0.0981  0.0000  0.0000  0.0000  0.0000  0.0000 </r>
        <r>  0.0000  0.0000  0.0981  0.0981  0.0000  0.0000  0.0000  0.0000  0.0000 </r>
       </set>
       <set comment="band 4">
        <r>  0.0000  0.0000  0.0981  0.0981  0.0000  0.0000  0.0000  0.0000  0.0000 </r>
        <r>  0.0000  0.0000  0.0981  0.0981  0.0000  0.0000  0.0000  0.0000  0.0000 </r>
       </set>
       <set comment="band 5">
        <r>  0.0428  0.0757  0.0000  0.0000  0.0000  0.0000  0.0000  0.0000  0.0000 </r>
        <r>  0.0428  0.0757  0.0000  0.0000  0.0000  0.0000  0.0000  0.0000  0.0000 </r>
       </set>
       <set comment="band 6">
        <r>  0.0502  0.0399  0.0000  0.0000  0.0000  0.0000  0.0000  0.0000  0.0000 </r>
        <r>  0.0502  0.0399  0.0000  0.0000  0.0000  0.0000  0.0000  0.0000  0.0000 </r>
       </set>
       <set comment="band 7">
        <r>  0.0000  0.0000  0.1220  0.0449  0.0000  0.0000  0.0000  0.0000  0.0000 </r>
        <r>  0.0000  0.0000  0.0489  0.1180  0.0000  0.0000  0.0000  0.0000  0.0000 </r>
       </set>
       <set comment="band 8">
        <r>  0.0000  0.0000  0.0450  0.1220  0.0000  0.0000  0.0000  0.0000  0.0000 </r>
        <r>  0.0000  0.0000  0.1180  0.0490  0.0000  0.0000  0.0000  0.0000  0.0000 </r>
       </set>
      </set>
      <set comment="kpoint 22">
       <set comment="band 1">
        <r>  0.2061  0.0132  0.0000  0.0000  0.0000  0.0000  0.0000  0.0000  0.0000 </r>
        <r>  0.2061  0.0132  0.0000  0.0000  0.0000  0.0000  0.0000  0.0000  0.0000 </r>
       </set>
       <set comment="band 2">
        <r>  0.1620  0.0917  0.0000  0.0000  0.0000  0.0000  0.0000  0.0000  0.0000 </r>
        <r>  0.1620  0.0917  0.0000  0.0000  0.0000  0.0000  0.0000  0.0000  0.0000 </r>
       </set>
       <set comment="band 3">
        <r>  0.0000  0.0000  0.0980  0.0980  0.0000  0.0000  0.0000  0.0000  0.0000 </r>
        <r>  0.0000  0.0000  0.0980  0.0980  0.0000  0.0000  0.0000  0.0000  0.0000 </r>
       </set>
       <set comment="band 4">
        <r>  0.0000  0.0000  0.0980  0.0980  0.0000  0.0000  0.0000  0.0000  0.0000 </r>
        <r>  0.0000  0.0000  0.0980  0.0980  0.0000  0.0000  0.0000  0.0000  0.0000 </r>
       </set>
       <set comment="band 5">
        <r>  0.0443  0.0725  0.0000  0.0000  0.0000  0.0000  0.0000  0.0000  0.0000 </r>
        <r>  0.0443  0.0725  0.0000  0.0000  0.0000  0.0000  0.0000  0.0000  0.0000 </r>
       </set>
       <set comment="band 6">
        <r>  0.0479  0.0380  0.0000  0.0000  0.0000  0.0000  0.0000  0.0000  0.0000 </r>
        <r>  0.0479  0.0380  0.0000  0.0000  0.0000  0.0000  0.0000  0.0000  0.0000 </r>
       </set>
       <set comment="band 7">
        <r>  0.0000  0.0000  0.0600  0.1068  0.0000  0.0000  0.0000  0.0000  0.0000 </r>
        <r>  0.0000  0.0000  0.1229  0.0440  0.0000  0.0000  0.0000  0.0000  0.0000 </r>
       </set>
       <set comment="band 8">
        <r>  0.0000  0.0000  0.1068  0.0600  0.0000  0.0000  0.0000  0.0000  0.0000 </r>
        <r>  0.0000  0.0000  0.0440  0.1229  0.0000  0.0000  0.0000  0.0000  0.0000 </r>
       </set>
      </set>
      <set comment="kpoint 23">
       <set comment="band 1">
        <r>  0.2055  0.0145  0.0000  0.0000  0.0000  0.0000  0.0000  0.0000  0.0000 </r>
        <r>  0.2055  0.0145  0.0000  0.0000  0.0000  0.0000  0.0000  0.0000  0.0000 </r>
       </set>
       <set comment="band 2">
        <r>  0.1651  0.0884  0.0000  0.0000  0.0000  0.0000  0.0000  0.0000  0.0000 </r>
        <r>  0.1651  0.0884  0.0000  0.0000  0.0000  0.0000  0.0000  0.0000  0.0000 </r>
       </set>
       <set comment="band 3">
        <r>  0.0000  0.0000  0.0979  0.0979  0.0000  0.0000  0.0000  0.0000  0.0000 </r>
        <r>  0.0000  0.0000  0.0979  0.0979  0.0000  0.0000  0.0000  0.0000  0.0000 </r>
       </set>
       <set comment="band 4">
        <r>  0.0000  0.0000  0.0979  0.0979  0.0000  0.0000  0.0000  0.0000  0.0000 </r>
        <r>  0.0000  0.0000  0.0979  0.0979  0.0000  0.0000  0.0000  0.0000  0.0000 </r>
       </set>
       <set comment="band 5">
        <r>  0.0456  0.0694  0.0000  0.0000  0.0000  0.0000  0.0000  0.0000  0.0000 </r>
        <r>  0.0456  0.0694  0.0000  0.0000  0.0000  0.0000  0.0000  0.0000  0.0000 </r>
       </set>
       <set comment="band 6">
        <r>  0.0463  0.0364  0.0000  0.0000  0.0000  0.0000  0.0000  0.0000  0.0000 </r>
        <r>  0.0463  0.0364  0.0000  0.0000  0.0000  0.0000  0.0000  0.0000  0.0000 </r>
       </set>
       <set comment="band 7">
        <r>  0.0000  0.0000  0.1526  0.0142  0.0000  0.0000  0.0000  0.0000  0.0000 </r>
        <r>  0.0000  0.0000  0.0285  0.1382  0.0000  0.0000  0.0000  0.0000  0.0000 </r>
       </set>
       <set comment="band 8">
        <r>  0.0000  0.0000  0.0142  0.1525  0.0000  0.0000  0.0000  0.0000  0.0000 </r>
        <r>  0.0000  0.0000  0.1383  0.0285  0.0000  0.0000  0.0000  0.0000  0.0000 </r>
       </set>
      </set>
      <set comment="kpoint 24">
       <set comment="band 1">
        <r>  0.2050  0.0158  0.0000  0.0000  0.0000  0.0000  0.0000  0.0000  0.0000 </r>
        <r>  0.2050  0.0158  0.0000  0.0000  0.0000  0.0000  0.0000  0.0000  0.0000 </r>
       </set>
       <set comment="band 2">
        <r>  0.1679  0.0852  0.0000  0.0000  0.0000  0.0000  0.0000  0.0000  0.0000 </r>
        <r>  0.1679  0.0852  0.0000  0.0000  0.0000  0.0000  0.0000  0.0000  0.0000 </r>
       </set>
       <set comment="band 3">
        <r>  0.0000  0.0000  0.0978  0.0978  0.0000  0.0000  0.0000  0.0000  0.0000 </r>
        <r>  0.0000  0.0000  0.0978  0.0978  0.0000  0.0000  0.0000  0.0000  0.0000 </r>
       </set>
       <set comment="band 4">
        <r>  0.0000  0.0000  0.0978  0.0978  0.0000  0.0000  0.0000  0.0000  0.0000 </r>
        <r>  0.0000  0.0000  0.0978  0.0978  0.0000  0.0000  0.0000  0.0000  0.0000 </r>
       </set>
       <set comment="band 5">
        <r>  0.0469  0.0664  0.0000  0.0000  0.0000  0.0000  0.0000  0.0000  0.0000 </r>
        <r>  0.0469  0.0664  0.0000  0.0000  0.0000  0.0000  0.0000  0.0000  0.0000 </r>
       </set>
       <set comment="band 6">
        <r>  0.0453  0.0352  0.0000  0.0000  0.0000  0.0000  0.0000  0.0000  0.0000 </r>
        <r>  0.0453  0.0352  0.0000  0.0000  0.0000  0.0000  0.0000  0.0000  0.0000 </r>
       </set>
       <set comment="band 7">
        <r>  0.0000  0.0000  0.1044  0.0621  0.0000  0.0000  0.0000  0.0000  0.0000 </r>
        <r>  0.0000  0.0000  0.0875  0.0791  0.0000  0.0000  0.0000  0.0000  0.0000 </r>
       </set>
       <set comment="band 8">
        <r>  0.0000  0.0000  0.0621  0.1041  0.0000  0.0000  0.0000  0.0000  0.0000 </r>
        <r>  0.0000  0.0000  0.0790  0.0877  0.0000  0.0000  0.0000  0.0000  0.0000 </r>
       </set>
      </set>
      <set comment="kpoint 25">
       <set comment="band 1">
        <r>  0.2044  0.0172  0.0000  0.0000  0.0000  0.0000  0.0000  0.0000  0.0000 </r>
        <r>  0.2044  0.0172  0.0000  0.0000  0.0000  0.0000  0.0000  0.0000  0.0000 </r>
       </set>
       <set comment="band 2">
        <r>  0.1705  0.0822  0.0000  0.0000  0.0000  0.0000  0.0000  0.0000  0.0000 </r>
        <r>  0.1705  0.0822  0.0000  0.0000  0.0000  0.0000  0.0000  0.0000  0.0000 </r>
       </set>
       <set comment="band 3">
        <r>  0.0000  0.0000  0.0977  0.0977  0.0000  0.0000  0.0000  0.0000  0.0000 </r>
        <r>  0.0000  0.0000  0.0977  0.0977  0.0000  0.0000  0.0000  0.0000  0.0000 </r>
       </set>
       <set comment="band 4">
        <r>  0.0000  0.0000  0.0977  0.0977  0.0000  0.0000  0.0000  0.0000  0.0000 </r>
        <r>  0.0000  0.0000  0.0977  0.0977  0.0000  0.0000  0.0000  0.0000  0.0000 </r>
       </set>
       <set comment="band 5">
        <r>  0.0479  0.0636  0.0000  0.0000  0.0000  0.0000  0.0000  0.0000  0.0000 </r>
        <r>  0.0479  0.0636  0.0000  0.0000  0.0000  0.0000  0.0000  0.0000  0.0000 </r>
       </set>
       <set comment="band 6">
        <r>  0.0447  0.0341  0.0000  0.0000  0.0000  0.0000  0.0000  0.0000  0.0000 </r>
        <r>  0.0447  0.0341  0.0000  0.0000  0.0000  0.0000  0.0000  0.0000  0.0000 </r>
       </set>
       <set comment="band 7">
        <r>  0.0000  0.0000  0.0639  0.1025  0.0000  0.0000  0.0000  0.0000  0.0000 </r>
        <r>  0.0000  0.0000  0.0807  0.0857  0.0000  0.0000  0.0000  0.0000  0.0000 </r>
       </set>
       <set comment="band 8">
        <r>  0.0000  0.0000  0.1025  0.0639  0.0000  0.0000  0.0000  0.0000  0.0000 </r>
        <r>  0.0000  0.0000  0.0857  0.0807  0.0000  0.0000  0.0000  0.0000  0.0000 </r>
       </set>
      </set>
      <set comment="kpoint 26">
       <set comment="band 1">
        <r>  0.2038  0.0186  0.0000  0.0000  0.0000  0.0000  0.0000  0.0000  0.0000 </r>
        <r>  0.2038  0.0186  0.0000  0.0000  0.0000  0.0000  0.0000  0.0000  0.0000 </r>
       </set>
       <set comment="band 2">
        <r>  0.1729  0.0792  0.0000  0.0000  0.0000  0.0000  0.0000  0.0000  0.0000 </r>
        <r>  0.1729  0.0792  0.0000  0.0000  0.0000  0.0000  0.0000  0.0000  0.0000 </r>
       </set>
       <set comment="band 3">
        <r>  0.0000  0.0000  0.0977  0.0977  0.0000  0.0000  0.0000  0.0000  0.0000 </r>
        <r>  0.0000  0.0000  0.0977  0.0977  0.0000  0.0000  0.0000  0.0000  0.0000 </r>
       </set>
       <set comment="band 4">
        <r>  0.0000  0.0000  0.0977  0.0977  0.0000  0.0000  0.0000  0.0000  0.0000 </r>
        <r>  0.0000  0.0000  0.0977  0.0977  0.0000  0.0000  0.0000  0.0000  0.0000 </r>
       </set>
       <set comment="band 5">
        <r>  0.0489  0.0609  0.0000  0.0000  0.0000  0.0000  0.0000  0.0000  0.0000 </r>
        <r>  0.0489  0.0609  0.0000  0.0000  0.0000  0.0000  0.0000  0.0000  0.0000 </r>
       </set>
       <set comment="band 6">
        <r>  0.0444  0.0333  0.0000  0.0000  0.0000  0.0000  0.0000  0.0000  0.0000 </r>
        <r>  0.0444  0.0333  0.0000  0.0000  0.0000  0.0000  0.0000  0.0000  0.0000 </r>
       </set>
       <set comment="band 7">
        <r>  0.0000  0.0000  0.0384  0.1279  0.0000  0.0000  0.0000  0.0000  0.0000 </r>
        <r>  0.0000  0.0000  0.1184  0.0479  0.0000  0.0000  0.0000  0.0000  0.0000 </r>
       </set>
       <set comment="band 8">
        <r>  0.0000  0.0000  0.1279  0.0384  0.0000  0.0000  0.0000  0.0000  0.0000 </r>
        <r>  0.0000  0.0000  0.0479  0.1184  0.0000  0.0000  0.0000  0.0000  0.0000 </r>
       </set>
      </set>
      <set comment="kpoint 27">
       <set comment="band 1">
        <r>  0.2032  0.0201  0.0000  0.0000  0.0000  0.0000  0.0000  0.0000  0.0000 </r>
        <r>  0.2032  0.0201  0.0000  0.0000  0.0000  0.0000  0.0000  0.0000  0.0000 </r>
       </set>
       <set comment="band 2">
        <r>  0.1751  0.0762  0.0000  0.0000  0.0000  0.0000  0.0000  0.0000  0.0000 </r>
        <r>  0.1751  0.0762  0.0000  0.0000  0.0000  0.0000  0.0000  0.0000  0.0000 </r>
       </set>
       <set comment="band 3">
        <r>  0.0000  0.0000  0.0976  0.0976  0.0000  0.0000  0.0000  0.0000  0.0000 </r>
        <r>  0.0000  0.0000  0.0976  0.0976  0.0000  0.0000  0.0000  0.0000  0.0000 </r>
       </set>
       <set comment="band 4">
        <r>  0.0000  0.0000  0.0976  0.0976  0.0000  0.0000  0.0000  0.0000  0.0000 </r>
        <r>  0.0000  0.0000  0.0976  0.0976  0.0000  0.0000  0.0000  0.0000  0.0000 </r>
       </set>
       <set comment="band 5">
        <r>  0.0497  0.0584  0.0000  0.0000  0.0000  0.0000  0.0000  0.0000  0.0000 </r>
        <r>  0.0497  0.0584  0.0000  0.0000  0.0000  0.0000  0.0000  0.0000  0.0000 </r>
       </set>
       <set comment="band 6">
        <r>  0.0444  0.0326  0.0000  0.0000  0.0000  0.0000  0.0000  0.0000  0.0000 </r>
        <r>  0.0444  0.0326  0.0000  0.0000  0.0000  0.0000  0.0000  0.0000  0.0000 </r>
       </set>
       <set comment="band 7">
        <r>  0.0000  0.0000  0.1124  0.0538  0.0000  0.0000  0.0000  0.0000  0.0000 </r>
        <r>  0.0000  0.0000  0.0858  0.0805  0.0000  0.0000  0.0000  0.0000  0.0000 </r>
       </set>
       <set comment="band 8">
        <r>  0.0000  0.0000  0.0538  0.1124  0.0000  0.0000  0.0000  0.0000  0.0000 </r>
        <r>  0.0000  0.0000  0.0805  0.0858  0.0000  0.0000  0.0000  0.0000  0.0000 </r>
       </set>
      </set>
      <set comment="kpoint 28">
       <set comment="band 1">
        <r>  0.2025  0.0216  0.0000  0.0000  0.0000  0.0000  0.0000  0.0000  0.0000 </r>
        <r>  0.2025  0.0216  0.0000  0.0000  0.0000  0.0000  0.0000  0.0000  0.0000 </r>
       </set>
       <set comment="band 2">
        <r>  0.1772  0.0734  0.0000  0.0000  0.0000  0.0000  0.0000  0.0000  0.0000 </r>
        <r>  0.1772  0.0734  0.0000  0.0000  0.0000  0.0000  0.0000  0.0000  0.0000 </r>
       </set>
       <set comment="band 3">
        <r>  0.0000  0.0000  0.0976  0.0976  0.0000  0.0000  0.0000  0.0000  0.0000 </r>
        <r>  0.0000  0.0000  0.0976  0.0976  0.0000  0.0000  0.0000  0.0000  0.0000 </r>
       </set>
       <set comment="band 4">
        <r>  0.0000  0.0000  0.0976  0.0976  0.0000  0.0000  0.0000  0.0000  0.0000 </r>
        <r>  0.0000  0.0000  0.0976  0.0976  0.0000  0.0000  0.0000  0.0000  0.0000 </r>
       </set>
       <set comment="band 5">
        <r>  0.0504  0.0560  0.0000  0.0000  0.0000  0.0000  0.0000  0.0000  0.0000 </r>
        <r>  0.0504  0.0560  0.0000  0.0000  0.0000  0.0000  0.0000  0.0000  0.0000 </r>
       </set>
       <set comment="band 6">
        <r>  0.0445  0.0321  0.0000  0.0000  0.0000  0.0000  0.0000  0.0000  0.0000 </r>
        <r>  0.0445  0.0321  0.0000  0.0000  0.0000  0.0000  0.0000  0.0000  0.0000 </r>
       </set>
       <set comment="band 7">
        <r>  0.0000  0.0000  0.0764  0.0898  0.0000  0.0000  0.0000  0.0000  0.0000 </r>
        <r>  0.0000  0.0000  0.0693  0.0969  0.0000  0.0000  0.0000  0.0000  0.0000 </r>
       </set>
       <set comment="band 8">
        <r>  0.0000  0.0000  0.0899  0.0763  0.0000  0.0000  0.0000  0.0000  0.0000 </r>
        <r>  0.0000  0.0000  0.0968  0.0693  0.0000  0.0000  0.0000  0.0000  0.0000 </r>
       </set>
      </set>
      <set comment="kpoint 29">
       <set comment="band 1">
        <r>  0.2019  0.0232  0.0000  0.0000  0.0000  0.0000  0.0000  0.0000  0.0000 </r>
        <r>  0.2019  0.0232  0.0000  0.0000  0.0000  0.0000  0.0000  0.0000  0.0000 </r>
       </set>
       <set comment="band 2">
        <r>  0.1791  0.0706  0.0000  0.0000  0.0000  0.0000  0.0000  0.0000  0.0000 </r>
        <r>  0.1791  0.0706  0.0000  0.0000  0.0000  0.0000  0.0000  0.0000  0.0000 </r>
       </set>
       <set comment="band 3">
        <r>  0.0000  0.0000  0.0976  0.0976  0.0000  0.0000  0.0000  0.0000  0.0000 </r>
        <r>  0.0000  0.0000  0.0976  0.0976  0.0000  0.0000  0.0000  0.0000  0.0000 </r>
       </set>
       <set comment="band 4">
        <r>  0.0000  0.0000  0.0976  0.0976  0.0000  0.0000  0.0000  0.0000  0.0000 </r>
        <r>  0.0000  0.0000  0.0976  0.0976  0.0000  0.0000  0.0000  0.0000  0.0000 </r>
       </set>
       <set comment="band 5">
        <r>  0.0510  0.0537  0.0000  0.0000  0.0000  0.0000  0.0000  0.0000  0.0000 </r>
        <r>  0.0510  0.0537  0.0000  0.0000  0.0000  0.0000  0.0000  0.0000  0.0000 </r>
       </set>
       <set comment="band 6">
        <r>  0.0449  0.0318  0.0000  0.0000  0.0000  0.0000  0.0000  0.0000  0.0000 </r>
        <r>  0.0449  0.0318  0.0000  0.0000  0.0000  0.0000  0.0000  0.0000  0.0000 </r>
       </set>
       <set comment="band 7">
        <r>  0.0000  0.0000  0.1259  0.0405  0.0000  0.0000  0.0000  0.0000  0.0000 </r>
        <r>  0.0000  0.0000  0.0484  0.1179  0.0000  0.0000  0.0000  0.0000  0.0000 </r>
       </set>
       <set comment="band 8">
        <r>  0.0000  0.0000  0.0405  0.1257  0.0000  0.0000  0.0000  0.0000  0.0000 </r>
        <r>  0.0000  0.0000  0.1179  0.0484  0.0000  0.0000  0.0000  0.0000  0.0000 </r>
       </set>
      </set>
      <set comment="kpoint 30">
       <set comment="band 1">
        <r>  0.2012  0.0248  0.0000  0.0000  0.0000  0.0000  0.0000  0.0000  0.0000 </r>
        <r>  0.2012  0.0248  0.0000  0.0000  0.0000  0.0000  0.0000  0.0000  0.0000 </r>
       </set>
       <set comment="band 2">
        <r>  0.1808  0.0679  0.0000  0.0000  0.0000  0.0000  0.0000  0.0000  0.0000 </r>
        <r>  0.1808  0.0679  0.0000  0.0000  0.0000  0.0000  0.0000  0.0000  0.0000 </r>
       </set>
       <set comment="band 3">
        <r>  0.0000  0.0000  0.0975  0.0975  0.0000  0.0000  0.0000  0.0000  0.0000 </r>
        <r>  0.0000  0.0000  0.0975  0.0975  0.0000  0.0000  0.0000  0.0000  0.0000 </r>
       </set>
       <set comment="band 4">
        <r>  0.0000  0.0000  0.0975  0.0975  0.0000  0.0000  0.0000  0.0000  0.0000 </r>
        <r>  0.0000  0.0000  0.0975  0.0975  0.0000  0.0000  0.0000  0.0000  0.0000 </r>
       </set>
       <set comment="band 5">
        <r>  0.0515  0.0516  0.0000  0.0000  0.0000  0.0000  0.0000  0.0000  0.0000 </r>
        <r>  0.0515  0.0516  0.0000  0.0000  0.0000  0.0000  0.0000  0.0000  0.0000 </r>
       </set>
       <set comment="band 6">
        <r>  0.0453  0.0316  0.0000  0.0000  0.0000  0.0000  0.0000  0.0000  0.0000 </r>
        <r>  0.0453  0.0316  0.0000  0.0000  0.0000  0.0000  0.0000  0.0000  0.0000 </r>
       </set>
       <set comment="band 7">
        <r>  0.0000  0.0000  0.1594  0.0072  0.0000  0.0000  0.0000  0.0000  0.0000 </r>
        <r>  0.0000  0.0000  0.0069  0.1598  0.0000  0.0000  0.0000  0.0000  0.0000 </r>
       </set>
       <set comment="band 8">
        <r>  0.0000  0.0000  0.0072  0.1595  0.0000  0.0000  0.0000  0.0000  0.0000 </r>
        <r>  0.0000  0.0000  0.1598  0.0069  0.0000  0.0000  0.0000  0.0000  0.0000 </r>
       </set>
      </set>
      <set comment="kpoint 31">
       <set comment="band 1">
        <r>  0.2005  0.0265  0.0000  0.0000  0.0000  0.0000  0.0000  0.0000  0.0000 </r>
        <r>  0.2005  0.0265  0.0000  0.0000  0.0000  0.0000  0.0000  0.0000  0.0000 </r>
       </set>
       <set comment="band 2">
        <r>  0.1825  0.0653  0.0000  0.0000  0.0000  0.0000  0.0000  0.0000  0.0000 </r>
        <r>  0.1825  0.0653  0.0000  0.0000  0.0000  0.0000  0.0000  0.0000  0.0000 </r>
       </set>
       <set comment="band 3">
        <r>  0.0000  0.0000  0.0975  0.0975  0.0000  0.0000  0.0000  0.0000  0.0000 </r>
        <r>  0.0000  0.0000  0.0975  0.0975  0.0000  0.0000  0.0000  0.0000  0.0000 </r>
       </set>
       <set comment="band 4">
        <r>  0.0000  0.0000  0.0975  0.0975  0.0000  0.0000  0.0000  0.0000  0.0000 </r>
        <r>  0.0000  0.0000  0.0975  0.0975  0.0000  0.0000  0.0000  0.0000  0.0000 </r>
       </set>
       <set comment="band 5">
        <r>  0.0519  0.0495  0.0000  0.0000  0.0000  0.0000  0.0000  0.0000  0.0000 </r>
        <r>  0.0519  0.0495  0.0000  0.0000  0.0000  0.0000  0.0000  0.0000  0.0000 </r>
       </set>
       <set comment="band 6">
        <r>  0.0458  0.0316  0.0000  0.0000  0.0000  0.0000  0.0000  0.0000  0.0000 </r>
        <r>  0.0458  0.0316  0.0000  0.0000  0.0000  0.0000  0.0000  0.0000  0.0000 </r>
       </set>
       <set comment="band 7">
        <r>  0.0000  0.0000  0.0716  0.0956  0.0000  0.0000  0.0000  0.0000  0.0000 </r>
        <r>  0.0000  0.0000  0.0532  0.1141  0.0000  0.0000  0.0000  0.0000  0.0000 </r>
       </set>
       <set comment="band 8">
        <r>  0.0000  0.0000  0.0957  0.0716  0.0000  0.0000  0.0000  0.0000  0.0000 </r>
        <r>  0.0000  0.0000  0.1140  0.0532  0.0000  0.0000  0.0000  0.0000  0.0000 </r>
       </set>
      </set>
      <set comment="kpoint 32">
       <set comment="band 1">
        <r>  0.1998  0.0283  0.0000  0.0000  0.0000  0.0000  0.0000  0.0000  0.0000 </r>
        <r>  0.1998  0.0283  0.0000  0.0000  0.0000  0.0000  0.0000  0.0000  0.0000 </r>
       </set>
       <set comment="band 2">
        <r>  0.1840  0.0627  0.0000  0.0000  0.0000  0.0000  0.0000  0.0000  0.0000 </r>
        <r>  0.1840  0.0627  0.0000  0.0000  0.0000  0.0000  0.0000  0.0000  0.0000 </r>
       </set>
       <set comment="band 3">
        <r>  0.0000  0.0000  0.0975  0.0975  0.0000  0.0000  0.0000  0.0000  0.0000 </r>
        <r>  0.0000  0.0000  0.0975  0.0975  0.0000  0.0000  0.0000  0.0000  0.0000 </r>
       </set>
       <set comment="band 4">
        <r>  0.0000  0.0000  0.0975  0.0975  0.0000  0.0000  0.0000  0.0000  0.0000 </r>
        <r>  0.0000  0.0000  0.0975  0.0975  0.0000  0.0000  0.0000  0.0000  0.0000 </r>
       </set>
       <set comment="band 5">
        <r>  0.0522  0.0476  0.0000  0.0000  0.0000  0.0000  0.0000  0.0000  0.0000 </r>
        <r>  0.0522  0.0476  0.0000  0.0000  0.0000  0.0000  0.0000  0.0000  0.0000 </r>
       </set>
       <set comment="band 6">
        <r>  0.0464  0.0316  0.0000  0.0000  0.0000  0.0000  0.0000  0.0000  0.0000 </r>
        <r>  0.0464  0.0316  0.0000  0.0000  0.0000  0.0000  0.0000  0.0000  0.0000 </r>
       </set>
       <set comment="band 7">
        <r>  0.0000  0.0000  0.0407  0.1275  0.0000  0.0000  0.0000  0.0000  0.0000 </r>
        <r>  0.0000  0.0000  0.1125  0.0557  0.0000  0.0000  0.0000  0.0000  0.0000 </r>
       </set>
       <set comment="band 8">
        <r>  0.0000  0.0000  0.1276  0.0407  0.0000  0.0000  0.0000  0.0000  0.0000 </r>
        <r>  0.0000  0.0000  0.0557  0.1125  0.0000  0.0000  0.0000  0.0000  0.0000 </r>
       </set>
      </set>
      <set comment="kpoint 33">
       <set comment="band 1">
        <r>  0.1991  0.0300  0.0000  0.0000  0.0000  0.0000  0.0000  0.0000  0.0000 </r>
        <r>  0.1991  0.0300  0.0000  0.0000  0.0000  0.0000  0.0000  0.0000  0.0000 </r>
       </set>
       <set comment="band 2">
        <r>  0.1854  0.0602  0.0000  0.0000  0.0000  0.0000  0.0000  0.0000  0.0000 </r>
        <r>  0.1854  0.0602  0.0000  0.0000  0.0000  0.0000  0.0000  0.0000  0.0000 </r>
       </set>
       <set comment="band 3">
        <r>  0.0000  0.0000  0.0975  0.0975  0.0000  0.0000  0.0000  0.0000  0.0000 </r>
        <r>  0.0000  0.0000  0.0975  0.0975  0.0000  0.0000  0.0000  0.0000  0.0000 </r>
       </set>
       <set comment="band 4">
        <r>  0.0000  0.0000  0.0975  0.0975  0.0000  0.0000  0.0000  0.0000  0.0000 </r>
        <r>  0.0000  0.0000  0.0975  0.0975  0.0000  0.0000  0.0000  0.0000  0.0000 </r>
       </set>
       <set comment="band 5">
        <r>  0.0524  0.0458  0.0000  0.0000  0.0000  0.0000  0.0000  0.0000  0.0000 </r>
        <r>  0.0524  0.0458  0.0000  0.0000  0.0000  0.0000  0.0000  0.0000  0.0000 </r>
       </set>
       <set comment="band 6">
        <r>  0.0470  0.0318  0.0000  0.0000  0.0000  0.0000  0.0000  0.0000  0.0000 </r>
        <r>  0.0470  0.0318  0.0000  0.0000  0.0000  0.0000  0.0000  0.0000  0.0000 </r>
       </set>
       <set comment="band 7">
        <r>  0.0000  0.0000  0.0139  0.1561  0.0000  0.0000  0.0000  0.0000  0.0000 </r>
        <r>  0.0000  0.0000  0.1699  0.0000  0.0000  0.0000  0.0000  0.0000  0.0000 </r>
       </set>
       <set comment="band 8">
        <r>  0.0000  0.0000  0.1561  0.0138  0.0000  0.0000  0.0000  0.0000  0.0000 </r>
        <r>  0.0000  0.0000  0.0000  0.1699  0.0000  0.0000  0.0000  0.0000  0.0000 </r>
       </set>
      </set>
      <set comment="kpoint 34">
       <set comment="band 1">
        <r>  0.1983  0.0319  0.0000  0.0000  0.0000  0.0000  0.0000  0.0000  0.0000 </r>
        <r>  0.1983  0.0319  0.0000  0.0000  0.0000  0.0000  0.0000  0.0000  0.0000 </r>
       </set>
       <set comment="band 2">
        <r>  0.1867  0.0577  0.0000  0.0000  0.0000  0.0000  0.0000  0.0000  0.0000 </r>
        <r>  0.1867  0.0577  0.0000  0.0000  0.0000  0.0000  0.0000  0.0000  0.0000 </r>
       </set>
       <set comment="band 3">
        <r>  0.0000  0.0000  0.0975  0.0975  0.0000  0.0000  0.0000  0.0000  0.0000 </r>
        <r>  0.0000  0.0000  0.0975  0.0975  0.0000  0.0000  0.0000  0.0000  0.0000 </r>
       </set>
       <set comment="band 4">
        <r>  0.0000  0.0000  0.0975  0.0975  0.0000  0.0000  0.0000  0.0000  0.0000 </r>
        <r>  0.0000  0.0000  0.0975  0.0975  0.0000  0.0000  0.0000  0.0000  0.0000 </r>
       </set>
       <set comment="band 5">
        <r>  0.0525  0.0441  0.0000  0.0000  0.0000  0.0000  0.0000  0.0000  0.0000 </r>
        <r>  0.0525  0.0441  0.0000  0.0000  0.0000  0.0000  0.0000  0.0000  0.0000 </r>
       </set>
       <set comment="band 6">
        <r>  0.0477  0.0321  0.0000  0.0000  0.0000  0.0000  0.0000  0.0000  0.0000 </r>
        <r>  0.0477  0.0321  0.0000  0.0000  0.0000  0.0000  0.0000  0.0000  0.0000 </r>
       </set>
       <set comment="band 7">
        <r>  0.0000  0.0000  0.1416  0.0309  0.0000  0.0000  0.0000  0.0000  0.0000 </r>
        <r>  0.0000  0.0000  0.0730  0.0996  0.0000  0.0000  0.0000  0.0000  0.0000 </r>
       </set>
       <set comment="band 8">
        <r>  0.0000  0.0000  0.0309  0.1415  0.0000  0.0000  0.0000  0.0000  0.0000 </r>
        <r>  0.0000  0.0000  0.0996  0.0730  0.0000  0.0000  0.0000  0.0000  0.0000 </r>
       </set>
      </set>
      <set comment="kpoint 35">
       <set comment="band 1">
        <r>  0.1976  0.0338  0.0000  0.0000  0.0000  0.0000  0.0000  0.0000  0.0000 </r>
        <r>  0.1976  0.0338  0.0000  0.0000  0.0000  0.0000  0.0000  0.0000  0.0000 </r>
       </set>
       <set comment="band 2">
        <r>  0.1880  0.0553  0.0000  0.0000  0.0000  0.0000  0.0000  0.0000  0.0000 </r>
        <r>  0.1880  0.0553  0.0000  0.0000  0.0000  0.0000  0.0000  0.0000  0.0000 </r>
       </set>
       <set comment="band 3">
        <r>  0.0000  0.0000  0.0975  0.0975  0.0000  0.0000  0.0000  0.0000  0.0000 </r>
        <r>  0.0000  0.0000  0.0975  0.0975  0.0000  0.0000  0.0000  0.0000  0.0000 </r>
       </set>
       <set comment="band 4">
        <r>  0.0000  0.0000  0.0975  0.0975  0.0000  0.0000  0.0000  0.0000  0.0000 </r>
        <r>  0.0000  0.0000  0.0975  0.0975  0.0000  0.0000  0.0000  0.0000  0.0000 </r>
       </set>
       <set comment="band 5">
        <r>  0.0525  0.0425  0.0000  0.0000  0.0000  0.0000  0.0000  0.0000  0.0000 </r>
        <r>  0.0525  0.0425  0.0000  0.0000  0.0000  0.0000  0.0000  0.0000  0.0000 </r>
       </set>
       <set comment="band 6">
        <r>  0.0483  0.0325  0.0000  0.0000  0.0000  0.0000  0.0000  0.0000  0.0000 </r>
        <r>  0.0483  0.0325  0.0000  0.0000  0.0000  0.0000  0.0000  0.0000  0.0000 </r>
       </set>
       <set comment="band 7">
        <r>  0.0000  0.0000  0.0944  0.0821  0.0000  0.0000  0.0000  0.0000  0.0000 </r>
        <r>  0.0000  0.0000  0.0487  0.1278  0.0000  0.0000  0.0000  0.0000  0.0000 </r>
       </set>
       <set comment="band 8">
        <r>  0.0000  0.0000  0.0821  0.0944  0.0000  0.0000  0.0000  0.0000  0.0000 </r>
        <r>  0.0000  0.0000  0.1278  0.0487  0.0000  0.0000  0.0000  0.0000  0.0000 </r>
       </set>
      </set>
      <set comment="kpoint 36">
       <set comment="band 1">
        <r>  0.1968  0.0357  0.0000  0.0000  0.0000  0.0000  0.0000  0.0000  0.0000 </r>
        <r>  0.1968  0.0357  0.0000  0.0000  0.0000  0.0000  0.0000  0.0000  0.0000 </r>
       </set>
       <set comment="band 2">
        <r>  0.1891  0.0529  0.0000  0.0000  0.0000  0.0000  0.0000  0.0000  0.0000 </r>
        <r>  0.1891  0.0529  0.0000  0.0000  0.0000  0.0000  0.0000  0.0000  0.0000 </r>
       </set>
       <set comment="band 3">
        <r>  0.0000  0.0000  0.0975  0.0975  0.0000  0.0000  0.0000  0.0000  0.0000 </r>
        <r>  0.0000  0.0000  0.0975  0.0975  0.0000  0.0000  0.0000  0.0000  0.0000 </r>
       </set>
       <set comment="band 4">
        <r>  0.0000  0.0000  0.0975  0.0975  0.0000  0.0000  0.0000  0.0000  0.0000 </r>
        <r>  0.0000  0.0000  0.0975  0.0975  0.0000  0.0000  0.0000  0.0000  0.0000 </r>
       </set>
       <set comment="band 5">
        <r>  0.0524  0.0410  0.0000  0.0000  0.0000  0.0000  0.0000  0.0000  0.0000 </r>
        <r>  0.0524  0.0410  0.0000  0.0000  0.0000  0.0000  0.0000  0.0000  0.0000 </r>
       </set>
       <set comment="band 6">
        <r>  0.0490  0.0331  0.0000  0.0000  0.0000  0.0000  0.0000  0.0000  0.0000 </r>
        <r>  0.0490  0.0331  0.0000  0.0000  0.0000  0.0000  0.0000  0.0000  0.0000 </r>
       </set>
       <set comment="band 7">
        <r>  0.0000  0.0000  0.0850  0.0977  0.0000  0.0000  0.0000  0.0000  0.0000 </r>
        <r>  0.0000  0.0000  0.1246  0.0581  0.0000  0.0000  0.0000  0.0000  0.0000 </r>
       </set>
       <set comment="band 8">
        <r>  0.0000  0.0000  0.0977  0.0850  0.0000  0.0000  0.0000  0.0000  0.0000 </r>
        <r>  0.0000  0.0000  0.0582  0.1246  0.0000  0.0000  0.0000  0.0000  0.0000 </r>
       </set>
      </set>
      <set comment="kpoint 37">
       <set comment="band 1">
        <r>  0.1959  0.0377  0.0000  0.0000  0.0000  0.0000  0.0000  0.0000  0.0000 </r>
        <r>  0.1959  0.0377  0.0000  0.0000  0.0000  0.0000  0.0000  0.0000  0.0000 </r>
       </set>
       <set comment="band 2">
        <r>  0.1903  0.0506  0.0000  0.0000  0.0000  0.0000  0.0000  0.0000  0.0000 </r>
        <r>  0.1903  0.0506  0.0000  0.0000  0.0000  0.0000  0.0000  0.0000  0.0000 </r>
       </set>
       <set comment="band 3">
        <r>  0.0000  0.0000  0.0975  0.0975  0.0000  0.0000  0.0000  0.0000  0.0000 </r>
        <r>  0.0000  0.0000  0.0975  0.0975  0.0000  0.0000  0.0000  0.0000  0.0000 </r>
       </set>
       <set comment="band 4">
        <r>  0.0000  0.0000  0.0975  0.0975  0.0000  0.0000  0.0000  0.0000  0.0000 </r>
        <r>  0.0000  0.0000  0.0975  0.0975  0.0000  0.0000  0.0000  0.0000  0.0000 </r>
       </set>
       <set comment="band 5">
        <r>  0.0522  0.0397  0.0000  0.0000  0.0000  0.0000  0.0000  0.0000  0.0000 </r>
        <r>  0.0522  0.0397  0.0000  0.0000  0.0000  0.0000  0.0000  0.0000  0.0000 </r>
       </set>
       <set comment="band 6">
        <r>  0.0496  0.0337  0.0000  0.0000  0.0000  0.0000  0.0000  0.0000  0.0000 </r>
        <r>  0.0496  0.0337  0.0000  0.0000  0.0000  0.0000  0.0000  0.0000  0.0000 </r>
       </set>
       <set comment="band 7">
        <r>  0.0000  0.0000  0.0890  0.1039  0.0000  0.0000  0.0000  0.0000  0.0000 </r>
        <r>  0.0000  0.0000  0.0609  0.1321  0.0000  0.0000  0.0000  0.0000  0.0000 </r>
       </set>
       <set comment="band 8">
        <r>  0.0000  0.0000  0.1040  0.0879  0.0000  0.0000  0.0000  0.0000  0.0000 </r>
        <r>  0.0000  0.0000  0.1311  0.0605  0.0000  0.0000  0.0000  0.0000  0.0000 </r>
       </set>
      </set>
      <set comment="kpoint 38">
       <set comment="band 1">
        <r>  0.1951  0.0397  0.0000  0.0000  0.0000  0.0000  0.0000  0.0000  0.0000 </r>
        <r>  0.1951  0.0397  0.0000  0.0000  0.0000  0.0000  0.0000  0.0000  0.0000 </r>
       </set>
       <set comment="band 2">
        <r>  0.1913  0.0483  0.0000  0.0000  0.0000  0.0000  0.0000  0.0000  0.0000 </r>
        <r>  0.1913  0.0483  0.0000  0.0000  0.0000  0.0000  0.0000  0.0000  0.0000 </r>
       </set>
       <set comment="band 3">
        <r>  0.0000  0.0000  0.0975  0.0975  0.0000  0.0000  0.0000  0.0000  0.0000 </r>
        <r>  0.0000  0.0000  0.0975  0.0975  0.0000  0.0000  0.0000  0.0000  0.0000 </r>
       </set>
       <set comment="band 4">
        <r>  0.0000  0.0000  0.0975  0.0975  0.0000  0.0000  0.0000  0.0000  0.0000 </r>
        <r>  0.0000  0.0000  0.0975  0.0975  0.0000  0.0000  0.0000  0.0000  0.0000 </r>
       </set>
       <set comment="band 5">
        <r>  0.0519  0.0384  0.0000  0.0000  0.0000  0.0000  0.0000  0.0000  0.0000 </r>
        <r>  0.0519  0.0384  0.0000  0.0000  0.0000  0.0000  0.0000  0.0000  0.0000 </r>
       </set>
       <set comment="band 6">
        <r>  0.0501  0.0344  0.0000  0.0000  0.0000  0.0000  0.0000  0.0000  0.0000 </r>
        <r>  0.0501  0.0344  0.0000  0.0000  0.0000  0.0000  0.0000  0.0000  0.0000 </r>
       </set>
       <set comment="band 7">
        <r>  0.0000  0.0000  0.0419  0.1655  0.0000  0.0000  0.0000  0.0000  0.0000 </r>
        <r>  0.0000  0.0000  0.1548  0.0527  0.0000  0.0000  0.0000  0.0000  0.0000 </r>
       </set>
       <set comment="band 8">
        <r>  0.0000  0.0000  0.1655  0.0420  0.0000  0.0000  0.0000  0.0000  0.0000 </r>
        <r>  0.0000  0.0000  0.0530  0.1549  0.0000  0.0000  0.0000  0.0000  0.0000 </r>
       </set>
      </set>
      <set comment="kpoint 39">
       <set comment="band 1">
        <r>  0.1942  0.0418  0.0000  0.0000  0.0000  0.0000  0.0000  0.0000  0.0000 </r>
        <r>  0.1942  0.0418  0.0000  0.0000  0.0000  0.0000  0.0000  0.0000  0.0000 </r>
       </set>
       <set comment="band 2">
        <r>  0.1923  0.0461  0.0000  0.0000  0.0000  0.0000  0.0000  0.0000  0.0000 </r>
        <r>  0.1923  0.0461  0.0000  0.0000  0.0000  0.0000  0.0000  0.0000  0.0000 </r>
       </set>
       <set comment="band 3">
        <r>  0.0000  0.0000  0.0975  0.0975  0.0000  0.0000  0.0000  0.0000  0.0000 </r>
        <r>  0.0000  0.0000  0.0975  0.0975  0.0000  0.0000  0.0000  0.0000  0.0000 </r>
       </set>
       <set comment="band 4">
        <r>  0.0000  0.0000  0.0975  0.0975  0.0000  0.0000  0.0000  0.0000  0.0000 </r>
        <r>  0.0000  0.0000  0.0975  0.0975  0.0000  0.0000  0.0000  0.0000  0.0000 </r>
       </set>
       <set comment="band 5">
        <r>  0.0516  0.0373  0.0000  0.0000  0.0000  0.0000  0.0000  0.0000  0.0000 </r>
        <r>  0.0516  0.0373  0.0000  0.0000  0.0000  0.0000  0.0000  0.0000  0.0000 </r>
       </set>
       <set comment="band 6">
        <r>  0.0507  0.0353  0.0000  0.0000  0.0000  0.0000  0.0000  0.0000  0.0000 </r>
        <r>  0.0507  0.0353  0.0000  0.0000  0.0000  0.0000  0.0000  0.0000  0.0000 </r>
       </set>
       <set comment="band 7">
        <r>  0.0000  0.0000  0.0191  0.2094  0.0000  0.0000  0.0000  0.0000  0.0000 </r>
        <r>  0.0000  0.0000  0.2169  0.0109  0.0000  0.0000  0.0000  0.0000  0.0000 </r>
       </set>
       <set comment="band 8">
        <r>  0.0000  0.0000  0.2086  0.0190  0.0000  0.0000  0.0000  0.0000  0.0000 </r>
        <r>  0.0000  0.0000  0.0107  0.2156  0.0000  0.0000  0.0000  0.0000  0.0000 </r>
       </set>
      </set>
      <set comment="kpoint 40">
       <set comment="band 1">
        <r>  0.1933  0.0439  0.0000  0.0000  0.0000  0.0000  0.0000  0.0000  0.0000 </r>
        <r>  0.1933  0.0439  0.0000  0.0000  0.0000  0.0000  0.0000  0.0000  0.0000 </r>
       </set>
       <set comment="band 2">
        <r>  0.1933  0.0439  0.0000  0.0000  0.0000  0.0000  0.0000  0.0000  0.0000 </r>
        <r>  0.1933  0.0439  0.0000  0.0000  0.0000  0.0000  0.0000  0.0000  0.0000 </r>
       </set>
       <set comment="band 3">
        <r>  0.0000  0.0000  0.0975  0.0975  0.0000  0.0000  0.0000  0.0000  0.0000 </r>
        <r>  0.0000  0.0000  0.0975  0.0975  0.0000  0.0000  0.0000  0.0000  0.0000 </r>
       </set>
       <set comment="band 4">
        <r>  0.0000  0.0000  0.0975  0.0975  0.0000  0.0000  0.0000  0.0000  0.0000 </r>
        <r>  0.0000  0.0000  0.0975  0.0975  0.0000  0.0000  0.0000  0.0000  0.0000 </r>
       </set>
       <set comment="band 5">
        <r>  0.0511  0.0362  0.0000  0.0000  0.0000  0.0000  0.0000  0.0000  0.0000 </r>
        <r>  0.0511  0.0362  0.0000  0.0000  0.0000  0.0000  0.0000  0.0000  0.0000 </r>
       </set>
       <set comment="band 6">
        <r>  0.0511  0.0362  0.0000  0.0000  0.0000  0.0000  0.0000  0.0000  0.0000 </r>
        <r>  0.0511  0.0362  0.0000  0.0000  0.0000  0.0000  0.0000  0.0000  0.0000 </r>
       </set>
       <set comment="band 7">
        <r>  0.0000  0.0000  0.0523  0.1883  0.0000  0.0000  0.0000  0.0000  0.0000 </r>
        <r>  0.0000  0.0000  0.1874  0.0520  0.0000  0.0000  0.0000  0.0000  0.0000 </r>
       </set>
       <set comment="band 8">
        <r>  0.0000  0.0000  0.1887  0.0529  0.0000  0.0000  0.0000  0.0000  0.0000 </r>
        <r>  0.0000  0.0000  0.0516  0.1864  0.0000  0.0000  0.0000  0.0000  0.0000 </r>
       </set>
      </set>
      <set comment="kpoint 41">
       <set comment="band 1">
        <r>  0.1933  0.0439  0.0000  0.0000  0.0000  0.0000  0.0000  0.0000  0.0000 </r>
        <r>  0.1933  0.0439  0.0000  0.0000  0.0000  0.0000  0.0000  0.0000  0.0000 </r>
       </set>
       <set comment="band 2">
        <r>  0.1933  0.0439  0.0000  0.0000  0.0000  0.0000  0.0000  0.0000  0.0000 </r>
        <r>  0.1933  0.0439  0.0000  0.0000  0.0000  0.0000  0.0000  0.0000  0.0000 </r>
       </set>
       <set comment="band 3">
        <r>  0.0000  0.0000  0.0975  0.0975  0.0000  0.0000  0.0000  0.0000  0.0000 </r>
        <r>  0.0000  0.0000  0.0975  0.0975  0.0000  0.0000  0.0000  0.0000  0.0000 </r>
       </set>
       <set comment="band 4">
        <r>  0.0000  0.0000  0.0975  0.0975  0.0000  0.0000  0.0000  0.0000  0.0000 </r>
        <r>  0.0000  0.0000  0.0975  0.0975  0.0000  0.0000  0.0000  0.0000  0.0000 </r>
       </set>
       <set comment="band 5">
        <r>  0.0511  0.0362  0.0000  0.0000  0.0000  0.0000  0.0000  0.0000  0.0000 </r>
        <r>  0.0511  0.0362  0.0000  0.0000  0.0000  0.0000  0.0000  0.0000  0.0000 </r>
       </set>
       <set comment="band 6">
        <r>  0.0511  0.0362  0.0000  0.0000  0.0000  0.0000  0.0000  0.0000  0.0000 </r>
        <r>  0.0511  0.0362  0.0000  0.0000  0.0000  0.0000  0.0000  0.0000  0.0000 </r>
       </set>
       <set comment="band 7">
        <r>  0.0000  0.0000  0.0357  0.2038  0.0000  0.0000  0.0000  0.0000  0.0000 </r>
        <r>  0.0000  0.0000  0.2045  0.0358  0.0000  0.0000  0.0000  0.0000  0.0000 </r>
       </set>
       <set comment="band 8">
        <r>  0.0000  0.0000  0.2023  0.0353  0.0000  0.0000  0.0000  0.0000  0.0000 </r>
        <r>  0.0000  0.0000  0.0365  0.2052  0.0000  0.0000  0.0000  0.0000  0.0000 </r>
       </set>
      </set>
      <set comment="kpoint 42">
       <set comment="band 1">
        <r>  0.1933  0.0439  0.0000  0.0000  0.0000  0.0000  0.0000  0.0000  0.0000 </r>
        <r>  0.1933  0.0439  0.0000  0.0000  0.0000  0.0000  0.0000  0.0000  0.0000 </r>
       </set>
       <set comment="band 2">
        <r>  0.1933  0.0439  0.0000  0.0000  0.0000  0.0000  0.0000  0.0000  0.0000 </r>
        <r>  0.1933  0.0439  0.0000  0.0000  0.0000  0.0000  0.0000  0.0000  0.0000 </r>
       </set>
       <set comment="band 3">
        <r>  0.0000  0.0001  0.0974  0.0974  0.0000  0.0000  0.0000  0.0000  0.0000 </r>
        <r>  0.0000  0.0001  0.0974  0.0974  0.0000  0.0000  0.0000  0.0000  0.0000 </r>
       </set>
       <set comment="band 4">
        <r>  0.0000  0.0001  0.0974  0.0974  0.0000  0.0000  0.0000  0.0000  0.0000 </r>
        <r>  0.0000  0.0001  0.0974  0.0974  0.0000  0.0000  0.0000  0.0000  0.0000 </r>
       </set>
       <set comment="band 5">
        <r>  0.0511  0.0362  0.0001  0.0001  0.0000  0.0000  0.0000  0.0000  0.0000 </r>
        <r>  0.0511  0.0362  0.0001  0.0001  0.0000  0.0000  0.0000  0.0000  0.0000 </r>
       </set>
       <set comment="band 6">
        <r>  0.0511  0.0362  0.0001  0.0001  0.0000  0.0000  0.0000  0.0000  0.0000 </r>
        <r>  0.0511  0.0362  0.0001  0.0001  0.0000  0.0000  0.0000  0.0000  0.0000 </r>
       </set>
       <set comment="band 7">
        <r>  0.0001  0.0001  0.0502  0.1902  0.0000  0.0000  0.0000  0.0000  0.0000 </r>
        <r>  0.0000  0.0002  0.1874  0.0511  0.0000  0.0000  0.0000  0.0000  0.0000 </r>
       </set>
       <set comment="band 8">
        <r>  0.0000  0.0002  0.1879  0.0510  0.0000  0.0000  0.0000  0.0000  0.0000 </r>
        <r>  0.0001  0.0000  0.0504  0.1896  0.0000  0.0000  0.0000  0.0000  0.0000 </r>
       </set>
      </set>
      <set comment="kpoint 43">
       <set comment="band 1">
        <r>  0.1933  0.0438  0.0000  0.0000  0.0000  0.0000  0.0000  0.0000  0.0000 </r>
        <r>  0.1933  0.0438  0.0000  0.0000  0.0000  0.0000  0.0000  0.0000  0.0000 </r>
       </set>
       <set comment="band 2">
        <r>  0.1933  0.0438  0.0000  0.0000  0.0000  0.0000  0.0000  0.0000  0.0000 </r>
        <r>  0.1933  0.0438  0.0000  0.0000  0.0000  0.0000  0.0000  0.0000  0.0000 </r>
       </set>
       <set comment="band 3">
        <r>  0.0001  0.0003  0.0971  0.0971  0.0000  0.0000  0.0000  0.0000  0.0000 </r>
        <r>  0.0001  0.0003  0.0971  0.0971  0.0000  0.0000  0.0000  0.0000  0.0000 </r>
       </set>
       <set comment="band 4">
        <r>  0.0001  0.0003  0.0971  0.0971  0.0000  0.0000  0.0000  0.0000  0.0000 </r>
        <r>  0.0001  0.0003  0.0971  0.0971  0.0000  0.0000  0.0000  0.0000  0.0000 </r>
       </set>
       <set comment="band 5">
        <r>  0.0509  0.0360  0.0003  0.0004  0.0000  0.0000  0.0000  0.0000  0.0000 </r>
        <r>  0.0509  0.0360  0.0003  0.0004  0.0000  0.0000  0.0000  0.0000  0.0000 </r>
       </set>
       <set comment="band 6">
        <r>  0.0509  0.0360  0.0003  0.0004  0.0000  0.0000  0.0000  0.0000  0.0000 </r>
        <r>  0.0509  0.0360  0.0003  0.0004  0.0000  0.0000  0.0000  0.0000  0.0000 </r>
       </set>
       <set comment="band 7">
        <r>  0.0001  0.0008  0.1996  0.0356  0.0000  0.0000  0.0000  0.0000  0.0000 </r>
        <r>  0.0007  0.0002  0.0343  0.2052  0.0000  0.0000  0.0000  0.0000  0.0000 </r>
       </set>
       <set comment="band 8">
        <r>  0.0007  0.0002  0.0347  0.2023  0.0000  0.0000  0.0000  0.0000  0.0000 </r>
        <r>  0.0001  0.0007  0.2029  0.0348  0.0000  0.0000  0.0000  0.0000  0.0000 </r>
       </set>
      </set>
      <set comment="kpoint 44">
       <set comment="band 1">
        <r>  0.1934  0.0438  0.0001  0.0000  0.0000  0.0000  0.0000  0.0000  0.0000 </r>
        <r>  0.1934  0.0438  0.0001  0.0000  0.0000  0.0000  0.0000  0.0000  0.0000 </r>
       </set>
       <set comment="band 2">
        <r>  0.1934  0.0438  0.0001  0.0000  0.0000  0.0000  0.0000  0.0000  0.0000 </r>
        <r>  0.1934  0.0438  0.0001  0.0000  0.0000  0.0000  0.0000  0.0000  0.0000 </r>
       </set>
       <set comment="band 3">
        <r>  0.0002  0.0006  0.0966  0.0966  0.0000  0.0000  0.0000  0.0000  0.0000 </r>
        <r>  0.0002  0.0006  0.0966  0.0966  0.0000  0.0000  0.0000  0.0000  0.0000 </r>
       </set>
       <set comment="band 4">
        <r>  0.0002  0.0006  0.0966  0.0966  0.0000  0.0000  0.0000  0.0000  0.0000 </r>
        <r>  0.0002  0.0006  0.0966  0.0966  0.0000  0.0000  0.0000  0.0000  0.0000 </r>
       </set>
       <set comment="band 5">
        <r>  0.0507  0.0358  0.0007  0.0010  0.0000  0.0000  0.0000  0.0000  0.0000 </r>
        <r>  0.0507  0.0358  0.0007  0.0010  0.0000  0.0000  0.0000  0.0000  0.0000 </r>
       </set>
       <set comment="band 6">
        <r>  0.0507  0.0358  0.0007  0.0010  0.0000  0.0000  0.0000  0.0000  0.0000 </r>
        <r>  0.0507  0.0358  0.0007  0.0010  0.0000  0.0000  0.0000  0.0000  0.0000 </r>
       </set>
       <set comment="band 7">
        <r>  0.0005  0.0017  0.1704  0.0606  0.0000  0.0000  0.0000  0.0000  0.0000 </r>
        <r>  0.0014  0.0006  0.0574  0.1785  0.0000  0.0000  0.0000  0.0000  0.0000 </r>
       </set>
       <set comment="band 8">
        <r>  0.0013  0.0006  0.0586  0.1793  0.0000  0.0000  0.0000  0.0000  0.0000 </r>
        <r>  0.0005  0.0017  0.1701  0.0602  0.0000  0.0000  0.0000  0.0000  0.0000 </r>
       </set>
      </set>
      <set comment="kpoint 45">
       <set comment="band 1">
        <r>  0.1935  0.0437  0.0002  0.0000  0.0000  0.0000  0.0000  0.0000  0.0000 </r>
        <r>  0.1935  0.0437  0.0002  0.0000  0.0000  0.0000  0.0000  0.0000  0.0000 </r>
       </set>
       <set comment="band 2">
        <r>  0.1935  0.0437  0.0002  0.0000  0.0000  0.0000  0.0000  0.0000  0.0000 </r>
        <r>  0.1935  0.0437  0.0002  0.0000  0.0000  0.0000  0.0000  0.0000  0.0000 </r>
       </set>
       <set comment="band 3">
        <r>  0.0004  0.0010  0.0959  0.0959  0.0000  0.0000  0.0000  0.0000  0.0000 </r>
        <r>  0.0004  0.0010  0.0959  0.0959  0.0000  0.0000  0.0000  0.0000  0.0000 </r>
       </set>
       <set comment="band 4">
        <r>  0.0004  0.0010  0.0959  0.0959  0.0000  0.0000  0.0000  0.0000  0.0000 </r>
        <r>  0.0004  0.0010  0.0959  0.0959  0.0000  0.0000  0.0000  0.0000  0.0000 </r>
       </set>
       <set comment="band 5">
        <r>  0.0504  0.0355  0.0013  0.0017  0.0000  0.0000  0.0000  0.0000  0.0000 </r>
        <r>  0.0504  0.0355  0.0013  0.0017  0.0000  0.0000  0.0000  0.0000  0.0000 </r>
       </set>
       <set comment="band 6">
        <r>  0.0504  0.0355  0.0013  0.0017  0.0000  0.0000  0.0000  0.0000  0.0000 </r>
        <r>  0.0504  0.0355  0.0013  0.0017  0.0000  0.0000  0.0000  0.0000  0.0000 </r>
       </set>
       <set comment="band 7">
        <r>  0.0032  0.0004  0.0186  0.2170  0.0000  0.0000  0.0000  0.0000  0.0000 </r>
        <r>  0.0003  0.0041  0.1988  0.0204  0.0000  0.0000  0.0000  0.0000  0.0000 </r>
       </set>
       <set comment="band 8">
        <r>  0.0003  0.0038  0.1981  0.0202  0.0000  0.0000  0.0000  0.0000  0.0000 </r>
        <r>  0.0031  0.0003  0.0188  0.2183  0.0000  0.0000  0.0000  0.0000  0.0000 </r>
       </set>
      </set>
      <set comment="kpoint 46">
       <set comment="band 1">
        <r>  0.1936  0.0435  0.0003  0.0000  0.0000  0.0000  0.0000  0.0000  0.0000 </r>
        <r>  0.1936  0.0435  0.0003  0.0000  0.0000  0.0000  0.0000  0.0000  0.0000 </r>
       </set>
       <set comment="band 2">
        <r>  0.1936  0.0435  0.0003  0.0000  0.0000  0.0000  0.0000  0.0000  0.0000 </r>
        <r>  0.1936  0.0435  0.0003  0.0000  0.0000  0.0000  0.0000  0.0000  0.0000 </r>
       </set>
       <set comment="band 3">
        <r>  0.0006  0.0016  0.0951  0.0951  0.0000  0.0000  0.0000  0.0000  0.0000 </r>
        <r>  0.0006  0.0016  0.0951  0.0951  0.0000  0.0000  0.0000  0.0000  0.0000 </r>
       </set>
       <set comment="band 4">
        <r>  0.0006  0.0016  0.0951  0.0951  0.0000  0.0000  0.0000  0.0000  0.0000 </r>
        <r>  0.0006  0.0016  0.0951  0.0951  0.0000  0.0000  0.0000  0.0000  0.0000 </r>
       </set>
       <set comment="band 5">
        <r>  0.0500  0.0351  0.0019  0.0027  0.0000  0.0000  0.0000  0.0000  0.0000 </r>
        <r>  0.0500  0.0351  0.0019  0.0027  0.0000  0.0000  0.0000  0.0000  0.0000 </r>
       </set>
       <set comment="band 6">
        <r>  0.0500  0.0351  0.0019  0.0027  0.0000  0.0000  0.0000  0.0000  0.0000 </r>
        <r>  0.0500  0.0351  0.0019  0.0027  0.0000  0.0000  0.0000  0.0000  0.0000 </r>
       </set>
       <set comment="band 7">
        <r>  0.0033  0.0031  0.0850  0.1363  0.0000  0.0000  0.0000  0.0000  0.0000 </r>
        <r>  0.0024  0.0044  0.1190  0.0972  0.0000  0.0000  0.0000  0.0000  0.0000 </r>
       </set>
       <set comment="band 8">
        <r>  0.0023  0.0039  0.1168  0.0972  0.0000  0.0000  0.0000  0.0000  0.0000 </r>
        <r>  0.0030  0.0032  0.0813  0.1366  0.0000  0.0000  0.0000  0.0000  0.0000 </r>
       </set>
      </set>
      <set comment="kpoint 47">
       <set comment="band 1">
        <r>  0.1938  0.0434  0.0004  0.0000  0.0000  0.0000  0.0000  0.0000  0.0000 </r>
        <r>  0.1938  0.0434  0.0004  0.0000  0.0000  0.0000  0.0000  0.0000  0.0000 </r>
       </set>
       <set comment="band 2">
        <r>  0.1938  0.0434  0.0004  0.0000  0.0000  0.0000  0.0000  0.0000  0.0000 </r>
        <r>  0.1938  0.0434  0.0004  0.0000  0.0000  0.0000  0.0000  0.0000  0.0000 </r>
       </set>
       <set comment="band 3">
        <r>  0.0008  0.0022  0.0942  0.0942  0.0000  0.0000  0.0000  0.0000  0.0000 </r>
        <r>  0.0008  0.0022  0.0942  0.0942  0.0000  0.0000  0.0000  0.0000  0.0000 </r>
       </set>
       <set comment="band 4">
        <r>  0.0008  0.0022  0.0942  0.0942  0.0000  0.0000  0.0000  0.0000  0.0000 </r>
        <r>  0.0008  0.0022  0.0942  0.0942  0.0000  0.0000  0.0000  0.0000  0.0000 </r>
       </set>
       <set comment="band 5">
        <r>  0.0495  0.0346  0.0027  0.0037  0.0000  0.0000  0.0000  0.0000  0.0000 </r>
        <r>  0.0495  0.0346  0.0027  0.0037  0.0000  0.0000  0.0000  0.0000  0.0000 </r>
       </set>
       <set comment="band 6">
        <r>  0.0495  0.0346  0.0027  0.0037  0.0000  0.0000  0.0000  0.0000  0.0000 </r>
        <r>  0.0495  0.0346  0.0027  0.0037  0.0000  0.0000  0.0000  0.0000  0.0000 </r>
       </set>
       <set comment="band 7">
        <r>  0.0014  0.0096  0.1559  0.0384  0.0000  0.0000  0.0000  0.0000  0.0000 </r>
        <r>  0.0068  0.0019  0.0315  0.1882  0.0000  0.0000  0.0000  0.0000  0.0000 </r>
       </set>
       <set comment="band 8">
        <r>  0.0067  0.0019  0.0325  0.1880  0.0000  0.0000  0.0000  0.0000  0.0000 </r>
        <r>  0.0014  0.0095  0.1551  0.0386  0.0000  0.0000  0.0000  0.0000  0.0000 </r>
       </set>
      </set>
      <set comment="kpoint 48">
       <set comment="band 1">
        <r>  0.1940  0.0432  0.0006  0.0000  0.0000  0.0000  0.0000  0.0000  0.0000 </r>
        <r>  0.1940  0.0432  0.0006  0.0000  0.0000  0.0000  0.0000  0.0000  0.0000 </r>
       </set>
       <set comment="band 2">
        <r>  0.1940  0.0432  0.0006  0.0000  0.0000  0.0000  0.0000  0.0000  0.0000 </r>
        <r>  0.1940  0.0432  0.0006  0.0000  0.0000  0.0000  0.0000  0.0000  0.0000 </r>
       </set>
       <set comment="band 3">
        <r>  0.0010  0.0029  0.0931  0.0932  0.0000  0.0000  0.0000  0.0000  0.0000 </r>
        <r>  0.0010  0.0029  0.0931  0.0932  0.0000  0.0000  0.0000  0.0000  0.0000 </r>
       </set>
       <set comment="band 4">
        <r>  0.0010  0.0029  0.0931  0.0932  0.0000  0.0000  0.0000  0.0000  0.0000 </r>
        <r>  0.0010  0.0029  0.0931  0.0932  0.0000  0.0000  0.0000  0.0000  0.0000 </r>
       </set>
       <set comment="band 5">
        <r>  0.0490  0.0341  0.0035  0.0050  0.0000  0.0000  0.0000  0.0000  0.0000 </r>
        <r>  0.0490  0.0341  0.0035  0.0050  0.0000  0.0000  0.0000  0.0000  0.0000 </r>
       </set>
       <set comment="band 6">
        <r>  0.0490  0.0341  0.0035  0.0050  0.0000  0.0000  0.0000  0.0000  0.0000 </r>
        <r>  0.0490  0.0341  0.0035  0.0050  0.0000  0.0000  0.0000  0.0000  0.0000 </r>
       </set>
       <set comment="band 7">
        <r>  0.0069  0.0060  0.0652  0.1352  0.0000  0.0000  0.0000  0.0000  0.0000 </r>
        <r>  0.0042  0.0098  0.1063  0.0829  0.0000  0.0000  0.0000  0.0000  0.0000 </r>
       </set>
       <set comment="band 8">
        <r>  0.0044  0.0099  0.1057  0.0827  0.0000  0.0000  0.0000  0.0000  0.0000 </r>
        <r>  0.0069  0.0063  0.0646  0.1349  0.0000  0.0000  0.0000  0.0000  0.0000 </r>
       </set>
      </set>
      <set comment="kpoint 49">
       <set comment="band 1">
        <r>  0.1942  0.0429  0.0007  0.0000  0.0000  0.0000  0.0000  0.0000  0.0000 </r>
        <r>  0.1942  0.0429  0.0007  0.0000  0.0000  0.0000  0.0000  0.0000  0.0000 </r>
       </set>
       <set comment="band 2">
        <r>  0.1942  0.0429  0.0007  0.0000  0.0000  0.0000  0.0000  0.0000  0.0000 </r>
        <r>  0.1942  0.0429  0.0007  0.0000  0.0000  0.0000  0.0000  0.0000  0.0000 </r>
       </set>
       <set comment="band 3">
        <r>  0.0012  0.0038  0.0919  0.0920  0.0000  0.0000  0.0000  0.0000  0.0000 </r>
        <r>  0.0012  0.0038  0.0919  0.0920  0.0000  0.0000  0.0000  0.0000  0.0000 </r>
       </set>
       <set comment="band 4">
        <r>  0.0012  0.0038  0.0919  0.0920  0.0000  0.0000  0.0000  0.0000  0.0000 </r>
        <r>  0.0012  0.0038  0.0919  0.0920  0.0000  0.0000  0.0000  0.0000  0.0000 </r>
       </set>
       <set comment="band 5">
        <r>  0.0484  0.0336  0.0045  0.0063  0.0000  0.0000  0.0000  0.0000  0.0000 </r>
        <r>  0.0484  0.0336  0.0045  0.0063  0.0000  0.0000  0.0000  0.0000  0.0000 </r>
       </set>
       <set comment="band 6">
        <r>  0.0484  0.0336  0.0045  0.0063  0.0000  0.0000  0.0000  0.0000  0.0000 </r>
        <r>  0.0484  0.0336  0.0045  0.0063  0.0000  0.0000  0.0000  0.0000  0.0000 </r>
       </set>
       <set comment="band 7">
        <r>  0.0049  0.0133  0.1010  0.0727  0.0000  0.0000  0.0000  0.0000  0.0000 </r>
        <r>  0.0092  0.0072  0.0542  0.1352  0.0000  0.0000  0.0000  0.0000  0.0000 </r>
       </set>
       <set comment="band 8">
        <r>  0.0091  0.0073  0.0539  0.1358  0.0000  0.0000  0.0000  0.0000  0.0000 </r>
        <r>  0.0050  0.0130  0.1019  0.0726  0.0000  0.0000  0.0000  0.0000  0.0000 </r>
       </set>
      </set>
      <set comment="kpoint 50">
       <set comment="band 1">
        <r>  0.1944  0.0427  0.0009  0.0000  0.0000  0.0000  0.0000  0.0000  0.0000 </r>
        <r>  0.1944  0.0427  0.0009  0.0000  0.0000  0.0000  0.0000  0.0000  0.0000 </r>
       </set>
       <set comment="band 2">
        <r>  0.1944  0.0427  0.0009  0.0000  0.0000  0.0000  0.0000  0.0000  0.0000 </r>
        <r>  0.1944  0.0427  0.0009  0.0000  0.0000  0.0000  0.0000  0.0000  0.0000 </r>
       </set>
       <set comment="band 3">
        <r>  0.0015  0.0047  0.0907  0.0908  0.0000  0.0000  0.0000  0.0000  0.0000 </r>
        <r>  0.0015  0.0047  0.0907  0.0908  0.0000  0.0000  0.0000  0.0000  0.0000 </r>
       </set>
       <set comment="band 4">
        <r>  0.0015  0.0047  0.0907  0.0908  0.0000  0.0000  0.0000  0.0000  0.0000 </r>
        <r>  0.0015  0.0047  0.0907  0.0908  0.0000  0.0000  0.0000  0.0000  0.0000 </r>
       </set>
       <set comment="band 5">
        <r>  0.0477  0.0330  0.0055  0.0077  0.0000  0.0000  0.0000  0.0000  0.0000 </r>
        <r>  0.0477  0.0330  0.0055  0.0077  0.0000  0.0000  0.0000  0.0000  0.0000 </r>
       </set>
       <set comment="band 6">
        <r>  0.0477  0.0330  0.0055  0.0077  0.0000  0.0000  0.0000  0.0000  0.0000 </r>
        <r>  0.0477  0.0330  0.0055  0.0077  0.0000  0.0000  0.0000  0.0000  0.0000 </r>
       </set>
       <set comment="band 7">
        <r>  0.0123  0.0071  0.0397  0.1412  0.0000  0.0000  0.0000  0.0000  0.0000 </r>
        <r>  0.0048  0.0183  0.1002  0.0557  0.0000  0.0000  0.0000  0.0000  0.0000 </r>
       </set>
       <set comment="band 8">
        <r>  0.0049  0.0180  0.0995  0.0556  0.0000  0.0000  0.0000  0.0000  0.0000 </r>
        <r>  0.0122  0.0072  0.0396  0.1410  0.0000  0.0000  0.0000  0.0000  0.0000 </r>
       </set>
      </set>
      <set comment="kpoint 51">
       <set comment="band 1">
        <r>  0.1947  0.0424  0.0012  0.0000  0.0000  0.0000  0.0000  0.0000  0.0000 </r>
        <r>  0.1947  0.0424  0.0012  0.0000  0.0000  0.0000  0.0000  0.0000  0.0000 </r>
       </set>
       <set comment="band 2">
        <r>  0.1947  0.0424  0.0012  0.0000  0.0000  0.0000  0.0000  0.0000  0.0000 </r>
        <r>  0.1947  0.0424  0.0012  0.0000  0.0000  0.0000  0.0000  0.0000  0.0000 </r>
       </set>
       <set comment="band 3">
        <r>  0.0017  0.0056  0.0893  0.0896  0.0000  0.0000  0.0000  0.0000  0.0000 </r>
        <r>  0.0017  0.0056  0.0893  0.0896  0.0000  0.0000  0.0000  0.0000  0.0000 </r>
       </set>
       <set comment="band 4">
        <r>  0.0017  0.0056  0.0893  0.0896  0.0000  0.0000  0.0000  0.0000  0.0000 </r>
        <r>  0.0017  0.0056  0.0893  0.0896  0.0000  0.0000  0.0000  0.0000  0.0000 </r>
       </set>
       <set comment="band 5">
        <r>  0.0470  0.0324  0.0065  0.0093  0.0000  0.0000  0.0000  0.0000  0.0000 </r>
        <r>  0.0470  0.0323  0.0065  0.0093  0.0000  0.0000  0.0000  0.0000  0.0000 </r>
       </set>
       <set comment="band 6">
        <r>  0.0470  0.0323  0.0065  0.0093  0.0000  0.0000  0.0000  0.0000  0.0000 </r>
        <r>  0.0470  0.0324  0.0065  0.0093  0.0000  0.0000  0.0000  0.0000  0.0000 </r>
       </set>
       <set comment="band 7">
        <r>  0.0181  0.0029  0.0125  0.1683  0.0000  0.0000  0.0000  0.0000  0.0000 </r>
        <r>  0.0019  0.0271  0.1147  0.0183  0.0000  0.0000  0.0000  0.0000  0.0000 </r>
       </set>
       <set comment="band 8">
        <r>  0.0020  0.0268  0.1148  0.0181  0.0000  0.0000  0.0000  0.0000  0.0000 </r>
        <r>  0.0181  0.0031  0.0122  0.1686  0.0000  0.0000  0.0000  0.0000  0.0000 </r>
       </set>
      </set>
      <set comment="kpoint 52">
       <set comment="band 1">
        <r>  0.1950  0.0420  0.0014  0.0000  0.0000  0.0000  0.0000  0.0000  0.0000 </r>
        <r>  0.1950  0.0420  0.0014  0.0000  0.0000  0.0000  0.0000  0.0000  0.0000 </r>
       </set>
       <set comment="band 2">
        <r>  0.1950  0.0420  0.0014  0.0000  0.0000  0.0000  0.0000  0.0000  0.0000 </r>
        <r>  0.1950  0.0420  0.0014  0.0000  0.0000  0.0000  0.0000  0.0000  0.0000 </r>
       </set>
       <set comment="band 3">
        <r>  0.0019  0.0066  0.0880  0.0883  0.0000  0.0000  0.0000  0.0000  0.0000 </r>
        <r>  0.0019  0.0066  0.0880  0.0883  0.0000  0.0000  0.0000  0.0000  0.0000 </r>
       </set>
       <set comment="band 4">
        <r>  0.0019  0.0066  0.0880  0.0883  0.0000  0.0000  0.0000  0.0000  0.0000 </r>
        <r>  0.0019  0.0066  0.0880  0.0883  0.0000  0.0000  0.0000  0.0000  0.0000 </r>
       </set>
       <set comment="band 5">
        <r>  0.0463  0.0317  0.0075  0.0108  0.0000  0.0000  0.0000  0.0000  0.0000 </r>
        <r>  0.0463  0.0317  0.0075  0.0108  0.0000  0.0000  0.0000  0.0000  0.0000 </r>
       </set>
       <set comment="band 6">
        <r>  0.0463  0.0317  0.0075  0.0108  0.0000  0.0000  0.0000  0.0000  0.0000 </r>
        <r>  0.0463  0.0317  0.0075  0.0108  0.0000  0.0000  0.0000  0.0000  0.0000 </r>
       </set>
       <set comment="band 7">
        <r>  0.0153  0.0112  0.0383  0.1186  0.0000  0.0000  0.0000  0.0000  0.0000 </r>
        <r>  0.0075  0.0229  0.0779  0.0584  0.0000  0.0000  0.0000  0.0000  0.0000 </r>
       </set>
       <set comment="band 8">
        <r>  0.0075  0.0231  0.0775  0.0589  0.0000  0.0000  0.0000  0.0000  0.0000 </r>
        <r>  0.0154  0.0111  0.0389  0.1183  0.0000  0.0000  0.0000  0.0000  0.0000 </r>
       </set>
      </set>
      <set comment="kpoint 53">
       <set comment="band 1">
        <r>  0.1953  0.0417  0.0017  0.0000  0.0000  0.0000  0.0000  0.0000  0.0000 </r>
        <r>  0.1953  0.0417  0.0017  0.0000  0.0000  0.0000  0.0000  0.0000  0.0000 </r>
       </set>
       <set comment="band 2">
        <r>  0.1953  0.0417  0.0017  0.0000  0.0000  0.0000  0.0000  0.0000  0.0000 </r>
        <r>  0.1953  0.0417  0.0017  0.0000  0.0000  0.0000  0.0000  0.0000  0.0000 </r>
       </set>
       <set comment="band 3">
        <r>  0.0021  0.0077  0.0866  0.0871  0.0000  0.0000  0.0000  0.0000  0.0000 </r>
        <r>  0.0021  0.0077  0.0866  0.0871  0.0000  0.0000  0.0000  0.0000  0.0000 </r>
       </set>
       <set comment="band 4">
        <r>  0.0021  0.0077  0.0866  0.0871  0.0000  0.0000  0.0000  0.0000  0.0000 </r>
        <r>  0.0021  0.0077  0.0866  0.0871  0.0000  0.0000  0.0000  0.0000  0.0000 </r>
       </set>
       <set comment="band 5">
        <r>  0.0456  0.0311  0.0085  0.0124  0.0000  0.0000  0.0000  0.0000  0.0000 </r>
        <r>  0.0456  0.0311  0.0085  0.0124  0.0000  0.0000  0.0000  0.0000  0.0000 </r>
       </set>
       <set comment="band 6">
        <r>  0.0456  0.0311  0.0085  0.0124  0.0000  0.0000  0.0000  0.0000  0.0000 </r>
        <r>  0.0456  0.0311  0.0085  0.0124  0.0000  0.0000  0.0000  0.0000  0.0000 </r>
       </set>
       <set comment="band 7">
        <r>  0.0101  0.0228  0.0648  0.0667  0.0000  0.0000  0.0000  0.0000  0.0000 </r>
        <r>  0.0153  0.0150  0.0425  0.1017  0.0000  0.0000  0.0000  0.0000  0.0000 </r>
       </set>
       <set comment="band 8">
        <r>  0.0155  0.0151  0.0420  0.1013  0.0000  0.0000  0.0000  0.0000  0.0000 </r>
        <r>  0.0101  0.0231  0.0643  0.0663  0.0000  0.0000  0.0000  0.0000  0.0000 </r>
       </set>
      </set>
      <set comment="kpoint 54">
       <set comment="band 1">
        <r>  0.1956  0.0413  0.0020  0.0000  0.0000  0.0000  0.0000  0.0000  0.0000 </r>
        <r>  0.1956  0.0413  0.0020  0.0000  0.0000  0.0000  0.0000  0.0000  0.0000 </r>
       </set>
       <set comment="band 2">
        <r>  0.1956  0.0413  0.0020  0.0000  0.0000  0.0000  0.0000  0.0000  0.0000 </r>
        <r>  0.1956  0.0413  0.0020  0.0000  0.0000  0.0000  0.0000  0.0000  0.0000 </r>
       </set>
       <set comment="band 3">
        <r>  0.0022  0.0088  0.0851  0.0858  0.0000  0.0000  0.0000  0.0000  0.0000 </r>
        <r>  0.0022  0.0088  0.0851  0.0858  0.0000  0.0000  0.0000  0.0000  0.0000 </r>
       </set>
       <set comment="band 4">
        <r>  0.0022  0.0088  0.0851  0.0858  0.0000  0.0000  0.0000  0.0000  0.0000 </r>
        <r>  0.0022  0.0088  0.0851  0.0858  0.0000  0.0000  0.0000  0.0000  0.0000 </r>
       </set>
       <set comment="band 5">
        <r>  0.0449  0.0304  0.0095  0.0141  0.0000  0.0000  0.0000  0.0000  0.0000 </r>
        <r>  0.0448  0.0304  0.0095  0.0141  0.0000  0.0000  0.0000  0.0000  0.0000 </r>
       </set>
       <set comment="band 6">
        <r>  0.0448  0.0304  0.0095  0.0141  0.0000  0.0000  0.0000  0.0000  0.0000 </r>
        <r>  0.0449  0.0304  0.0095  0.0141  0.0000  0.0000  0.0000  0.0000  0.0000 </r>
       </set>
       <set comment="band 7">
        <r>  0.0066  0.0315  0.0760  0.0376  0.0000  0.0000  0.0000  0.0000  0.0000 </r>
        <r>  0.0214  0.0098  0.0233  0.1225  0.0000  0.0000  0.0000  0.0000  0.0000 </r>
       </set>
       <set comment="band 8">
        <r>  0.0214  0.0098  0.0231  0.1226  0.0000  0.0000  0.0000  0.0000  0.0000 </r>
        <r>  0.0066  0.0315  0.0760  0.0375  0.0000  0.0000  0.0000  0.0000  0.0000 </r>
       </set>
      </set>
      <set comment="kpoint 55">
       <set comment="band 1">
        <r>  0.1960  0.0408  0.0023  0.0000  0.0000  0.0000  0.0000  0.0000  0.0000 </r>
        <r>  0.1960  0.0408  0.0023  0.0000  0.0000  0.0000  0.0000  0.0000  0.0000 </r>
       </set>
       <set comment="band 2">
        <r>  0.1960  0.0408  0.0023  0.0000  0.0000  0.0000  0.0000  0.0000  0.0000 </r>
        <r>  0.1960  0.0408  0.0023  0.0000  0.0000  0.0000  0.0000  0.0000  0.0000 </r>
       </set>
       <set comment="band 3">
        <r>  0.0023  0.0099  0.0836  0.0846  0.0000  0.0000  0.0000  0.0000  0.0000 </r>
        <r>  0.0023  0.0099  0.0836  0.0846  0.0000  0.0000  0.0000  0.0000  0.0000 </r>
       </set>
       <set comment="band 4">
        <r>  0.0023  0.0099  0.0836  0.0846  0.0000  0.0000  0.0000  0.0000  0.0000 </r>
        <r>  0.0023  0.0099  0.0836  0.0846  0.0000  0.0000  0.0000  0.0000  0.0000 </r>
       </set>
       <set comment="band 5">
        <r>  0.0441  0.0298  0.0105  0.0157  0.0000  0.0000  0.0000  0.0000  0.0000 </r>
        <r>  0.0441  0.0298  0.0105  0.0157  0.0000  0.0000  0.0000  0.0000  0.0000 </r>
       </set>
       <set comment="band 6">
        <r>  0.0441  0.0298  0.0105  0.0157  0.0000  0.0000  0.0000  0.0000  0.0000 </r>
        <r>  0.0441  0.0298  0.0105  0.0157  0.0000  0.0000  0.0000  0.0000  0.0000 </r>
       </set>
       <set comment="band 7">
        <r>  0.0067  0.0344  0.0723  0.0340  0.0000  0.0000  0.0000  0.0000  0.0000 </r>
        <r>  0.0236  0.0098  0.0207  0.1191  0.0000  0.0000  0.0000  0.0000  0.0000 </r>
       </set>
       <set comment="band 8">
        <r>  0.0236  0.0099  0.0206  0.1191  0.0000  0.0000  0.0000  0.0000  0.0000 </r>
        <r>  0.0067  0.0345  0.0723  0.0339  0.0000  0.0000  0.0000  0.0000  0.0000 </r>
       </set>
      </set>
      <set comment="kpoint 56">
       <set comment="band 1">
        <r>  0.1963  0.0404  0.0027  0.0000  0.0000  0.0000  0.0000  0.0000  0.0000 </r>
        <r>  0.1963  0.0404  0.0027  0.0000  0.0000  0.0000  0.0000  0.0000  0.0000 </r>
       </set>
       <set comment="band 2">
        <r>  0.1963  0.0404  0.0027  0.0000  0.0000  0.0000  0.0000  0.0000  0.0000 </r>
        <r>  0.1963  0.0404  0.0027  0.0000  0.0000  0.0000  0.0000  0.0000  0.0000 </r>
       </set>
       <set comment="band 3">
        <r>  0.0024  0.0110  0.0822  0.0833  0.0000  0.0000  0.0000  0.0000  0.0000 </r>
        <r>  0.0024  0.0110  0.0822  0.0833  0.0000  0.0000  0.0000  0.0000  0.0000 </r>
       </set>
       <set comment="band 4">
        <r>  0.0024  0.0110  0.0822  0.0833  0.0000  0.0000  0.0000  0.0000  0.0000 </r>
        <r>  0.0024  0.0110  0.0822  0.0833  0.0000  0.0000  0.0000  0.0000  0.0000 </r>
       </set>
       <set comment="band 5">
        <r>  0.0433  0.0291  0.0114  0.0174  0.0000  0.0000  0.0000  0.0000  0.0000 </r>
        <r>  0.0433  0.0291  0.0114  0.0174  0.0000  0.0000  0.0000  0.0000  0.0000 </r>
       </set>
       <set comment="band 6">
        <r>  0.0433  0.0291  0.0114  0.0174  0.0000  0.0000  0.0000  0.0000  0.0000 </r>
        <r>  0.0433  0.0291  0.0114  0.0174  0.0000  0.0000  0.0000  0.0000  0.0000 </r>
       </set>
       <set comment="band 7">
        <r>  0.0112  0.0308  0.0574  0.0505  0.0000  0.0000  0.0000  0.0000  0.0000 </r>
        <r>  0.0214  0.0161  0.0301  0.0962  0.0000  0.0000  0.0000  0.0000  0.0000 </r>
       </set>
       <set comment="band 8">
        <r>  0.0214  0.0162  0.0299  0.0965  0.0000  0.0000  0.0000  0.0000  0.0000 </r>
        <r>  0.0112  0.0309  0.0578  0.0503  0.0000  0.0000  0.0000  0.0000  0.0000 </r>
       </set>
      </set>
      <set comment="kpoint 57">
       <set comment="band 1">
        <r>  0.1967  0.0399  0.0031  0.0000  0.0000  0.0000  0.0000  0.0000  0.0000 </r>
        <r>  0.1967  0.0399  0.0031  0.0000  0.0000  0.0000  0.0000  0.0000  0.0000 </r>
       </set>
       <set comment="band 2">
        <r>  0.1967  0.0399  0.0031  0.0000  0.0000  0.0000  0.0000  0.0000  0.0000 </r>
        <r>  0.1967  0.0399  0.0031  0.0000  0.0000  0.0000  0.0000  0.0000  0.0000 </r>
       </set>
       <set comment="band 3">
        <r>  0.0025  0.0122  0.0807  0.0822  0.0000  0.0000  0.0000  0.0000  0.0000 </r>
        <r>  0.0025  0.0122  0.0807  0.0822  0.0000  0.0000  0.0000  0.0000  0.0000 </r>
       </set>
       <set comment="band 4">
        <r>  0.0025  0.0122  0.0807  0.0822  0.0000  0.0000  0.0000  0.0000  0.0000 </r>
        <r>  0.0025  0.0122  0.0807  0.0822  0.0000  0.0000  0.0000  0.0000  0.0000 </r>
       </set>
       <set comment="band 5">
        <r>  0.0425  0.0285  0.0124  0.0190  0.0000  0.0000  0.0000  0.0000  0.0000 </r>
        <r>  0.0425  0.0285  0.0124  0.0190  0.0000  0.0000  0.0000  0.0000  0.0000 </r>
       </set>
       <set comment="band 6">
        <r>  0.0425  0.0285  0.0124  0.0190  0.0000  0.0000  0.0000  0.0000  0.0000 </r>
        <r>  0.0425  0.0285  0.0124  0.0190  0.0000  0.0000  0.0000  0.0000  0.0000 </r>
       </set>
       <set comment="band 7">
        <r>  0.0262  0.0122  0.0205  0.1061  0.0000  0.0000  0.0000  0.0000  0.0000 </r>
        <r>  0.0086  0.0373  0.0626  0.0347  0.0000  0.0000  0.0000  0.0000  0.0000 </r>
       </set>
       <set comment="band 8">
        <r>  0.0086  0.0373  0.0627  0.0347  0.0000  0.0000  0.0000  0.0000  0.0000 </r>
        <r>  0.0262  0.0122  0.0205  0.1061  0.0000  0.0000  0.0000  0.0000  0.0000 </r>
       </set>
      </set>
      <set comment="kpoint 58">
       <set comment="band 1">
        <r>  0.1971  0.0394  0.0035  0.0000  0.0000  0.0000  0.0000  0.0000  0.0000 </r>
        <r>  0.1971  0.0394  0.0035  0.0000  0.0000  0.0000  0.0000  0.0000  0.0000 </r>
       </set>
       <set comment="band 2">
        <r>  0.1971  0.0394  0.0035  0.0000  0.0000  0.0000  0.0000  0.0000  0.0000 </r>
        <r>  0.1971  0.0394  0.0035  0.0000  0.0000  0.0000  0.0000  0.0000  0.0000 </r>
       </set>
       <set comment="band 3">
        <r>  0.0026  0.0135  0.0792  0.0810  0.0000  0.0000  0.0000  0.0000  0.0000 </r>
        <r>  0.0026  0.0135  0.0792  0.0810  0.0000  0.0000  0.0000  0.0000  0.0000 </r>
       </set>
       <set comment="band 4">
        <r>  0.0026  0.0135  0.0792  0.0810  0.0000  0.0000  0.0000  0.0000  0.0000 </r>
        <r>  0.0026  0.0135  0.0792  0.0810  0.0000  0.0000  0.0000  0.0000  0.0000 </r>
       </set>
       <set comment="band 5">
        <r>  0.0417  0.0279  0.0132  0.0207  0.0000  0.0000  0.0000  0.0000  0.0000 </r>
        <r>  0.0417  0.0279  0.0132  0.0207  0.0000  0.0000  0.0000  0.0000  0.0000 </r>
       </set>
       <set comment="band 6">
        <r>  0.0417  0.0279  0.0132  0.0207  0.0000  0.0000  0.0000  0.0000  0.0000 </r>
        <r>  0.0417  0.0279  0.0132  0.0207  0.0000  0.0000  0.0000  0.0000  0.0000 </r>
       </set>
       <set comment="band 7">
        <r>  0.0353  0.0022  0.0034  0.1297  0.0000  0.0000  0.0000  0.0000  0.0000 </r>
        <r>  0.0016  0.0495  0.0759  0.0058  0.0000  0.0000  0.0000  0.0000  0.0000 </r>
       </set>
       <set comment="band 8">
        <r>  0.0016  0.0495  0.0759  0.0058  0.0000  0.0000  0.0000  0.0000  0.0000 </r>
        <r>  0.0353  0.0022  0.0034  0.1297  0.0000  0.0000  0.0000  0.0000  0.0000 </r>
       </set>
      </set>
      <set comment="kpoint 59">
       <set comment="band 1">
        <r>  0.1975  0.0388  0.0039  0.0000  0.0000  0.0000  0.0000  0.0000  0.0000 </r>
        <r>  0.1976  0.0388  0.0039  0.0000  0.0000  0.0000  0.0000  0.0000  0.0000 </r>
       </set>
       <set comment="band 2">
        <r>  0.1976  0.0388  0.0039  0.0000  0.0000  0.0000  0.0000  0.0000  0.0000 </r>
        <r>  0.1975  0.0388  0.0039  0.0000  0.0000  0.0000  0.0000  0.0000  0.0000 </r>
       </set>
       <set comment="band 3">
        <r>  0.0026  0.0147  0.0777  0.0799  0.0000  0.0000  0.0000  0.0000  0.0000 </r>
        <r>  0.0026  0.0147  0.0777  0.0799  0.0000  0.0000  0.0000  0.0000  0.0000 </r>
       </set>
       <set comment="band 4">
        <r>  0.0026  0.0147  0.0777  0.0799  0.0000  0.0000  0.0000  0.0000  0.0000 </r>
        <r>  0.0026  0.0147  0.0777  0.0799  0.0000  0.0000  0.0000  0.0000  0.0000 </r>
       </set>
       <set comment="band 5">
        <r>  0.0409  0.0272  0.0140  0.0223  0.0000  0.0000  0.0000  0.0000  0.0000 </r>
        <r>  0.0409  0.0272  0.0141  0.0223  0.0000  0.0000  0.0000  0.0000  0.0000 </r>
       </set>
       <set comment="band 6">
        <r>  0.0409  0.0272  0.0141  0.0223  0.0000  0.0000  0.0000  0.0000  0.0000 </r>
        <r>  0.0409  0.0272  0.0140  0.0223  0.0000  0.0000  0.0000  0.0000  0.0000 </r>
       </set>
       <set comment="band 7">
        <r>  0.0212  0.0243  0.0346  0.0711  0.0000  0.0000  0.0000  0.0000  0.0000 </r>
        <r>  0.0177  0.0293  0.0414  0.0593  0.0000  0.0000  0.0000  0.0000  0.0000 </r>
       </set>
       <set comment="band 8">
        <r>  0.0177  0.0293  0.0414  0.0594  0.0000  0.0000  0.0000  0.0000  0.0000 </r>
        <r>  0.0213  0.0243  0.0347  0.0712  0.0000  0.0000  0.0000  0.0000  0.0000 </r>
       </set>
      </set>
      <set comment="kpoint 60">
       <set comment="band 1">
        <r>  0.1980  0.0382  0.0044  0.0000  0.0000  0.0000  0.0000  0.0000  0.0000 </r>
        <r>  0.1980  0.0382  0.0044  0.0000  0.0000  0.0000  0.0000  0.0000  0.0000 </r>
       </set>
       <set comment="band 2">
        <r>  0.1980  0.0382  0.0044  0.0000  0.0000  0.0000  0.0000  0.0000  0.0000 </r>
        <r>  0.1980  0.0382  0.0044  0.0000  0.0000  0.0000  0.0000  0.0000  0.0000 </r>
       </set>
       <set comment="band 3">
        <r>  0.0025  0.0160  0.0762  0.0789  0.0000  0.0000  0.0000  0.0000  0.0000 </r>
        <r>  0.0025  0.0160  0.0762  0.0789  0.0000  0.0000  0.0000  0.0000  0.0000 </r>
       </set>
       <set comment="band 4">
        <r>  0.0025  0.0160  0.0762  0.0789  0.0000  0.0000  0.0000  0.0000  0.0000 </r>
        <r>  0.0025  0.0160  0.0762  0.0789  0.0000  0.0000  0.0000  0.0000  0.0000 </r>
       </set>
       <set comment="band 5">
        <r>  0.0400  0.0266  0.0148  0.0240  0.0000  0.0000  0.0000  0.0000  0.0000 </r>
        <r>  0.0400  0.0266  0.0148  0.0240  0.0000  0.0000  0.0000  0.0000  0.0000 </r>
       </set>
       <set comment="band 6">
        <r>  0.0400  0.0266  0.0148  0.0240  0.0000  0.0000  0.0000  0.0000  0.0000 </r>
        <r>  0.0400  0.0266  0.0148  0.0240  0.0000  0.0000  0.0000  0.0000  0.0000 </r>
       </set>
       <set comment="band 7">
        <r>  0.0303  0.0144  0.0191  0.0933  0.0000  0.0000  0.0000  0.0000  0.0000 </r>
        <r>  0.0106  0.0410  0.0543  0.0328  0.0000  0.0000  0.0000  0.0000  0.0000 </r>
       </set>
       <set comment="band 8">
        <r>  0.0107  0.0411  0.0541  0.0328  0.0000  0.0000  0.0000  0.0000  0.0000 </r>
        <r>  0.0303  0.0144  0.0191  0.0930  0.0000  0.0000  0.0000  0.0000  0.0000 </r>
       </set>
      </set>
      <set comment="kpoint 61">
       <set comment="band 1">
        <r>  0.1984  0.0376  0.0049  0.0000  0.0000  0.0000  0.0000  0.0000  0.0000 </r>
        <r>  0.1984  0.0376  0.0049  0.0000  0.0000  0.0000  0.0000  0.0000  0.0000 </r>
       </set>
       <set comment="band 2">
        <r>  0.1984  0.0376  0.0049  0.0000  0.0000  0.0000  0.0000  0.0000  0.0000 </r>
        <r>  0.1984  0.0376  0.0049  0.0000  0.0000  0.0000  0.0000  0.0000  0.0000 </r>
       </set>
       <set comment="band 3">
        <r>  0.0025  0.0173  0.0747  0.0779  0.0000  0.0000  0.0000  0.0000  0.0000 </r>
        <r>  0.0025  0.0173  0.0747  0.0779  0.0000  0.0000  0.0000  0.0000  0.0000 </r>
       </set>
       <set comment="band 4">
        <r>  0.0025  0.0173  0.0747  0.0779  0.0000  0.0000  0.0000  0.0000  0.0000 </r>
        <r>  0.0025  0.0173  0.0747  0.0779  0.0000  0.0000  0.0000  0.0000  0.0000 </r>
       </set>
       <set comment="band 5">
        <r>  0.0392  0.0260  0.0155  0.0256  0.0000  0.0000  0.0000  0.0000  0.0000 </r>
        <r>  0.0392  0.0260  0.0155  0.0256  0.0000  0.0000  0.0000  0.0000  0.0000 </r>
       </set>
       <set comment="band 6">
        <r>  0.0392  0.0260  0.0155  0.0256  0.0000  0.0000  0.0000  0.0000  0.0000 </r>
        <r>  0.0392  0.0260  0.0155  0.0256  0.0000  0.0000  0.0000  0.0000  0.0000 </r>
       </set>
       <set comment="band 7">
        <r>  0.0121  0.0410  0.0512  0.0342  0.0000  0.0000  0.0000  0.0000  0.0000 </r>
        <r>  0.0309  0.0160  0.0200  0.0875  0.0000  0.0000  0.0000  0.0000  0.0000 </r>
       </set>
       <set comment="band 8">
        <r>  0.0309  0.0161  0.0199  0.0874  0.0000  0.0000  0.0000  0.0000  0.0000 </r>
        <r>  0.0121  0.0411  0.0510  0.0342  0.0000  0.0000  0.0000  0.0000  0.0000 </r>
       </set>
      </set>
      <set comment="kpoint 62">
       <set comment="band 1">
        <r>  0.1989  0.0369  0.0055  0.0000  0.0000  0.0000  0.0000  0.0000  0.0000 </r>
        <r>  0.1988  0.0369  0.0055  0.0000  0.0000  0.0000  0.0000  0.0000  0.0000 </r>
       </set>
       <set comment="band 2">
        <r>  0.1988  0.0369  0.0055  0.0000  0.0000  0.0000  0.0000  0.0000  0.0000 </r>
        <r>  0.1989  0.0369  0.0055  0.0000  0.0000  0.0000  0.0000  0.0000  0.0000 </r>
       </set>
       <set comment="band 3">
        <r>  0.0024  0.0186  0.0732  0.0769  0.0000  0.0000  0.0000  0.0000  0.0000 </r>
        <r>  0.0024  0.0186  0.0732  0.0769  0.0000  0.0000  0.0000  0.0000  0.0000 </r>
       </set>
       <set comment="band 4">
        <r>  0.0024  0.0186  0.0732  0.0769  0.0000  0.0000  0.0000  0.0000  0.0000 </r>
        <r>  0.0024  0.0186  0.0732  0.0769  0.0000  0.0000  0.0000  0.0000  0.0000 </r>
       </set>
       <set comment="band 5">
        <r>  0.0383  0.0254  0.0162  0.0273  0.0000  0.0000  0.0000  0.0000  0.0000 </r>
        <r>  0.0383  0.0254  0.0162  0.0273  0.0000  0.0000  0.0000  0.0000  0.0000 </r>
       </set>
       <set comment="band 6">
        <r>  0.0383  0.0254  0.0162  0.0273  0.0000  0.0000  0.0000  0.0000  0.0000 </r>
        <r>  0.0383  0.0254  0.0162  0.0273  0.0000  0.0000  0.0000  0.0000  0.0000 </r>
       </set>
       <set comment="band 7">
        <r>  0.0439  0.0013  0.0016  0.1150  0.0000  0.0000  0.0000  0.0000  0.0000 </r>
        <r>  0.0010  0.0572  0.0677  0.0027  0.0000  0.0000  0.0000  0.0000  0.0000 </r>
       </set>
       <set comment="band 8">
        <r>  0.0010  0.0571  0.0677  0.0027  0.0000  0.0000  0.0000  0.0000  0.0000 </r>
        <r>  0.0438  0.0013  0.0016  0.1151  0.0000  0.0000  0.0000  0.0000  0.0000 </r>
       </set>
      </set>
      <set comment="kpoint 63">
       <set comment="band 1">
        <r>  0.1993  0.0362  0.0060  0.0000  0.0000  0.0000  0.0000  0.0000  0.0000 </r>
        <r>  0.1993  0.0362  0.0060  0.0000  0.0000  0.0000  0.0000  0.0000  0.0000 </r>
       </set>
       <set comment="band 2">
        <r>  0.1993  0.0362  0.0060  0.0000  0.0000  0.0000  0.0000  0.0000  0.0000 </r>
        <r>  0.1993  0.0362  0.0060  0.0000  0.0000  0.0000  0.0000  0.0000  0.0000 </r>
       </set>
       <set comment="band 3">
        <r>  0.0023  0.0199  0.0717  0.0760  0.0000  0.0000  0.0000  0.0000  0.0000 </r>
        <r>  0.0023  0.0199  0.0717  0.0760  0.0000  0.0000  0.0000  0.0000  0.0000 </r>
       </set>
       <set comment="band 4">
        <r>  0.0023  0.0199  0.0717  0.0760  0.0000  0.0000  0.0000  0.0000  0.0000 </r>
        <r>  0.0023  0.0199  0.0717  0.0760  0.0000  0.0000  0.0000  0.0000  0.0000 </r>
       </set>
       <set comment="band 5">
        <r>  0.0375  0.0248  0.0168  0.0289  0.0000  0.0000  0.0000  0.0000  0.0000 </r>
        <r>  0.0375  0.0248  0.0168  0.0289  0.0000  0.0000  0.0000  0.0000  0.0000 </r>
       </set>
       <set comment="band 6">
        <r>  0.0375  0.0248  0.0168  0.0289  0.0000  0.0000  0.0000  0.0000  0.0000 </r>
        <r>  0.0375  0.0248  0.0168  0.0289  0.0000  0.0000  0.0000  0.0000  0.0000 </r>
       </set>
       <set comment="band 7">
        <r>  0.0032  0.0558  0.0631  0.0078  0.0000  0.0000  0.0000  0.0000  0.0000 </r>
        <r>  0.0437  0.0041  0.0046  0.1061  0.0000  0.0000  0.0000  0.0000  0.0000 </r>
       </set>
       <set comment="band 8">
        <r>  0.0437  0.0041  0.0046  0.1061  0.0000  0.0000  0.0000  0.0000  0.0000 </r>
        <r>  0.0032  0.0558  0.0631  0.0078  0.0000  0.0000  0.0000  0.0000  0.0000 </r>
       </set>
      </set>
      <set comment="kpoint 64">
       <set comment="band 1">
        <r>  0.1997  0.0355  0.0066  0.0000  0.0000  0.0000  0.0000  0.0000  0.0000 </r>
        <r>  0.1997  0.0355  0.0066  0.0000  0.0000  0.0000  0.0000  0.0000  0.0000 </r>
       </set>
       <set comment="band 2">
        <r>  0.1997  0.0355  0.0066  0.0000  0.0000  0.0000  0.0000  0.0000  0.0000 </r>
        <r>  0.1997  0.0355  0.0066  0.0000  0.0000  0.0000  0.0000  0.0000  0.0000 </r>
       </set>
       <set comment="band 3">
        <r>  0.0021  0.0213  0.0702  0.0752  0.0000  0.0000  0.0000  0.0000  0.0000 </r>
        <r>  0.0021  0.0213  0.0702  0.0752  0.0000  0.0000  0.0000  0.0000  0.0000 </r>
       </set>
       <set comment="band 4">
        <r>  0.0021  0.0213  0.0702  0.0752  0.0000  0.0000  0.0000  0.0000  0.0000 </r>
        <r>  0.0021  0.0213  0.0702  0.0752  0.0000  0.0000  0.0000  0.0000  0.0000 </r>
       </set>
       <set comment="band 5">
        <r>  0.0366  0.0242  0.0173  0.0306  0.0000  0.0000  0.0000  0.0000  0.0000 </r>
        <r>  0.0366  0.0242  0.0173  0.0306  0.0000  0.0000  0.0000  0.0000  0.0000 </r>
       </set>
       <set comment="band 6">
        <r>  0.0366  0.0242  0.0173  0.0306  0.0000  0.0000  0.0000  0.0000  0.0000 </r>
        <r>  0.0366  0.0242  0.0173  0.0306  0.0000  0.0000  0.0000  0.0000  0.0000 </r>
       </set>
       <set comment="band 7">
        <r>  0.0391  0.0122  0.0133  0.0882  0.0000  0.0000  0.0000  0.0000  0.0000 </r>
        <r>  0.0098  0.0489  0.0532  0.0220  0.0000  0.0000  0.0000  0.0000  0.0000 </r>
       </set>
       <set comment="band 8">
        <r>  0.0098  0.0489  0.0531  0.0220  0.0000  0.0000  0.0000  0.0000  0.0000 </r>
        <r>  0.0391  0.0122  0.0133  0.0881  0.0000  0.0000  0.0000  0.0000  0.0000 </r>
       </set>
      </set>
      <set comment="kpoint 65">
       <set comment="band 1">
        <r>  0.2002  0.0347  0.0073  0.0000  0.0000  0.0000  0.0000  0.0000  0.0000 </r>
        <r>  0.2002  0.0347  0.0073  0.0000  0.0000  0.0000  0.0000  0.0000  0.0000 </r>
       </set>
       <set comment="band 2">
        <r>  0.2002  0.0347  0.0073  0.0000  0.0000  0.0000  0.0000  0.0000  0.0000 </r>
        <r>  0.2002  0.0347  0.0073  0.0000  0.0000  0.0000  0.0000  0.0000  0.0000 </r>
       </set>
       <set comment="band 3">
        <r>  0.0020  0.0226  0.0687  0.0744  0.0000  0.0000  0.0000  0.0000  0.0000 </r>
        <r>  0.0020  0.0226  0.0687  0.0744  0.0000  0.0000  0.0000  0.0000  0.0000 </r>
       </set>
       <set comment="band 4">
        <r>  0.0020  0.0226  0.0687  0.0744  0.0000  0.0000  0.0000  0.0000  0.0000 </r>
        <r>  0.0020  0.0226  0.0687  0.0744  0.0000  0.0000  0.0000  0.0000  0.0000 </r>
       </set>
       <set comment="band 5">
        <r>  0.0357  0.0236  0.0178  0.0323  0.0000  0.0000  0.0000  0.0000  0.0000 </r>
        <r>  0.0357  0.0236  0.0178  0.0323  0.0000  0.0000  0.0000  0.0000  0.0000 </r>
       </set>
       <set comment="band 6">
        <r>  0.0357  0.0236  0.0178  0.0323  0.0000  0.0000  0.0000  0.0000  0.0000 </r>
        <r>  0.0357  0.0236  0.0178  0.0323  0.0000  0.0000  0.0000  0.0000  0.0000 </r>
       </set>
       <set comment="band 7">
        <r>  0.0229  0.0343  0.0360  0.0480  0.0000  0.0000  0.0000  0.0000  0.0000 </r>
        <r>  0.0280  0.0281  0.0295  0.0586  0.0000  0.0000  0.0000  0.0000  0.0000 </r>
       </set>
       <set comment="band 8">
        <r>  0.0280  0.0280  0.0295  0.0586  0.0000  0.0000  0.0000  0.0000  0.0000 </r>
        <r>  0.0229  0.0343  0.0359  0.0480  0.0000  0.0000  0.0000  0.0000  0.0000 </r>
       </set>
      </set>
      <set comment="kpoint 66">
       <set comment="band 1">
        <r>  0.2006  0.0339  0.0080  0.0000  0.0000  0.0000  0.0000  0.0000  0.0000 </r>
        <r>  0.2006  0.0339  0.0080  0.0000  0.0000  0.0000  0.0000  0.0000  0.0000 </r>
       </set>
       <set comment="band 2">
        <r>  0.2006  0.0339  0.0080  0.0000  0.0000  0.0000  0.0000  0.0000  0.0000 </r>
        <r>  0.2006  0.0339  0.0080  0.0000  0.0000  0.0000  0.0000  0.0000  0.0000 </r>
       </set>
       <set comment="band 3">
        <r>  0.0018  0.0240  0.0672  0.0737  0.0000  0.0000  0.0000  0.0000  0.0000 </r>
        <r>  0.0018  0.0240  0.0672  0.0737  0.0000  0.0000  0.0000  0.0000  0.0000 </r>
       </set>
       <set comment="band 4">
        <r>  0.0018  0.0240  0.0672  0.0737  0.0000  0.0000  0.0000  0.0000  0.0000 </r>
        <r>  0.0018  0.0240  0.0672  0.0737  0.0000  0.0000  0.0000  0.0000  0.0000 </r>
       </set>
       <set comment="band 5">
        <r>  0.0347  0.0230  0.0182  0.0340  0.0000  0.0000  0.0000  0.0000  0.0000 </r>
        <r>  0.0347  0.0230  0.0182  0.0340  0.0000  0.0000  0.0000  0.0000  0.0000 </r>
       </set>
       <set comment="band 6">
        <r>  0.0347  0.0230  0.0182  0.0340  0.0000  0.0000  0.0000  0.0000  0.0000 </r>
        <r>  0.0347  0.0230  0.0182  0.0340  0.0000  0.0000  0.0000  0.0000  0.0000 </r>
       </set>
       <set comment="band 7">
        <r>  0.0432  0.0117  0.0119  0.0840  0.0000  0.0000  0.0000  0.0000  0.0000 </r>
        <r>  0.0098  0.0518  0.0527  0.0190  0.0000  0.0000  0.0000  0.0000  0.0000 </r>
       </set>
       <set comment="band 8">
        <r>  0.0098  0.0518  0.0527  0.0190  0.0000  0.0000  0.0000  0.0000  0.0000 </r>
        <r>  0.0432  0.0117  0.0119  0.0840  0.0000  0.0000  0.0000  0.0000  0.0000 </r>
       </set>
      </set>
      <set comment="kpoint 67">
       <set comment="band 1">
        <r>  0.2011  0.0331  0.0087  0.0000  0.0000  0.0000  0.0000  0.0000  0.0000 </r>
        <r>  0.2011  0.0331  0.0087  0.0000  0.0000  0.0000  0.0000  0.0000  0.0000 </r>
       </set>
       <set comment="band 2">
        <r>  0.2011  0.0331  0.0087  0.0000  0.0000  0.0000  0.0000  0.0000  0.0000 </r>
        <r>  0.2011  0.0331  0.0087  0.0000  0.0000  0.0000  0.0000  0.0000  0.0000 </r>
       </set>
       <set comment="band 3">
        <r>  0.0017  0.0255  0.0657  0.0730  0.0000  0.0000  0.0000  0.0000  0.0000 </r>
        <r>  0.0017  0.0255  0.0657  0.0730  0.0000  0.0000  0.0000  0.0000  0.0000 </r>
       </set>
       <set comment="band 4">
        <r>  0.0017  0.0255  0.0657  0.0730  0.0000  0.0000  0.0000  0.0000  0.0000 </r>
        <r>  0.0017  0.0255  0.0657  0.0730  0.0000  0.0000  0.0000  0.0000  0.0000 </r>
       </set>
       <set comment="band 5">
        <r>  0.0337  0.0224  0.0185  0.0357  0.0000  0.0000  0.0000  0.0000  0.0000 </r>
        <r>  0.0337  0.0224  0.0185  0.0357  0.0000  0.0000  0.0000  0.0000  0.0000 </r>
       </set>
       <set comment="band 6">
        <r>  0.0337  0.0224  0.0185  0.0357  0.0000  0.0000  0.0000  0.0000  0.0000 </r>
        <r>  0.0337  0.0224  0.0185  0.0357  0.0000  0.0000  0.0000  0.0000  0.0000 </r>
       </set>
       <set comment="band 7">
        <r>  0.0417  0.0157  0.0156  0.0752  0.0000  0.0000  0.0000  0.0000  0.0000 </r>
        <r>  0.0134  0.0489  0.0486  0.0241  0.0000  0.0000  0.0000  0.0000  0.0000 </r>
       </set>
       <set comment="band 8">
        <r>  0.0134  0.0489  0.0486  0.0241  0.0000  0.0000  0.0000  0.0000  0.0000 </r>
        <r>  0.0417  0.0157  0.0156  0.0752  0.0000  0.0000  0.0000  0.0000  0.0000 </r>
       </set>
      </set>
      <set comment="kpoint 68">
       <set comment="band 1">
        <r>  0.2015  0.0322  0.0094  0.0000  0.0000  0.0000  0.0000  0.0000  0.0000 </r>
        <r>  0.2015  0.0322  0.0094  0.0000  0.0000  0.0000  0.0000  0.0000  0.0000 </r>
       </set>
       <set comment="band 2">
        <r>  0.2015  0.0322  0.0094  0.0000  0.0000  0.0000  0.0000  0.0000  0.0000 </r>
        <r>  0.2015  0.0322  0.0094  0.0000  0.0000  0.0000  0.0000  0.0000  0.0000 </r>
       </set>
       <set comment="band 3">
        <r>  0.0015  0.0269  0.0642  0.0724  0.0000  0.0000  0.0000  0.0000  0.0000 </r>
        <r>  0.0015  0.0269  0.0642  0.0724  0.0000  0.0000  0.0000  0.0000  0.0000 </r>
       </set>
       <set comment="band 4">
        <r>  0.0015  0.0269  0.0642  0.0724  0.0000  0.0000  0.0000  0.0000  0.0000 </r>
        <r>  0.0015  0.0269  0.0642  0.0724  0.0000  0.0000  0.0000  0.0000  0.0000 </r>
       </set>
       <set comment="band 5">
        <r>  0.0327  0.0217  0.0187  0.0376  0.0000  0.0000  0.0000  0.0000  0.0000 </r>
        <r>  0.0325  0.0218  0.0188  0.0374  0.0000  0.0000  0.0000  0.0000  0.0000 </r>
       </set>
       <set comment="band 6">
        <r>  0.0325  0.0218  0.0188  0.0374  0.0000  0.0000  0.0000  0.0000  0.0000 </r>
        <r>  0.0327  0.0217  0.0187  0.0376  0.0000  0.0000  0.0000  0.0000  0.0000 </r>
       </set>
       <set comment="band 7">
        <r>  0.0008  0.0648  0.0629  0.0014  0.0000  0.0000  0.0000  0.0000  0.0000 </r>
        <r>  0.0565  0.0010  0.0009  0.0943  0.0000  0.0000  0.0000  0.0000  0.0000 </r>
       </set>
       <set comment="band 8">
        <r>  0.0565  0.0010  0.0009  0.0943  0.0000  0.0000  0.0000  0.0000  0.0000 </r>
        <r>  0.0008  0.0648  0.0629  0.0014  0.0000  0.0000  0.0000  0.0000  0.0000 </r>
       </set>
      </set>
      <set comment="kpoint 69">
       <set comment="band 1">
        <r>  0.2019  0.0313  0.0102  0.0000  0.0000  0.0000  0.0000  0.0000  0.0000 </r>
        <r>  0.2019  0.0313  0.0102  0.0000  0.0000  0.0000  0.0000  0.0000  0.0000 </r>
       </set>
       <set comment="band 2">
        <r>  0.2019  0.0313  0.0102  0.0000  0.0000  0.0000  0.0000  0.0000  0.0000 </r>
        <r>  0.2019  0.0313  0.0102  0.0000  0.0000  0.0000  0.0000  0.0000  0.0000 </r>
       </set>
       <set comment="band 3">
        <r>  0.0013  0.0284  0.0627  0.0718  0.0000  0.0000  0.0000  0.0000  0.0000 </r>
        <r>  0.0013  0.0284  0.0627  0.0718  0.0000  0.0000  0.0000  0.0000  0.0000 </r>
       </set>
       <set comment="band 4">
        <r>  0.0013  0.0284  0.0627  0.0718  0.0000  0.0000  0.0000  0.0000  0.0000 </r>
        <r>  0.0013  0.0284  0.0627  0.0718  0.0000  0.0000  0.0000  0.0000  0.0000 </r>
       </set>
       <set comment="band 5">
        <r>  0.0322  0.0206  0.0185  0.0403  0.0000  0.0000  0.0000  0.0000  0.0000 </r>
        <r>  0.0308  0.0216  0.0193  0.0385  0.0000  0.0000  0.0000  0.0000  0.0000 </r>
       </set>
       <set comment="band 6">
        <r>  0.0308  0.0216  0.0193  0.0385  0.0000  0.0000  0.0000  0.0000  0.0000 </r>
        <r>  0.0322  0.0206  0.0185  0.0403  0.0000  0.0000  0.0000  0.0000  0.0000 </r>
       </set>
       <set comment="band 7">
        <r>  0.0461  0.0152  0.0145  0.0710  0.0000  0.0000  0.0000  0.0000  0.0000 </r>
        <r>  0.0136  0.0517  0.0493  0.0209  0.0000  0.0000  0.0000  0.0000  0.0000 </r>
       </set>
       <set comment="band 8">
        <r>  0.0136  0.0518  0.0493  0.0209  0.0000  0.0000  0.0000  0.0000  0.0000 </r>
        <r>  0.0461  0.0152  0.0145  0.0710  0.0000  0.0000  0.0000  0.0000  0.0000 </r>
       </set>
      </set>
      <set comment="kpoint 70">
       <set comment="band 1">
        <r>  0.2023  0.0304  0.0110  0.0000  0.0000  0.0000  0.0000  0.0000  0.0000 </r>
        <r>  0.2022  0.0304  0.0110  0.0000  0.0000  0.0000  0.0000  0.0000  0.0000 </r>
       </set>
       <set comment="band 2">
        <r>  0.2022  0.0304  0.0110  0.0000  0.0000  0.0000  0.0000  0.0000  0.0000 </r>
        <r>  0.2023  0.0304  0.0110  0.0000  0.0000  0.0000  0.0000  0.0000  0.0000 </r>
       </set>
       <set comment="band 3">
        <r>  0.0011  0.0298  0.0612  0.0713  0.0000  0.0000  0.0000  0.0000  0.0000 </r>
        <r>  0.0011  0.0298  0.0612  0.0713  0.0000  0.0000  0.0000  0.0000  0.0000 </r>
       </set>
       <set comment="band 4">
        <r>  0.0011  0.0298  0.0612  0.0713  0.0000  0.0000  0.0000  0.0000  0.0000 </r>
        <r>  0.0011  0.0298  0.0612  0.0713  0.0000  0.0000  0.0000  0.0000  0.0000 </r>
       </set>
       <set comment="band 5">
        <r>  0.0299  0.0207  0.0192  0.0408  0.0000  0.0000  0.0000  0.0000  0.0000 </r>
        <r>  0.0307  0.0201  0.0187  0.0419  0.0000  0.0000  0.0000  0.0000  0.0000 </r>
       </set>
       <set comment="band 6">
        <r>  0.0307  0.0201  0.0187  0.0419  0.0000  0.0000  0.0000  0.0000  0.0000 </r>
        <r>  0.0299  0.0207  0.0192  0.0408  0.0000  0.0000  0.0000  0.0000  0.0000 </r>
       </set>
       <set comment="band 7">
        <r>  0.0282  0.0373  0.0350  0.0398  0.0000  0.0000  0.0000  0.0000  0.0000 </r>
        <r>  0.0340  0.0309  0.0290  0.0481  0.0000  0.0000  0.0000  0.0000  0.0000 </r>
       </set>
       <set comment="band 8">
        <r>  0.0340  0.0309  0.0290  0.0481  0.0000  0.0000  0.0000  0.0000  0.0000 </r>
        <r>  0.0282  0.0373  0.0351  0.0398  0.0000  0.0000  0.0000  0.0000  0.0000 </r>
       </set>
      </set>
      <set comment="kpoint 71">
       <set comment="band 1">
        <r>  0.2026  0.0295  0.0118  0.0000  0.0000  0.0000  0.0000  0.0000  0.0000 </r>
        <r>  0.2026  0.0295  0.0118  0.0000  0.0000  0.0000  0.0000  0.0000  0.0000 </r>
       </set>
       <set comment="band 2">
        <r>  0.2026  0.0295  0.0118  0.0000  0.0000  0.0000  0.0000  0.0000  0.0000 </r>
        <r>  0.2026  0.0295  0.0118  0.0000  0.0000  0.0000  0.0000  0.0000  0.0000 </r>
       </set>
       <set comment="band 3">
        <r>  0.0009  0.0313  0.0596  0.0709  0.0000  0.0000  0.0000  0.0000  0.0000 </r>
        <r>  0.0009  0.0313  0.0596  0.0709  0.0000  0.0000  0.0000  0.0000  0.0000 </r>
       </set>
       <set comment="band 4">
        <r>  0.0009  0.0313  0.0596  0.0709  0.0000  0.0000  0.0000  0.0000  0.0000 </r>
        <r>  0.0009  0.0313  0.0596  0.0709  0.0000  0.0000  0.0000  0.0000  0.0000 </r>
       </set>
       <set comment="band 5">
        <r>  0.0290  0.0196  0.0188  0.0435  0.0000  0.0000  0.0000  0.0000  0.0000 </r>
        <r>  0.0290  0.0196  0.0188  0.0435  0.0000  0.0000  0.0000  0.0000  0.0000 </r>
       </set>
       <set comment="band 6">
        <r>  0.0290  0.0196  0.0188  0.0435  0.0000  0.0000  0.0000  0.0000  0.0000 </r>
        <r>  0.0290  0.0196  0.0188  0.0435  0.0000  0.0000  0.0000  0.0000  0.0000 </r>
       </set>
       <set comment="band 7">
        <r>  0.0210  0.0471  0.0438  0.0270  0.0000  0.0000  0.0000  0.0000  0.0000 </r>
        <r>  0.0440  0.0224  0.0208  0.0567  0.0000  0.0000  0.0000  0.0000  0.0000 </r>
       </set>
       <set comment="band 8">
        <r>  0.0440  0.0224  0.0208  0.0567  0.0000  0.0000  0.0000  0.0000  0.0000 </r>
        <r>  0.0210  0.0471  0.0437  0.0270  0.0000  0.0000  0.0000  0.0000  0.0000 </r>
       </set>
      </set>
      <set comment="kpoint 72">
       <set comment="band 1">
        <r>  0.2029  0.0285  0.0127  0.0000  0.0000  0.0000  0.0000  0.0000  0.0000 </r>
        <r>  0.2029  0.0285  0.0127  0.0000  0.0000  0.0000  0.0000  0.0000  0.0000 </r>
       </set>
       <set comment="band 2">
        <r>  0.2029  0.0285  0.0127  0.0000  0.0000  0.0000  0.0000  0.0000  0.0000 </r>
        <r>  0.2029  0.0285  0.0127  0.0000  0.0000  0.0000  0.0000  0.0000  0.0000 </r>
       </set>
       <set comment="band 3">
        <r>  0.0008  0.0329  0.0581  0.0705  0.0000  0.0000  0.0000  0.0000  0.0000 </r>
        <r>  0.0008  0.0329  0.0581  0.0705  0.0000  0.0000  0.0000  0.0000  0.0000 </r>
       </set>
       <set comment="band 4">
        <r>  0.0008  0.0329  0.0581  0.0705  0.0000  0.0000  0.0000  0.0000  0.0000 </r>
        <r>  0.0008  0.0329  0.0581  0.0705  0.0000  0.0000  0.0000  0.0000  0.0000 </r>
       </set>
       <set comment="band 5">
        <r>  0.0274  0.0187  0.0186  0.0457  0.0000  0.0000  0.0000  0.0000  0.0000 </r>
        <r>  0.0275  0.0186  0.0185  0.0459  0.0000  0.0000  0.0000  0.0000  0.0000 </r>
       </set>
       <set comment="band 6">
        <r>  0.0275  0.0186  0.0185  0.0459  0.0000  0.0000  0.0000  0.0000  0.0000 </r>
        <r>  0.0274  0.0187  0.0186  0.0457  0.0000  0.0000  0.0000  0.0000  0.0000 </r>
       </set>
       <set comment="band 7">
        <r>  0.0581  0.0104  0.0096  0.0675  0.0000  0.0000  0.0000  0.0000  0.0000 </r>
        <r>  0.0099  0.0607  0.0559  0.0115  0.0000  0.0000  0.0000  0.0000  0.0000 </r>
       </set>
       <set comment="band 8">
        <r>  0.0099  0.0607  0.0559  0.0115  0.0000  0.0000  0.0000  0.0000  0.0000 </r>
        <r>  0.0581  0.0104  0.0096  0.0676  0.0000  0.0000  0.0000  0.0000  0.0000 </r>
       </set>
      </set>
      <set comment="kpoint 73">
       <set comment="band 1">
        <r>  0.2032  0.0275  0.0136  0.0000  0.0000  0.0000  0.0000  0.0000  0.0000 </r>
        <r>  0.2032  0.0275  0.0136  0.0000  0.0000  0.0000  0.0000  0.0000  0.0000 </r>
       </set>
       <set comment="band 2">
        <r>  0.2032  0.0275  0.0136  0.0000  0.0000  0.0000  0.0000  0.0000  0.0000 </r>
        <r>  0.2032  0.0275  0.0136  0.0000  0.0000  0.0000  0.0000  0.0000  0.0000 </r>
       </set>
       <set comment="band 3">
        <r>  0.0006  0.0344  0.0565  0.0701  0.0000  0.0000  0.0000  0.0000  0.0000 </r>
        <r>  0.0006  0.0344  0.0565  0.0701  0.0000  0.0000  0.0000  0.0000  0.0000 </r>
       </set>
       <set comment="band 4">
        <r>  0.0006  0.0344  0.0565  0.0701  0.0000  0.0000  0.0000  0.0000  0.0000 </r>
        <r>  0.0006  0.0344  0.0565  0.0701  0.0000  0.0000  0.0000  0.0000  0.0000 </r>
       </set>
       <set comment="band 5">
        <r>  0.0259  0.0175  0.0179  0.0487  0.0000  0.0000  0.0000  0.0000  0.0000 </r>
        <r>  0.0256  0.0177  0.0181  0.0482  0.0000  0.0000  0.0000  0.0000  0.0000 </r>
       </set>
       <set comment="band 6">
        <r>  0.0256  0.0177  0.0181  0.0482  0.0000  0.0000  0.0000  0.0000  0.0000 </r>
        <r>  0.0259  0.0175  0.0179  0.0487  0.0000  0.0000  0.0000  0.0000  0.0000 </r>
       </set>
       <set comment="band 7">
        <r>  0.0317  0.0406  0.0372  0.0327  0.0000  0.0000  0.0000  0.0000  0.0000 </r>
        <r>  0.0398  0.0323  0.0296  0.0412  0.0000  0.0000  0.0000  0.0000  0.0000 </r>
       </set>
       <set comment="band 8">
        <r>  0.0398  0.0323  0.0296  0.0412  0.0000  0.0000  0.0000  0.0000  0.0000 </r>
        <r>  0.0317  0.0406  0.0372  0.0327  0.0000  0.0000  0.0000  0.0000  0.0000 </r>
       </set>
      </set>
      <set comment="kpoint 74">
       <set comment="band 1">
        <r>  0.2035  0.0265  0.0145  0.0000  0.0000  0.0000  0.0000  0.0000  0.0000 </r>
        <r>  0.2035  0.0265  0.0145  0.0000  0.0000  0.0000  0.0000  0.0000  0.0000 </r>
       </set>
       <set comment="band 2">
        <r>  0.2035  0.0265  0.0145  0.0000  0.0000  0.0000  0.0000  0.0000  0.0000 </r>
        <r>  0.2035  0.0265  0.0145  0.0000  0.0000  0.0000  0.0000  0.0000  0.0000 </r>
       </set>
       <set comment="band 3">
        <r>  0.0004  0.0359  0.0549  0.0698  0.0000  0.0000  0.0000  0.0000  0.0000 </r>
        <r>  0.0004  0.0359  0.0549  0.0698  0.0000  0.0000  0.0000  0.0000  0.0000 </r>
       </set>
       <set comment="band 4">
        <r>  0.0004  0.0359  0.0549  0.0698  0.0000  0.0000  0.0000  0.0000  0.0000 </r>
        <r>  0.0004  0.0359  0.0549  0.0698  0.0000  0.0000  0.0000  0.0000  0.0000 </r>
       </set>
       <set comment="band 5">
        <r>  0.0237  0.0163  0.0173  0.0514  0.0000  0.0000  0.0000  0.0000  0.0000 </r>
        <r>  0.0238  0.0163  0.0172  0.0516  0.0000  0.0000  0.0000  0.0000  0.0000 </r>
       </set>
       <set comment="band 6">
        <r>  0.0238  0.0163  0.0172  0.0516  0.0000  0.0000  0.0000  0.0000  0.0000 </r>
        <r>  0.0237  0.0163  0.0173  0.0514  0.0000  0.0000  0.0000  0.0000  0.0000 </r>
       </set>
       <set comment="band 7">
        <r>  0.0304  0.0449  0.0411  0.0273  0.0000  0.0000  0.0000  0.0000  0.0000 </r>
        <r>  0.0452  0.0302  0.0277  0.0406  0.0000  0.0000  0.0000  0.0000  0.0000 </r>
       </set>
       <set comment="band 8">
        <r>  0.0452  0.0302  0.0277  0.0406  0.0000  0.0000  0.0000  0.0000  0.0000 </r>
        <r>  0.0304  0.0450  0.0411  0.0273  0.0000  0.0000  0.0000  0.0000  0.0000 </r>
       </set>
      </set>
      <set comment="kpoint 75">
       <set comment="band 1">
        <r>  0.2037  0.0255  0.0155  0.0000  0.0000  0.0000  0.0000  0.0000  0.0000 </r>
        <r>  0.2037  0.0255  0.0155  0.0000  0.0000  0.0000  0.0000  0.0000  0.0000 </r>
       </set>
       <set comment="band 2">
        <r>  0.2037  0.0255  0.0155  0.0000  0.0000  0.0000  0.0000  0.0000  0.0000 </r>
        <r>  0.2037  0.0255  0.0155  0.0000  0.0000  0.0000  0.0000  0.0000  0.0000 </r>
       </set>
       <set comment="band 3">
        <r>  0.0003  0.0375  0.0534  0.0695  0.0000  0.0000  0.0000  0.0000  0.0000 </r>
        <r>  0.0003  0.0375  0.0534  0.0695  0.0000  0.0000  0.0000  0.0000  0.0000 </r>
       </set>
       <set comment="band 4">
        <r>  0.0003  0.0375  0.0534  0.0695  0.0000  0.0000  0.0000  0.0000  0.0000 </r>
        <r>  0.0003  0.0375  0.0534  0.0695  0.0000  0.0000  0.0000  0.0000  0.0000 </r>
       </set>
       <set comment="band 5">
        <r>  0.0210  0.0149  0.0162  0.0544  0.0000  0.0000  0.0000  0.0000  0.0000 </r>
        <r>  0.0216  0.0145  0.0158  0.0559  0.0000  0.0000  0.0000  0.0000  0.0000 </r>
       </set>
       <set comment="band 6">
        <r>  0.0216  0.0145  0.0158  0.0559  0.0000  0.0000  0.0000  0.0000  0.0000 </r>
        <r>  0.0210  0.0149  0.0162  0.0544  0.0000  0.0000  0.0000  0.0000  0.0000 </r>
       </set>
       <set comment="band 7">
        <r>  0.0494  0.0302  0.0277  0.0372  0.0000  0.0000  0.0000  0.0000  0.0000 </r>
        <r>  0.0312  0.0479  0.0439  0.0235  0.0000  0.0000  0.0000  0.0000  0.0000 </r>
       </set>
       <set comment="band 8">
        <r>  0.0312  0.0479  0.0439  0.0235  0.0000  0.0000  0.0000  0.0000  0.0000 </r>
        <r>  0.0494  0.0302  0.0277  0.0372  0.0000  0.0000  0.0000  0.0000  0.0000 </r>
       </set>
      </set>
      <set comment="kpoint 76">
       <set comment="band 1">
        <r>  0.2039  0.0245  0.0164  0.0000  0.0000  0.0000  0.0000  0.0000  0.0000 </r>
        <r>  0.2039  0.0245  0.0164  0.0000  0.0000  0.0000  0.0000  0.0000  0.0000 </r>
       </set>
       <set comment="band 2">
        <r>  0.2039  0.0245  0.0164  0.0000  0.0000  0.0000  0.0000  0.0000  0.0000 </r>
        <r>  0.2039  0.0245  0.0164  0.0000  0.0000  0.0000  0.0000  0.0000  0.0000 </r>
       </set>
       <set comment="band 3">
        <r>  0.0002  0.0391  0.0518  0.0693  0.0000  0.0000  0.0000  0.0000  0.0000 </r>
        <r>  0.0002  0.0391  0.0518  0.0693  0.0000  0.0000  0.0000  0.0000  0.0000 </r>
       </set>
       <set comment="band 4">
        <r>  0.0002  0.0391  0.0518  0.0693  0.0000  0.0000  0.0000  0.0000  0.0000 </r>
        <r>  0.0002  0.0391  0.0518  0.0693  0.0000  0.0000  0.0000  0.0000  0.0000 </r>
       </set>
       <set comment="band 5">
        <r>  0.0180  0.0127  0.0143  0.0591  0.0000  0.0000  0.0000  0.0000  0.0000 </r>
        <r>  0.0184  0.0124  0.0141  0.0602  0.0000  0.0000  0.0000  0.0000  0.0000 </r>
       </set>
       <set comment="band 6">
        <r>  0.0184  0.0124  0.0141  0.0602  0.0000  0.0000  0.0000  0.0000  0.0000 </r>
        <r>  0.0180  0.0127  0.0143  0.0591  0.0000  0.0000  0.0000  0.0000  0.0000 </r>
       </set>
       <set comment="band 7">
        <r>  0.0625  0.0229  0.0211  0.0373  0.0000  0.0000  0.0000  0.0000  0.0000 </r>
        <r>  0.0242  0.0591  0.0545  0.0145  0.0000  0.0000  0.0000  0.0000  0.0000 </r>
       </set>
       <set comment="band 8">
        <r>  0.0242  0.0591  0.0545  0.0145  0.0000  0.0000  0.0000  0.0000  0.0000 </r>
        <r>  0.0625  0.0229  0.0211  0.0373  0.0000  0.0000  0.0000  0.0000  0.0000 </r>
       </set>
      </set>
      <set comment="kpoint 77">
       <set comment="band 1">
        <r>  0.2041  0.0235  0.0174  0.0000  0.0000  0.0000  0.0000  0.0000  0.0000 </r>
        <r>  0.2041  0.0235  0.0174  0.0000  0.0000  0.0000  0.0000  0.0000  0.0000 </r>
       </set>
       <set comment="band 2">
        <r>  0.2041  0.0235  0.0174  0.0000  0.0000  0.0000  0.0000  0.0000  0.0000 </r>
        <r>  0.2041  0.0235  0.0174  0.0000  0.0000  0.0000  0.0000  0.0000  0.0000 </r>
       </set>
       <set comment="band 3">
        <r>  0.0001  0.0406  0.0502  0.0691  0.0000  0.0000  0.0000  0.0000  0.0000 </r>
        <r>  0.0001  0.0406  0.0502  0.0691  0.0000  0.0000  0.0000  0.0000  0.0000 </r>
       </set>
       <set comment="band 4">
        <r>  0.0001  0.0406  0.0502  0.0691  0.0000  0.0000  0.0000  0.0000  0.0000 </r>
        <r>  0.0001  0.0406  0.0502  0.0691  0.0000  0.0000  0.0000  0.0000  0.0000 </r>
       </set>
       <set comment="band 5">
        <r>  0.0140  0.0098  0.0116  0.0647  0.0000  0.0000  0.0000  0.0000  0.0000 </r>
        <r>  0.0143  0.0096  0.0114  0.0662  0.0000  0.0000  0.0000  0.0000  0.0000 </r>
       </set>
       <set comment="band 6">
        <r>  0.0143  0.0096  0.0114  0.0662  0.0000  0.0000  0.0000  0.0000  0.0000 </r>
        <r>  0.0140  0.0098  0.0116  0.0647  0.0000  0.0000  0.0000  0.0000  0.0000 </r>
       </set>
       <set comment="band 7">
        <r>  0.0561  0.0357  0.0332  0.0237  0.0000  0.0000  0.0000  0.0000  0.0000 </r>
        <r>  0.0388  0.0516  0.0481  0.0164  0.0000  0.0000  0.0000  0.0000  0.0000 </r>
       </set>
       <set comment="band 8">
        <r>  0.0388  0.0516  0.0481  0.0164  0.0000  0.0000  0.0000  0.0000  0.0000 </r>
        <r>  0.0561  0.0357  0.0332  0.0237  0.0000  0.0000  0.0000  0.0000  0.0000 </r>
       </set>
      </set>
      <set comment="kpoint 78">
       <set comment="band 1">
        <r>  0.2042  0.0225  0.0184  0.0000  0.0000  0.0000  0.0000  0.0000  0.0000 </r>
        <r>  0.2042  0.0225  0.0184  0.0000  0.0000  0.0000  0.0000  0.0000  0.0000 </r>
       </set>
       <set comment="band 2">
        <r>  0.2042  0.0225  0.0184  0.0000  0.0000  0.0000  0.0000  0.0000  0.0000 </r>
        <r>  0.2042  0.0225  0.0184  0.0000  0.0000  0.0000  0.0000  0.0000  0.0000 </r>
       </set>
       <set comment="band 3">
        <r>  0.0001  0.0422  0.0486  0.0690  0.0000  0.0000  0.0000  0.0000  0.0000 </r>
        <r>  0.0001  0.0422  0.0486  0.0690  0.0000  0.0000  0.0000  0.0000  0.0000 </r>
       </set>
       <set comment="band 4">
        <r>  0.0001  0.0422  0.0486  0.0690  0.0000  0.0000  0.0000  0.0000  0.0000 </r>
        <r>  0.0001  0.0422  0.0486  0.0690  0.0000  0.0000  0.0000  0.0000  0.0000 </r>
       </set>
       <set comment="band 5">
        <r>  0.0088  0.0060  0.0077  0.0723  0.0000  0.0000  0.0000  0.0000  0.0000 </r>
        <r>  0.0090  0.0059  0.0076  0.0736  0.0000  0.0000  0.0000  0.0000  0.0000 </r>
       </set>
       <set comment="band 6">
        <r>  0.0090  0.0059  0.0076  0.0736  0.0000  0.0000  0.0000  0.0000  0.0000 </r>
        <r>  0.0088  0.0060  0.0077  0.0723  0.0000  0.0000  0.0000  0.0000  0.0000 </r>
       </set>
       <set comment="band 7">
        <r>  0.0167  0.0795  0.0753  0.0040  0.0000  0.0000  0.0000  0.0000  0.0000 </r>
        <r>  0.0887  0.0150  0.0142  0.0212  0.0000  0.0000  0.0000  0.0000  0.0000 </r>
       </set>
       <set comment="band 8">
        <r>  0.0887  0.0150  0.0142  0.0212  0.0000  0.0000  0.0000  0.0000  0.0000 </r>
        <r>  0.0167  0.0795  0.0753  0.0040  0.0000  0.0000  0.0000  0.0000  0.0000 </r>
       </set>
      </set>
      <set comment="kpoint 79">
       <set comment="band 1">
        <r>  0.2043  0.0215  0.0194  0.0000  0.0000  0.0000  0.0000  0.0000  0.0000 </r>
        <r>  0.2043  0.0215  0.0194  0.0000  0.0000  0.0000  0.0000  0.0000  0.0000 </r>
       </set>
       <set comment="band 2">
        <r>  0.2043  0.0215  0.0194  0.0000  0.0000  0.0000  0.0000  0.0000  0.0000 </r>
        <r>  0.2043  0.0215  0.0194  0.0000  0.0000  0.0000  0.0000  0.0000  0.0000 </r>
       </set>
       <set comment="band 3">
        <r>  0.0000  0.0438  0.0470  0.0690  0.0000  0.0000  0.0000  0.0000  0.0000 </r>
        <r>  0.0000  0.0438  0.0470  0.0690  0.0000  0.0000  0.0000  0.0000  0.0000 </r>
       </set>
       <set comment="band 4">
        <r>  0.0000  0.0438  0.0470  0.0690  0.0000  0.0000  0.0000  0.0000  0.0000 </r>
        <r>  0.0000  0.0438  0.0470  0.0690  0.0000  0.0000  0.0000  0.0000  0.0000 </r>
       </set>
       <set comment="band 5">
        <r>  0.0031  0.0018  0.0029  0.0818  0.0000  0.0000  0.0000  0.0000  0.0000 </r>
        <r>  0.0030  0.0018  0.0030  0.0807  0.0000  0.0000  0.0000  0.0000  0.0000 </r>
       </set>
       <set comment="band 6">
        <r>  0.0030  0.0018  0.0030  0.0807  0.0000  0.0000  0.0000  0.0000  0.0000 </r>
        <r>  0.0031  0.0018  0.0029  0.0818  0.0000  0.0000  0.0000  0.0000  0.0000 </r>
       </set>
       <set comment="band 7">
        <r>  0.0739  0.0377  0.0366  0.0054  0.0000  0.0000  0.0000  0.0000  0.0000 </r>
        <r>  0.0432  0.0646  0.0627  0.0032  0.0000  0.0000  0.0000  0.0000  0.0000 </r>
       </set>
       <set comment="band 8">
        <r>  0.0432  0.0646  0.0627  0.0032  0.0000  0.0000  0.0000  0.0000  0.0000 </r>
        <r>  0.0739  0.0377  0.0366  0.0054  0.0000  0.0000  0.0000  0.0000  0.0000 </r>
       </set>
      </set>
      <set comment="kpoint 80">
       <set comment="band 1">
        <r>  0.2043  0.0204  0.0204  0.0000  0.0000  0.0000  0.0000  0.0000  0.0000 </r>
        <r>  0.2042  0.0204  0.0204  0.0000  0.0000  0.0000  0.0000  0.0000  0.0000 </r>
       </set>
       <set comment="band 2">
        <r>  0.2042  0.0204  0.0204  0.0000  0.0000  0.0000  0.0000  0.0000  0.0000 </r>
        <r>  0.2043  0.0204  0.0204  0.0000  0.0000  0.0000  0.0000  0.0000  0.0000 </r>
       </set>
       <set comment="band 3">
        <r>  0.0000  0.0454  0.0454  0.0689  0.0000  0.0000  0.0000  0.0000  0.0000 </r>
        <r>  0.0000  0.0454  0.0454  0.0689  0.0000  0.0000  0.0000  0.0000  0.0000 </r>
       </set>
       <set comment="band 4">
        <r>  0.0000  0.0454  0.0454  0.0689  0.0000  0.0000  0.0000  0.0000  0.0000 </r>
        <r>  0.0000  0.0454  0.0454  0.0689  0.0000  0.0000  0.0000  0.0000  0.0000 </r>
       </set>
       <set comment="band 5">
        <r>  0.0000  0.0000  0.0000  0.0657  0.0000  0.0000  0.0000  0.0000  0.0000 </r>
        <r>  0.0000  0.0000  0.0000  0.1053  0.0000  0.0000  0.0000  0.0000  0.0000 </r>
       </set>
       <set comment="band 6">
        <r>  0.0000  0.0000  0.0000  0.1053  0.0000  0.0000  0.0000  0.0000  0.0000 </r>
        <r>  0.0000  0.0000  0.0000  0.0657  0.0000  0.0000  0.0000  0.0000  0.0000 </r>
       </set>
       <set comment="band 7">
        <r>  0.0686  0.0467  0.0467  0.0000  0.0000  0.0000  0.0000  0.0000  0.0000 </r>
        <r>  0.0546  0.0588  0.0588  0.0000  0.0000  0.0000  0.0000  0.0000  0.0000 </r>
       </set>
       <set comment="band 8">
        <r>  0.0546  0.0588  0.0588  0.0000  0.0000  0.0000  0.0000  0.0000  0.0000 </r>
        <r>  0.0686  0.0467  0.0467  0.0000  0.0000  0.0000  0.0000  0.0000  0.0000 </r>
       </set>
      </set>
      <set comment="kpoint 81">
       <set comment="band 1">
        <r>  0.2043  0.0204  0.0204  0.0000  0.0000  0.0000  0.0000  0.0000  0.0000 </r>
        <r>  0.2043  0.0204  0.0204  0.0000  0.0000  0.0000  0.0000  0.0000  0.0000 </r>
       </set>
       <set comment="band 2">
        <r>  0.2043  0.0204  0.0204  0.0000  0.0000  0.0000  0.0000  0.0000  0.0000 </r>
        <r>  0.2043  0.0204  0.0204  0.0000  0.0000  0.0000  0.0000  0.0000  0.0000 </r>
       </set>
       <set comment="band 3">
        <r>  0.0000  0.0454  0.0454  0.0689  0.0000  0.0000  0.0000  0.0000  0.0000 </r>
        <r>  0.0000  0.0454  0.0454  0.0689  0.0000  0.0000  0.0000  0.0000  0.0000 </r>
       </set>
       <set comment="band 4">
        <r>  0.0000  0.0454  0.0454  0.0689  0.0000  0.0000  0.0000  0.0000  0.0000 </r>
        <r>  0.0000  0.0454  0.0454  0.0689  0.0000  0.0000  0.0000  0.0000  0.0000 </r>
       </set>
       <set comment="band 5">
        <r>  0.0000  0.0000  0.0000  0.0856  0.0000  0.0000  0.0000  0.0000  0.0000 </r>
        <r>  0.0000  0.0000  0.0000  0.0855  0.0000  0.0000  0.0000  0.0000  0.0000 </r>
       </set>
       <set comment="band 6">
        <r>  0.0000  0.0000  0.0000  0.0855  0.0000  0.0000  0.0000  0.0000  0.0000 </r>
        <r>  0.0000  0.0000  0.0000  0.0856  0.0000  0.0000  0.0000  0.0000  0.0000 </r>
       </set>
       <set comment="band 7">
        <r>  0.0608  0.0534  0.0534  0.0000  0.0000  0.0000  0.0000  0.0000  0.0000 </r>
        <r>  0.0624  0.0520  0.0520  0.0000  0.0000  0.0000  0.0000  0.0000  0.0000 </r>
       </set>
       <set comment="band 8">
        <r>  0.0624  0.0520  0.0520  0.0000  0.0000  0.0000  0.0000  0.0000  0.0000 </r>
        <r>  0.0608  0.0534  0.0534  0.0000  0.0000  0.0000  0.0000  0.0000  0.0000 </r>
       </set>
      </set>
      <set comment="kpoint 82">
       <set comment="band 1">
        <r>  0.2054  0.0198  0.0198  0.0000  0.0000  0.0000  0.0000  0.0000  0.0000 </r>
        <r>  0.2054  0.0198  0.0198  0.0000  0.0000  0.0000  0.0000  0.0000  0.0000 </r>
       </set>
       <set comment="band 2">
        <r>  0.2031  0.0211  0.0211  0.0000  0.0000  0.0000  0.0000  0.0000  0.0000 </r>
        <r>  0.2031  0.0211  0.0211  0.0000  0.0000  0.0000  0.0000  0.0000  0.0000 </r>
       </set>
       <set comment="band 3">
        <r>  0.0000  0.0456  0.0456  0.0677  0.0000  0.0000  0.0000  0.0000  0.0000 </r>
        <r>  0.0000  0.0456  0.0456  0.0677  0.0000  0.0000  0.0000  0.0000  0.0000 </r>
       </set>
       <set comment="band 4">
        <r>  0.0000  0.0452  0.0452  0.0702  0.0000  0.0000  0.0000  0.0000  0.0000 </r>
        <r>  0.0000  0.0452  0.0452  0.0702  0.0000  0.0000  0.0000  0.0000  0.0000 </r>
       </set>
       <set comment="band 5">
        <r>  0.0007  0.0007  0.0007  0.0841  0.0000  0.0000  0.0000  0.0000  0.0000 </r>
        <r>  0.0007  0.0007  0.0007  0.0841  0.0000  0.0000  0.0000  0.0000  0.0000 </r>
       </set>
       <set comment="band 6">
        <r>  0.0016  0.0014  0.0014  0.0837  0.0000  0.0000  0.0000  0.0000  0.0000 </r>
        <r>  0.0016  0.0014  0.0014  0.0837  0.0000  0.0000  0.0000  0.0000  0.0000 </r>
       </set>
       <set comment="band 7">
        <r>  0.0614  0.0506  0.0506  0.0022  0.0000  0.0000  0.0000  0.0000  0.0000 </r>
        <r>  0.0614  0.0506  0.0506  0.0022  0.0000  0.0000  0.0000  0.0000  0.0000 </r>
       </set>
       <set comment="band 8">
        <r>  0.0595  0.0530  0.0530  0.0010  0.0000  0.0000  0.0000  0.0000  0.0000 </r>
        <r>  0.0595  0.0530  0.0529  0.0010  0.0000  0.0000  0.0000  0.0000  0.0000 </r>
       </set>
      </set>
      <set comment="kpoint 83">
       <set comment="band 1">
        <r>  0.2064  0.0191  0.0191  0.0001  0.0000  0.0000  0.0000  0.0000  0.0000 </r>
        <r>  0.2064  0.0191  0.0191  0.0001  0.0000  0.0000  0.0000  0.0000  0.0000 </r>
       </set>
       <set comment="band 2">
        <r>  0.2017  0.0217  0.0217  0.0001  0.0000  0.0000  0.0000  0.0000  0.0000 </r>
        <r>  0.2017  0.0217  0.0217  0.0001  0.0000  0.0000  0.0000  0.0000  0.0000 </r>
       </set>
       <set comment="band 3">
        <r>  0.0002  0.0459  0.0459  0.0664  0.0000  0.0000  0.0000  0.0000  0.0000 </r>
        <r>  0.0002  0.0459  0.0459  0.0664  0.0000  0.0000  0.0000  0.0000  0.0000 </r>
       </set>
       <set comment="band 4">
        <r>  0.0001  0.0451  0.0451  0.0715  0.0000  0.0000  0.0000  0.0000  0.0000 </r>
        <r>  0.0001  0.0451  0.0451  0.0715  0.0000  0.0000  0.0000  0.0000  0.0000 </r>
       </set>
       <set comment="band 5">
        <r>  0.0020  0.0018  0.0018  0.0818  0.0000  0.0000  0.0000  0.0000  0.0000 </r>
        <r>  0.0020  0.0018  0.0018  0.0818  0.0000  0.0000  0.0000  0.0000  0.0000 </r>
       </set>
       <set comment="band 6">
        <r>  0.0083  0.0065  0.0065  0.0753  0.0000  0.0000  0.0000  0.0000  0.0000 </r>
        <r>  0.0083  0.0065  0.0065  0.0753  0.0000  0.0000  0.0000  0.0000  0.0000 </r>
       </set>
       <set comment="band 7">
        <r>  0.0561  0.0447  0.0447  0.0108  0.0000  0.0000  0.0000  0.0000  0.0000 </r>
        <r>  0.0561  0.0447  0.0447  0.0108  0.0000  0.0000  0.0000  0.0000  0.0000 </r>
       </set>
       <set comment="band 8">
        <r>  0.0568  0.0527  0.0527  0.0028  0.0000  0.0000  0.0000  0.0000  0.0000 </r>
        <r>  0.0568  0.0527  0.0526  0.0028  0.0000  0.0000  0.0000  0.0000  0.0000 </r>
       </set>
      </set>
      <set comment="kpoint 84">
       <set comment="band 1">
        <r>  0.2073  0.0185  0.0185  0.0002  0.0000  0.0000  0.0000  0.0000  0.0000 </r>
        <r>  0.2073  0.0185  0.0185  0.0002  0.0000  0.0000  0.0000  0.0000  0.0000 </r>
       </set>
       <set comment="band 2">
        <r>  0.2001  0.0223  0.0223  0.0003  0.0000  0.0000  0.0000  0.0000  0.0000 </r>
        <r>  0.2001  0.0223  0.0223  0.0003  0.0000  0.0000  0.0000  0.0000  0.0000 </r>
       </set>
       <set comment="band 3">
        <r>  0.0005  0.0461  0.0461  0.0651  0.0000  0.0000  0.0000  0.0000  0.0000 </r>
        <r>  0.0005  0.0461  0.0461  0.0651  0.0000  0.0000  0.0000  0.0000  0.0000 </r>
       </set>
       <set comment="band 4">
        <r>  0.0002  0.0450  0.0450  0.0727  0.0000  0.0000  0.0000  0.0000  0.0000 </r>
        <r>  0.0002  0.0450  0.0450  0.0727  0.0000  0.0000  0.0000  0.0000  0.0000 </r>
       </set>
       <set comment="band 5">
        <r>  0.0033  0.0031  0.0031  0.0795  0.0000  0.0000  0.0000  0.0000  0.0000 </r>
        <r>  0.0033  0.0031  0.0031  0.0795  0.0000  0.0000  0.0000  0.0000  0.0000 </r>
       </set>
       <set comment="band 6">
        <r>  0.0188  0.0143  0.0143  0.0621  0.0000  0.0000  0.0000  0.0000  0.0000 </r>
        <r>  0.0188  0.0143  0.0143  0.0622  0.0000  0.0000  0.0000  0.0000  0.0000 </r>
       </set>
       <set comment="band 7">
        <r>  0.0470  0.0362  0.0362  0.0241  0.0000  0.0000  0.0000  0.0000  0.0000 </r>
        <r>  0.0470  0.0362  0.0362  0.0240  0.0000  0.0000  0.0000  0.0000  0.0000 </r>
       </set>
       <set comment="band 8">
        <r>  0.0541  0.0523  0.0524  0.0046  0.0000  0.0000  0.0000  0.0000  0.0000 </r>
        <r>  0.0541  0.0523  0.0524  0.0046  0.0000  0.0000  0.0000  0.0000  0.0000 </r>
       </set>
      </set>
      <set comment="kpoint 85">
       <set comment="band 1">
        <r>  0.2082  0.0178  0.0178  0.0003  0.0000  0.0000  0.0000  0.0000  0.0000 </r>
        <r>  0.2082  0.0178  0.0178  0.0003  0.0000  0.0000  0.0000  0.0000  0.0000 </r>
       </set>
       <set comment="band 2">
        <r>  0.1984  0.0229  0.0229  0.0006  0.0000  0.0000  0.0000  0.0000  0.0000 </r>
        <r>  0.1984  0.0229  0.0229  0.0006  0.0000  0.0000  0.0000  0.0000  0.0000 </r>
       </set>
       <set comment="band 3">
        <r>  0.0009  0.0465  0.0465  0.0637  0.0000  0.0000  0.0000  0.0000  0.0000 </r>
        <r>  0.0009  0.0465  0.0465  0.0637  0.0000  0.0000  0.0000  0.0000  0.0000 </r>
       </set>
       <set comment="band 4">
        <r>  0.0004  0.0448  0.0448  0.0741  0.0000  0.0000  0.0000  0.0000  0.0000 </r>
        <r>  0.0004  0.0448  0.0448  0.0741  0.0000  0.0000  0.0000  0.0000  0.0000 </r>
       </set>
       <set comment="band 5">
        <r>  0.0043  0.0042  0.0042  0.0773  0.0000  0.0000  0.0000  0.0000  0.0000 </r>
        <r>  0.0043  0.0042  0.0042  0.0773  0.0000  0.0000  0.0000  0.0000  0.0000 </r>
       </set>
       <set comment="band 6">
        <r>  0.0286  0.0210  0.0210  0.0503  0.0000  0.0000  0.0000  0.0000  0.0000 </r>
        <r>  0.0286  0.0210  0.0210  0.0503  0.0000  0.0000  0.0000  0.0000  0.0000 </r>
       </set>
       <set comment="band 7">
        <r>  0.0386  0.0288  0.0288  0.0361  0.0000  0.0000  0.0000  0.0000  0.0000 </r>
        <r>  0.0386  0.0288  0.0288  0.0361  0.0000  0.0000  0.0000  0.0000  0.0000 </r>
       </set>
       <set comment="band 8">
        <r>  0.0516  0.0521  0.0521  0.0061  0.0000  0.0000  0.0000  0.0000  0.0000 </r>
        <r>  0.0516  0.0521  0.0521  0.0061  0.0000  0.0000  0.0000  0.0000  0.0000 </r>
       </set>
      </set>
      <set comment="kpoint 86">
       <set comment="band 1">
        <r>  0.2090  0.0172  0.0172  0.0005  0.0000  0.0000  0.0000  0.0000  0.0000 </r>
        <r>  0.2090  0.0172  0.0172  0.0005  0.0000  0.0000  0.0000  0.0000  0.0000 </r>
       </set>
       <set comment="band 2">
        <r>  0.1963  0.0235  0.0235  0.0010  0.0000  0.0000  0.0000  0.0000  0.0000 </r>
        <r>  0.1963  0.0235  0.0235  0.0010  0.0000  0.0000  0.0000  0.0000  0.0000 </r>
       </set>
       <set comment="band 3">
        <r>  0.0016  0.0468  0.0468  0.0622  0.0000  0.0000  0.0000  0.0000  0.0000 </r>
        <r>  0.0016  0.0468  0.0468  0.0622  0.0000  0.0000  0.0000  0.0000  0.0000 </r>
       </set>
       <set comment="band 4">
        <r>  0.0005  0.0447  0.0447  0.0755  0.0000  0.0000  0.0000  0.0000  0.0000 </r>
        <r>  0.0005  0.0447  0.0447  0.0755  0.0000  0.0000  0.0000  0.0000  0.0000 </r>
       </set>
       <set comment="band 5">
        <r>  0.0052  0.0053  0.0053  0.0752  0.0000  0.0000  0.0000  0.0000  0.0000 </r>
        <r>  0.0052  0.0053  0.0053  0.0752  0.0000  0.0000  0.0000  0.0000  0.0000 </r>
       </set>
       <set comment="band 6">
        <r>  0.0361  0.0255  0.0255  0.0418  0.0000  0.0000  0.0000  0.0000  0.0000 </r>
        <r>  0.0361  0.0255  0.0255  0.0418  0.0000  0.0000  0.0000  0.0000  0.0000 </r>
       </set>
       <set comment="band 7">
        <r>  0.0325  0.0236  0.0236  0.0446  0.0000  0.0000  0.0000  0.0000  0.0000 </r>
        <r>  0.0325  0.0236  0.0236  0.0446  0.0000  0.0000  0.0000  0.0000  0.0000 </r>
       </set>
       <set comment="band 8">
        <r>  0.0492  0.0521  0.0521  0.0074  0.0000  0.0000  0.0000  0.0000  0.0000 </r>
        <r>  0.0492  0.0521  0.0521  0.0074  0.0000  0.0000  0.0000  0.0000  0.0000 </r>
       </set>
      </set>
      <set comment="kpoint 87">
       <set comment="band 1">
        <r>  0.2098  0.0165  0.0165  0.0007  0.0000  0.0000  0.0000  0.0000  0.0000 </r>
        <r>  0.2098  0.0165  0.0165  0.0007  0.0000  0.0000  0.0000  0.0000  0.0000 </r>
       </set>
       <set comment="band 2">
        <r>  0.1939  0.0241  0.0241  0.0016  0.0000  0.0000  0.0000  0.0000  0.0000 </r>
        <r>  0.1939  0.0241  0.0241  0.0016  0.0000  0.0000  0.0000  0.0000  0.0000 </r>
       </set>
       <set comment="band 3">
        <r>  0.0026  0.0472  0.0472  0.0606  0.0000  0.0000  0.0000  0.0000  0.0000 </r>
        <r>  0.0026  0.0472  0.0472  0.0606  0.0000  0.0000  0.0000  0.0000  0.0000 </r>
       </set>
       <set comment="band 4">
        <r>  0.0007  0.0446  0.0446  0.0769  0.0000  0.0000  0.0000  0.0000  0.0000 </r>
        <r>  0.0007  0.0446  0.0446  0.0769  0.0000  0.0000  0.0000  0.0000  0.0000 </r>
       </set>
       <set comment="band 5">
        <r>  0.0059  0.0062  0.0062  0.0732  0.0000  0.0000  0.0000  0.0000  0.0000 </r>
        <r>  0.0059  0.0062  0.0062  0.0732  0.0000  0.0000  0.0000  0.0000  0.0000 </r>
       </set>
       <set comment="band 6">
        <r>  0.0417  0.0284  0.0284  0.0360  0.0000  0.0000  0.0000  0.0000  0.0000 </r>
        <r>  0.0417  0.0284  0.0284  0.0360  0.0000  0.0000  0.0000  0.0000  0.0000 </r>
       </set>
       <set comment="band 7">
        <r>  0.0284  0.0201  0.0201  0.0504  0.0000  0.0000  0.0000  0.0000  0.0000 </r>
        <r>  0.0284  0.0201  0.0201  0.0504  0.0000  0.0000  0.0000  0.0000  0.0000 </r>
       </set>
       <set comment="band 8">
        <r>  0.0470  0.0521  0.0521  0.0085  0.0000  0.0000  0.0000  0.0000  0.0000 </r>
        <r>  0.0470  0.0521  0.0521  0.0085  0.0000  0.0000  0.0000  0.0000  0.0000 </r>
       </set>
      </set>
      <set comment="kpoint 88">
       <set comment="band 1">
        <r>  0.2105  0.0159  0.0159  0.0008  0.0000  0.0000  0.0000  0.0000  0.0000 </r>
        <r>  0.2105  0.0159  0.0159  0.0008  0.0000  0.0000  0.0000  0.0000  0.0000 </r>
       </set>
       <set comment="band 2">
        <r>  0.1912  0.0246  0.0246  0.0023  0.0000  0.0000  0.0000  0.0000  0.0000 </r>
        <r>  0.1912  0.0246  0.0246  0.0023  0.0000  0.0000  0.0000  0.0000  0.0000 </r>
       </set>
       <set comment="band 3">
        <r>  0.0038  0.0477  0.0477  0.0589  0.0000  0.0000  0.0000  0.0000  0.0000 </r>
        <r>  0.0038  0.0477  0.0477  0.0589  0.0000  0.0000  0.0000  0.0000  0.0000 </r>
       </set>
       <set comment="band 4">
        <r>  0.0008  0.0445  0.0445  0.0784  0.0000  0.0000  0.0000  0.0000  0.0000 </r>
        <r>  0.0008  0.0445  0.0445  0.0784  0.0000  0.0000  0.0000  0.0000  0.0000 </r>
       </set>
       <set comment="band 5">
        <r>  0.0065  0.0072  0.0072  0.0713  0.0000  0.0000  0.0000  0.0000  0.0000 </r>
        <r>  0.0065  0.0072  0.0072  0.0713  0.0000  0.0000  0.0000  0.0000  0.0000 </r>
       </set>
       <set comment="band 6">
        <r>  0.0460  0.0303  0.0303  0.0319  0.0000  0.0000  0.0000  0.0000  0.0000 </r>
        <r>  0.0460  0.0303  0.0303  0.0319  0.0000  0.0000  0.0000  0.0000  0.0000 </r>
       </set>
       <set comment="band 7">
        <r>  0.0256  0.0176  0.0176  0.0544  0.0000  0.0000  0.0000  0.0000  0.0000 </r>
        <r>  0.0256  0.0176  0.0176  0.0544  0.0000  0.0000  0.0000  0.0000  0.0000 </r>
       </set>
       <set comment="band 8">
        <r>  0.0450  0.0523  0.0523  0.0094  0.0000  0.0000  0.0000  0.0000  0.0000 </r>
        <r>  0.0450  0.0523  0.0523  0.0094  0.0000  0.0000  0.0000  0.0000  0.0000 </r>
       </set>
      </set>
      <set comment="kpoint 89">
       <set comment="band 1">
        <r>  0.2113  0.0152  0.0152  0.0010  0.0000  0.0000  0.0000  0.0000  0.0000 </r>
        <r>  0.2113  0.0152  0.0152  0.0010  0.0000  0.0000  0.0000  0.0000  0.0000 </r>
       </set>
       <set comment="band 2">
        <r>  0.1881  0.0251  0.0251  0.0031  0.0000  0.0000  0.0000  0.0000  0.0000 </r>
        <r>  0.1881  0.0251  0.0251  0.0031  0.0000  0.0000  0.0000  0.0000  0.0000 </r>
       </set>
       <set comment="band 3">
        <r>  0.0054  0.0482  0.0482  0.0571  0.0000  0.0000  0.0000  0.0000  0.0000 </r>
        <r>  0.0054  0.0482  0.0482  0.0571  0.0000  0.0000  0.0000  0.0000  0.0000 </r>
       </set>
       <set comment="band 4">
        <r>  0.0009  0.0445  0.0445  0.0800  0.0000  0.0000  0.0000  0.0000  0.0000 </r>
        <r>  0.0009  0.0445  0.0445  0.0800  0.0000  0.0000  0.0000  0.0000  0.0000 </r>
       </set>
       <set comment="band 5">
        <r>  0.0070  0.0081  0.0081  0.0694  0.0000  0.0000  0.0000  0.0000  0.0000 </r>
        <r>  0.0070  0.0081  0.0081  0.0694  0.0000  0.0000  0.0000  0.0000  0.0000 </r>
       </set>
       <set comment="band 6">
        <r>  0.0495  0.0315  0.0315  0.0289  0.0000  0.0000  0.0000  0.0000  0.0000 </r>
        <r>  0.0495  0.0315  0.0315  0.0289  0.0000  0.0000  0.0000  0.0000  0.0000 </r>
       </set>
       <set comment="band 7">
        <r>  0.0235  0.0158  0.0158  0.0572  0.0000  0.0000  0.0000  0.0000  0.0000 </r>
        <r>  0.0235  0.0158  0.0158  0.0572  0.0000  0.0000  0.0000  0.0000  0.0000 </r>
       </set>
       <set comment="band 8">
        <r>  0.0429  0.0525  0.0525  0.0103  0.0000  0.0000  0.0000  0.0000  0.0000 </r>
        <r>  0.0429  0.0526  0.0526  0.0103  0.0000  0.0000  0.0000  0.0000  0.0000 </r>
       </set>
      </set>
      <set comment="kpoint 90">
       <set comment="band 1">
        <r>  0.2120  0.0146  0.0146  0.0012  0.0000  0.0000  0.0000  0.0000  0.0000 </r>
        <r>  0.2120  0.0146  0.0146  0.0012  0.0000  0.0000  0.0000  0.0000  0.0000 </r>
       </set>
       <set comment="band 2">
        <r>  0.1846  0.0256  0.0256  0.0042  0.0000  0.0000  0.0000  0.0000  0.0000 </r>
        <r>  0.1846  0.0256  0.0256  0.0042  0.0000  0.0000  0.0000  0.0000  0.0000 </r>
       </set>
       <set comment="band 3">
        <r>  0.0074  0.0488  0.0488  0.0551  0.0000  0.0000  0.0000  0.0000  0.0000 </r>
        <r>  0.0074  0.0488  0.0488  0.0551  0.0000  0.0000  0.0000  0.0000  0.0000 </r>
       </set>
       <set comment="band 4">
        <r>  0.0010  0.0444  0.0444  0.0816  0.0000  0.0000  0.0000  0.0000  0.0000 </r>
        <r>  0.0010  0.0444  0.0444  0.0816  0.0000  0.0000  0.0000  0.0000  0.0000 </r>
       </set>
       <set comment="band 5">
        <r>  0.0073  0.0089  0.0089  0.0675  0.0000  0.0000  0.0000  0.0000  0.0000 </r>
        <r>  0.0073  0.0089  0.0089  0.0675  0.0000  0.0000  0.0000  0.0000  0.0000 </r>
       </set>
       <set comment="band 6">
        <r>  0.0526  0.0323  0.0323  0.0266  0.0000  0.0000  0.0000  0.0000  0.0000 </r>
        <r>  0.0526  0.0323  0.0323  0.0266  0.0000  0.0000  0.0000  0.0000  0.0000 </r>
       </set>
       <set comment="band 7">
        <r>  0.0221  0.0144  0.0144  0.0594  0.0000  0.0000  0.0000  0.0000  0.0000 </r>
        <r>  0.0221  0.0144  0.0144  0.0594  0.0000  0.0000  0.0000  0.0000  0.0000 </r>
       </set>
       <set comment="band 8">
        <r>  0.0410  0.0528  0.0529  0.0110  0.0000  0.0000  0.0000  0.0000  0.0000 </r>
        <r>  0.0410  0.0529  0.0529  0.0110  0.0000  0.0000  0.0000  0.0000  0.0000 </r>
       </set>
      </set>
      <set comment="kpoint 91">
       <set comment="band 1">
        <r>  0.2127  0.0140  0.0140  0.0014  0.0000  0.0000  0.0000  0.0000  0.0000 </r>
        <r>  0.2127  0.0140  0.0140  0.0014  0.0000  0.0000  0.0000  0.0000  0.0000 </r>
       </set>
       <set comment="band 2">
        <r>  0.1807  0.0261  0.0261  0.0054  0.0000  0.0000  0.0000  0.0000  0.0000 </r>
        <r>  0.1807  0.0261  0.0261  0.0054  0.0000  0.0000  0.0000  0.0000  0.0000 </r>
       </set>
       <set comment="band 3">
        <r>  0.0097  0.0494  0.0494  0.0530  0.0000  0.0000  0.0000  0.0000  0.0000 </r>
        <r>  0.0097  0.0494  0.0494  0.0530  0.0000  0.0000  0.0000  0.0000  0.0000 </r>
       </set>
       <set comment="band 4">
        <r>  0.0011  0.0443  0.0443  0.0834  0.0000  0.0000  0.0000  0.0000  0.0000 </r>
        <r>  0.0011  0.0443  0.0443  0.0834  0.0000  0.0000  0.0000  0.0000  0.0000 </r>
       </set>
       <set comment="band 5">
        <r>  0.0076  0.0098  0.0098  0.0656  0.0000  0.0000  0.0000  0.0000  0.0000 </r>
        <r>  0.0076  0.0098  0.0098  0.0656  0.0000  0.0000  0.0000  0.0000  0.0000 </r>
       </set>
       <set comment="band 6">
        <r>  0.0554  0.0329  0.0329  0.0247  0.0000  0.0000  0.0000  0.0000  0.0000 </r>
        <r>  0.0554  0.0329  0.0329  0.0247  0.0000  0.0000  0.0000  0.0000  0.0000 </r>
       </set>
       <set comment="band 7">
        <r>  0.0209  0.0133  0.0134  0.0611  0.0000  0.0000  0.0000  0.0000  0.0000 </r>
        <r>  0.0209  0.0134  0.0133  0.0611  0.0000  0.0000  0.0000  0.0000  0.0000 </r>
       </set>
       <set comment="band 8">
        <r>  0.0390  0.0533  0.0532  0.0116  0.0000  0.0000  0.0000  0.0000  0.0000 </r>
        <r>  0.0390  0.0533  0.0533  0.0116  0.0000  0.0000  0.0000  0.0000  0.0000 </r>
       </set>
      </set>
      <set comment="kpoint 92">
       <set comment="band 1">
        <r>  0.2133  0.0134  0.0134  0.0016  0.0000  0.0000  0.0000  0.0000  0.0000 </r>
        <r>  0.2133  0.0134  0.0134  0.0016  0.0000  0.0000  0.0000  0.0000  0.0000 </r>
       </set>
       <set comment="band 2">
        <r>  0.1764  0.0265  0.0265  0.0067  0.0000  0.0000  0.0000  0.0000  0.0000 </r>
        <r>  0.1764  0.0265  0.0265  0.0067  0.0000  0.0000  0.0000  0.0000  0.0000 </r>
       </set>
       <set comment="band 3">
        <r>  0.0123  0.0501  0.0501  0.0508  0.0000  0.0000  0.0000  0.0000  0.0000 </r>
        <r>  0.0123  0.0501  0.0501  0.0508  0.0000  0.0000  0.0000  0.0000  0.0000 </r>
       </set>
       <set comment="band 4">
        <r>  0.0011  0.0442  0.0442  0.0852  0.0000  0.0000  0.0000  0.0000  0.0000 </r>
        <r>  0.0011  0.0442  0.0442  0.0852  0.0000  0.0000  0.0000  0.0000  0.0000 </r>
       </set>
       <set comment="band 5">
        <r>  0.0079  0.0107  0.0107  0.0636  0.0000  0.0000  0.0000  0.0000  0.0000 </r>
        <r>  0.0079  0.0107  0.0107  0.0636  0.0000  0.0000  0.0000  0.0000  0.0000 </r>
       </set>
       <set comment="band 6">
        <r>  0.0579  0.0333  0.0333  0.0231  0.0000  0.0000  0.0000  0.0000  0.0000 </r>
        <r>  0.0579  0.0333  0.0333  0.0231  0.0000  0.0000  0.0000  0.0000  0.0000 </r>
       </set>
       <set comment="band 7">
        <r>  0.0201  0.0125  0.0125  0.0625  0.0000  0.0000  0.0000  0.0000  0.0000 </r>
        <r>  0.0201  0.0125  0.0125  0.0625  0.0000  0.0000  0.0000  0.0000  0.0000 </r>
       </set>
       <set comment="band 8">
        <r>  0.0371  0.0537  0.0537  0.0122  0.0000  0.0000  0.0000  0.0000  0.0000 </r>
        <r>  0.0371  0.0537  0.0537  0.0122  0.0000  0.0000  0.0000  0.0000  0.0000 </r>
       </set>
      </set>
      <set comment="kpoint 93">
       <set comment="band 1">
        <r>  0.2140  0.0128  0.0128  0.0018  0.0000  0.0000  0.0000  0.0000  0.0000 </r>
        <r>  0.2140  0.0128  0.0128  0.0018  0.0000  0.0000  0.0000  0.0000  0.0000 </r>
       </set>
       <set comment="band 2">
        <r>  0.1718  0.0269  0.0269  0.0082  0.0000  0.0000  0.0000  0.0000  0.0000 </r>
        <r>  0.1718  0.0269  0.0269  0.0082  0.0000  0.0000  0.0000  0.0000  0.0000 </r>
       </set>
       <set comment="band 3">
        <r>  0.0152  0.0509  0.0509  0.0484  0.0000  0.0000  0.0000  0.0000  0.0000 </r>
        <r>  0.0152  0.0509  0.0509  0.0484  0.0000  0.0000  0.0000  0.0000  0.0000 </r>
       </set>
       <set comment="band 4">
        <r>  0.0011  0.0441  0.0441  0.0872  0.0000  0.0000  0.0000  0.0000  0.0000 </r>
        <r>  0.0011  0.0441  0.0441  0.0872  0.0000  0.0000  0.0000  0.0000  0.0000 </r>
       </set>
       <set comment="band 5">
        <r>  0.0080  0.0116  0.0116  0.0616  0.0000  0.0000  0.0000  0.0000  0.0000 </r>
        <r>  0.0080  0.0116  0.0116  0.0616  0.0000  0.0000  0.0000  0.0000  0.0000 </r>
       </set>
       <set comment="band 6">
        <r>  0.0604  0.0335  0.0335  0.0217  0.0000  0.0000  0.0000  0.0000  0.0000 </r>
        <r>  0.0604  0.0335  0.0335  0.0217  0.0000  0.0000  0.0000  0.0000  0.0000 </r>
       </set>
       <set comment="band 7">
        <r>  0.0195  0.0118  0.0118  0.0637  0.0000  0.0000  0.0000  0.0000  0.0000 </r>
        <r>  0.0195  0.0118  0.0118  0.0637  0.0000  0.0000  0.0000  0.0000  0.0000 </r>
       </set>
       <set comment="band 8">
        <r>  0.0352  0.0542  0.0541  0.0127  0.0000  0.0000  0.0000  0.0000  0.0000 </r>
        <r>  0.0352  0.0543  0.0541  0.0127  0.0000  0.0000  0.0000  0.0000  0.0000 </r>
       </set>
      </set>
      <set comment="kpoint 94">
       <set comment="band 1">
        <r>  0.2146  0.0122  0.0122  0.0020  0.0000  0.0000  0.0000  0.0000  0.0000 </r>
        <r>  0.2146  0.0122  0.0122  0.0020  0.0000  0.0000  0.0000  0.0000  0.0000 </r>
       </set>
       <set comment="band 2">
        <r>  0.1669  0.0273  0.0273  0.0098  0.0000  0.0000  0.0000  0.0000  0.0000 </r>
        <r>  0.1669  0.0273  0.0273  0.0098  0.0000  0.0000  0.0000  0.0000  0.0000 </r>
       </set>
       <set comment="band 3">
        <r>  0.0183  0.0517  0.0517  0.0459  0.0000  0.0000  0.0000  0.0000  0.0000 </r>
        <r>  0.0183  0.0517  0.0517  0.0459  0.0000  0.0000  0.0000  0.0000  0.0000 </r>
       </set>
       <set comment="band 4">
        <r>  0.0012  0.0440  0.0440  0.0892  0.0000  0.0000  0.0000  0.0000  0.0000 </r>
        <r>  0.0012  0.0440  0.0440  0.0892  0.0000  0.0000  0.0000  0.0000  0.0000 </r>
       </set>
       <set comment="band 5">
        <r>  0.0082  0.0125  0.0125  0.0594  0.0000  0.0000  0.0000  0.0000  0.0000 </r>
        <r>  0.0082  0.0125  0.0125  0.0594  0.0000  0.0000  0.0000  0.0000  0.0000 </r>
       </set>
       <set comment="band 6">
        <r>  0.0629  0.0337  0.0337  0.0204  0.0000  0.0000  0.0000  0.0000  0.0000 </r>
        <r>  0.0629  0.0337  0.0337  0.0204  0.0000  0.0000  0.0000  0.0000  0.0000 </r>
       </set>
       <set comment="band 7">
        <r>  0.0191  0.0112  0.0112  0.0650  0.0000  0.0000  0.0000  0.0000  0.0000 </r>
        <r>  0.0191  0.0112  0.0112  0.0650  0.0000  0.0000  0.0000  0.0000  0.0000 </r>
       </set>
       <set comment="band 8">
        <r>  0.0333  0.0547  0.0545  0.0130  0.0000  0.0000  0.0000  0.0000  0.0000 </r>
        <r>  0.0331  0.0547  0.0547  0.0134  0.0000  0.0000  0.0000  0.0000  0.0000 </r>
       </set>
      </set>
      <set comment="kpoint 95">
       <set comment="band 1">
        <r>  0.2152  0.0117  0.0117  0.0022  0.0000  0.0000  0.0000  0.0000  0.0000 </r>
        <r>  0.2152  0.0117  0.0117  0.0022  0.0000  0.0000  0.0000  0.0000  0.0000 </r>
       </set>
       <set comment="band 2">
        <r>  0.1619  0.0277  0.0277  0.0115  0.0000  0.0000  0.0000  0.0000  0.0000 </r>
        <r>  0.1619  0.0277  0.0277  0.0115  0.0000  0.0000  0.0000  0.0000  0.0000 </r>
       </set>
       <set comment="band 3">
        <r>  0.0215  0.0526  0.0526  0.0434  0.0000  0.0000  0.0000  0.0000  0.0000 </r>
        <r>  0.0215  0.0526  0.0526  0.0434  0.0000  0.0000  0.0000  0.0000  0.0000 </r>
       </set>
       <set comment="band 4">
        <r>  0.0011  0.0438  0.0438  0.0913  0.0000  0.0000  0.0000  0.0000  0.0000 </r>
        <r>  0.0011  0.0438  0.0438  0.0913  0.0000  0.0000  0.0000  0.0000  0.0000 </r>
       </set>
       <set comment="band 5">
        <r>  0.0082  0.0135  0.0135  0.0572  0.0000  0.0000  0.0000  0.0000  0.0000 </r>
        <r>  0.0082  0.0135  0.0135  0.0572  0.0000  0.0000  0.0000  0.0000  0.0000 </r>
       </set>
       <set comment="band 6">
        <r>  0.0653  0.0339  0.0339  0.0192  0.0000  0.0000  0.0000  0.0000  0.0000 </r>
        <r>  0.0653  0.0339  0.0339  0.0192  0.0000  0.0000  0.0000  0.0000  0.0000 </r>
       </set>
       <set comment="band 7">
        <r>  0.0190  0.0107  0.0107  0.0668  0.0000  0.0000  0.0000  0.0000  0.0000 </r>
        <r>  0.0190  0.0107  0.0107  0.0667  0.0000  0.0000  0.0000  0.0000  0.0000 </r>
       </set>
       <set comment="band 8">
        <r>  0.0313  0.0553  0.0554  0.0137  0.0000  0.0000  0.0000  0.0000  0.0000 </r>
        <r>  0.0315  0.0551  0.0552  0.0135  0.0000  0.0000  0.0000  0.0000  0.0000 </r>
       </set>
      </set>
      <set comment="kpoint 96">
       <set comment="band 1">
        <r>  0.2158  0.0111  0.0111  0.0023  0.0000  0.0000  0.0000  0.0000  0.0000 </r>
        <r>  0.2158  0.0111  0.0111  0.0023  0.0000  0.0000  0.0000  0.0000  0.0000 </r>
       </set>
       <set comment="band 2">
        <r>  0.1568  0.0280  0.0280  0.0131  0.0000  0.0000  0.0000  0.0000  0.0000 </r>
        <r>  0.1568  0.0280  0.0280  0.0131  0.0000  0.0000  0.0000  0.0000  0.0000 </r>
       </set>
       <set comment="band 3">
        <r>  0.0247  0.0536  0.0536  0.0409  0.0000  0.0000  0.0000  0.0000  0.0000 </r>
        <r>  0.0247  0.0536  0.0536  0.0409  0.0000  0.0000  0.0000  0.0000  0.0000 </r>
       </set>
       <set comment="band 4">
        <r>  0.0011  0.0437  0.0437  0.0936  0.0000  0.0000  0.0000  0.0000  0.0000 </r>
        <r>  0.0011  0.0437  0.0437  0.0936  0.0000  0.0000  0.0000  0.0000  0.0000 </r>
       </set>
       <set comment="band 5">
        <r>  0.0083  0.0145  0.0145  0.0549  0.0000  0.0000  0.0000  0.0000  0.0000 </r>
        <r>  0.0083  0.0145  0.0145  0.0549  0.0000  0.0000  0.0000  0.0000  0.0000 </r>
       </set>
       <set comment="band 6">
        <r>  0.0678  0.0340  0.0340  0.0181  0.0000  0.0000  0.0000  0.0000  0.0000 </r>
        <r>  0.0678  0.0340  0.0340  0.0181  0.0000  0.0000  0.0000  0.0000  0.0000 </r>
       </set>
       <set comment="band 7">
        <r>  0.0195  0.0105  0.0102  0.0695  0.0000  0.0000  0.0000  0.0000  0.0000 </r>
        <r>  0.0195  0.0103  0.0105  0.0697  0.0000  0.0000  0.0000  0.0000  0.0000 </r>
       </set>
       <set comment="band 8">
        <r>  0.0303  0.0553  0.0549  0.0133  0.0000  0.0000  0.0000  0.0000  0.0000 </r>
        <r>  0.0286  0.0567  0.0567  0.0148  0.0000  0.0000  0.0000  0.0000  0.0000 </r>
       </set>
      </set>
      <set comment="kpoint 97">
       <set comment="band 1">
        <r>  0.2164  0.0106  0.0106  0.0025  0.0000  0.0000  0.0000  0.0000  0.0000 </r>
        <r>  0.2164  0.0106  0.0106  0.0025  0.0000  0.0000  0.0000  0.0000  0.0000 </r>
       </set>
       <set comment="band 2">
        <r>  0.1516  0.0283  0.0283  0.0148  0.0000  0.0000  0.0000  0.0000  0.0000 </r>
        <r>  0.1516  0.0283  0.0283  0.0148  0.0000  0.0000  0.0000  0.0000  0.0000 </r>
       </set>
       <set comment="band 3">
        <r>  0.0279  0.0547  0.0547  0.0384  0.0000  0.0000  0.0000  0.0000  0.0000 </r>
        <r>  0.0279  0.0547  0.0547  0.0384  0.0000  0.0000  0.0000  0.0000  0.0000 </r>
       </set>
       <set comment="band 4">
        <r>  0.0011  0.0435  0.0435  0.0959  0.0000  0.0000  0.0000  0.0000  0.0000 </r>
        <r>  0.0011  0.0435  0.0435  0.0959  0.0000  0.0000  0.0000  0.0000  0.0000 </r>
       </set>
       <set comment="band 5">
        <r>  0.0082  0.0155  0.0155  0.0525  0.0000  0.0000  0.0000  0.0000  0.0000 </r>
        <r>  0.0082  0.0155  0.0155  0.0525  0.0000  0.0000  0.0000  0.0000  0.0000 </r>
       </set>
       <set comment="band 6">
        <r>  0.0704  0.0340  0.0340  0.0170  0.0000  0.0000  0.0000  0.0000  0.0000 </r>
        <r>  0.0704  0.0340  0.0340  0.0170  0.0000  0.0000  0.0000  0.0000  0.0000 </r>
       </set>
       <set comment="band 7">
        <r>  0.0241  0.0122  0.0123  0.0842  0.0000  0.0000  0.0000  0.0000  0.0000 </r>
        <r>  0.0252  0.0112  0.0110  0.0825  0.0000  0.0000  0.0000  0.0000  0.0000 </r>
       </set>
       <set comment="band 8">
        <r>  0.0130  0.0450  0.0329  0.0181  0.0000  0.0000  0.0000  0.0000  0.0000 </r>
        <r>  0.0110  0.0467  0.0353  0.0201  0.0000  0.0000  0.0000  0.0000  0.0000 </r>
       </set>
      </set>
      <set comment="kpoint 98">
       <set comment="band 1">
        <r>  0.2170  0.0101  0.0101  0.0027  0.0000  0.0000  0.0000  0.0000  0.0000 </r>
        <r>  0.2170  0.0101  0.0101  0.0027  0.0000  0.0000  0.0000  0.0000  0.0000 </r>
       </set>
       <set comment="band 2">
        <r>  0.1466  0.0286  0.0286  0.0164  0.0000  0.0000  0.0000  0.0000  0.0000 </r>
        <r>  0.1466  0.0286  0.0286  0.0164  0.0000  0.0000  0.0000  0.0000  0.0000 </r>
       </set>
       <set comment="band 3">
        <r>  0.0308  0.0558  0.0558  0.0359  0.0000  0.0000  0.0000  0.0000  0.0000 </r>
        <r>  0.0308  0.0558  0.0558  0.0359  0.0000  0.0000  0.0000  0.0000  0.0000 </r>
       </set>
       <set comment="band 4">
        <r>  0.0010  0.0433  0.0433  0.0984  0.0000  0.0000  0.0000  0.0000  0.0000 </r>
        <r>  0.0010  0.0433  0.0433  0.0984  0.0000  0.0000  0.0000  0.0000  0.0000 </r>
       </set>
       <set comment="band 5">
        <r>  0.0082  0.0167  0.0167  0.0500  0.0000  0.0000  0.0000  0.0000  0.0000 </r>
        <r>  0.0082  0.0167  0.0167  0.0500  0.0000  0.0000  0.0000  0.0000  0.0000 </r>
       </set>
       <set comment="band 6">
        <r>  0.0731  0.0341  0.0341  0.0158  0.0000  0.0000  0.0000  0.0000  0.0000 </r>
        <r>  0.0731  0.0341  0.0341  0.0158  0.0000  0.0000  0.0000  0.0000  0.0000 </r>
       </set>
       <set comment="band 7">
        <r>  0.0286  0.0393  0.0389  0.0628  0.0000  0.0000  0.0000  0.0000  0.0000 </r>
        <r>  0.0280  0.0400  0.0393  0.0635  0.0000  0.0000  0.0000  0.0000  0.0000 </r>
       </set>
       <set comment="band 8">
        <r>  0.0092  0.0088  0.0118  0.0389  0.0000  0.0000  0.0000  0.0000  0.0000 </r>
        <r>  0.0081  0.0097  0.0129  0.0405  0.0000  0.0000  0.0000  0.0000  0.0000 </r>
       </set>
      </set>
      <set comment="kpoint 99">
       <set comment="band 1">
        <r>  0.2175  0.0096  0.0096  0.0028  0.0000  0.0000  0.0000  0.0000  0.0000 </r>
        <r>  0.2175  0.0096  0.0096  0.0028  0.0000  0.0000  0.0000  0.0000  0.0000 </r>
       </set>
       <set comment="band 2">
        <r>  0.1418  0.0288  0.0288  0.0180  0.0000  0.0000  0.0000  0.0000  0.0000 </r>
        <r>  0.1418  0.0288  0.0288  0.0180  0.0000  0.0000  0.0000  0.0000  0.0000 </r>
       </set>
       <set comment="band 3">
        <r>  0.0335  0.0570  0.0570  0.0335  0.0000  0.0000  0.0000  0.0000  0.0000 </r>
        <r>  0.0335  0.0570  0.0570  0.0335  0.0000  0.0000  0.0000  0.0000  0.0000 </r>
       </set>
       <set comment="band 4">
        <r>  0.0009  0.0431  0.0431  0.1009  0.0000  0.0000  0.0000  0.0000  0.0000 </r>
        <r>  0.0009  0.0431  0.0431  0.1009  0.0000  0.0000  0.0000  0.0000  0.0000 </r>
       </set>
       <set comment="band 5">
        <r>  0.0760  0.0341  0.0341  0.0147  0.0000  0.0000  0.0000  0.0000  0.0000 </r>
        <r>  0.0760  0.0341  0.0341  0.0147  0.0000  0.0000  0.0000  0.0000  0.0000 </r>
       </set>
       <set comment="band 6">
        <r>  0.0081  0.0178  0.0178  0.0474  0.0000  0.0000  0.0000  0.0000  0.0000 </r>
        <r>  0.0081  0.0178  0.0178  0.0474  0.0000  0.0000  0.0000  0.0000  0.0000 </r>
       </set>
       <set comment="band 7">
        <r>  0.0240  0.0392  0.0393  0.0501  0.0000  0.0000  0.0000  0.0000  0.0000 </r>
        <r>  0.0242  0.0392  0.0392  0.0499  0.0000  0.0000  0.0000  0.0000  0.0000 </r>
       </set>
       <set comment="band 8">
        <r>  0.0127  0.0094  0.0089  0.0543  0.0000  0.0000  0.0000  0.0000  0.0000 </r>
        <r>  0.0129  0.0093  0.0088  0.0540  0.0000  0.0000  0.0000  0.0000  0.0000 </r>
       </set>
      </set>
      <set comment="kpoint 100">
       <set comment="band 1">
        <r>  0.2181  0.0092  0.0092  0.0030  0.0000  0.0000  0.0000  0.0000  0.0000 </r>
        <r>  0.2181  0.0092  0.0092  0.0030  0.0000  0.0000  0.0000  0.0000  0.0000 </r>
       </set>
       <set comment="band 2">
        <r>  0.1372  0.0291  0.0291  0.0194  0.0000  0.0000  0.0000  0.0000  0.0000 </r>
        <r>  0.1372  0.0291  0.0291  0.0194  0.0000  0.0000  0.0000  0.0000  0.0000 </r>
       </set>
       <set comment="band 3">
        <r>  0.0359  0.0583  0.0583  0.0312  0.0000  0.0000  0.0000  0.0000  0.0000 </r>
        <r>  0.0359  0.0583  0.0583  0.0312  0.0000  0.0000  0.0000  0.0000  0.0000 </r>
       </set>
       <set comment="band 4">
        <r>  0.0009  0.0428  0.0428  0.1035  0.0000  0.0000  0.0000  0.0000  0.0000 </r>
        <r>  0.0009  0.0428  0.0428  0.1035  0.0000  0.0000  0.0000  0.0000  0.0000 </r>
       </set>
       <set comment="band 5">
        <r>  0.0792  0.0342  0.0342  0.0135  0.0000  0.0000  0.0000  0.0000  0.0000 </r>
        <r>  0.0792  0.0342  0.0342  0.0135  0.0000  0.0000  0.0000  0.0000  0.0000 </r>
       </set>
       <set comment="band 6">
        <r>  0.0079  0.0191  0.0191  0.0446  0.0000  0.0000  0.0000  0.0000  0.0000 </r>
        <r>  0.0079  0.0191  0.0191  0.0446  0.0000  0.0000  0.0000  0.0000  0.0000 </r>
       </set>
       <set comment="band 7">
        <r>  0.0233  0.0380  0.0379  0.0480  0.0000  0.0000  0.0000  0.0000  0.0000 </r>
        <r>  0.0233  0.0380  0.0379  0.0480  0.0000  0.0000  0.0000  0.0000  0.0000 </r>
       </set>
       <set comment="band 8">
        <r>  0.0126  0.0098  0.0100  0.0587  0.0000  0.0000  0.0000  0.0000  0.0000 </r>
        <r>  0.0146  0.0076  0.0078  0.0551  0.0000  0.0000  0.0000  0.0000  0.0000 </r>
       </set>
      </set>
      <set comment="kpoint 101">
       <set comment="band 1">
        <r>  0.2186  0.0087  0.0087  0.0031  0.0000  0.0000  0.0000  0.0000  0.0000 </r>
        <r>  0.2186  0.0087  0.0087  0.0031  0.0000  0.0000  0.0000  0.0000  0.0000 </r>
       </set>
       <set comment="band 2">
        <r>  0.1329  0.0293  0.0293  0.0208  0.0000  0.0000  0.0000  0.0000  0.0000 </r>
        <r>  0.1329  0.0293  0.0293  0.0208  0.0000  0.0000  0.0000  0.0000  0.0000 </r>
       </set>
       <set comment="band 3">
        <r>  0.0379  0.0597  0.0597  0.0290  0.0000  0.0000  0.0000  0.0000  0.0000 </r>
        <r>  0.0379  0.0597  0.0597  0.0290  0.0000  0.0000  0.0000  0.0000  0.0000 </r>
       </set>
       <set comment="band 4">
        <r>  0.0008  0.0425  0.0425  0.1062  0.0000  0.0000  0.0000  0.0000  0.0000 </r>
        <r>  0.0008  0.0425  0.0425  0.1062  0.0000  0.0000  0.0000  0.0000  0.0000 </r>
       </set>
       <set comment="band 5">
        <r>  0.0825  0.0342  0.0342  0.0122  0.0000  0.0000  0.0000  0.0000  0.0000 </r>
        <r>  0.0825  0.0342  0.0342  0.0122  0.0000  0.0000  0.0000  0.0000  0.0000 </r>
       </set>
       <set comment="band 6">
        <r>  0.0077  0.0204  0.0204  0.0419  0.0000  0.0000  0.0000  0.0000  0.0000 </r>
        <r>  0.0077  0.0204  0.0204  0.0419  0.0000  0.0000  0.0000  0.0000  0.0000 </r>
       </set>
       <set comment="band 7">
        <r>  0.0229  0.0365  0.0365  0.0479  0.0000  0.0000  0.0000  0.0000  0.0000 </r>
        <r>  0.0229  0.0365  0.0365  0.0479  0.0000  0.0000  0.0000  0.0000  0.0000 </r>
       </set>
       <set comment="band 8">
        <r>  0.0135  0.0094  0.0073  0.0583  0.0000  0.0000  0.0000  0.0000  0.0000 </r>
        <r>  0.0136  0.0092  0.0071  0.0580  0.0000  0.0000  0.0000  0.0000  0.0000 </r>
       </set>
      </set>
      <set comment="kpoint 102">
       <set comment="band 1">
        <r>  0.2191  0.0083  0.0083  0.0032  0.0000  0.0000  0.0000  0.0000  0.0000 </r>
        <r>  0.2191  0.0083  0.0083  0.0032  0.0000  0.0000  0.0000  0.0000  0.0000 </r>
       </set>
       <set comment="band 2">
        <r>  0.1289  0.0295  0.0295  0.0220  0.0000  0.0000  0.0000  0.0000  0.0000 </r>
        <r>  0.1289  0.0295  0.0295  0.0220  0.0000  0.0000  0.0000  0.0000  0.0000 </r>
       </set>
       <set comment="band 3">
        <r>  0.0394  0.0612  0.0612  0.0269  0.0000  0.0000  0.0000  0.0000  0.0000 </r>
        <r>  0.0394  0.0612  0.0612  0.0269  0.0000  0.0000  0.0000  0.0000  0.0000 </r>
       </set>
       <set comment="band 4">
        <r>  0.0007  0.0422  0.0422  0.1090  0.0000  0.0000  0.0000  0.0000  0.0000 </r>
        <r>  0.0007  0.0422  0.0422  0.1090  0.0000  0.0000  0.0000  0.0000  0.0000 </r>
       </set>
       <set comment="band 5">
        <r>  0.0862  0.0343  0.0343  0.0109  0.0000  0.0000  0.0000  0.0000  0.0000 </r>
        <r>  0.0862  0.0343  0.0343  0.0109  0.0000  0.0000  0.0000  0.0000  0.0000 </r>
       </set>
       <set comment="band 6">
        <r>  0.0075  0.0218  0.0218  0.0390  0.0000  0.0000  0.0000  0.0000  0.0000 </r>
        <r>  0.0075  0.0218  0.0218  0.0390  0.0000  0.0000  0.0000  0.0000  0.0000 </r>
       </set>
       <set comment="band 7">
        <r>  0.0224  0.0349  0.0349  0.0485  0.0000  0.0000  0.0000  0.0000  0.0000 </r>
        <r>  0.0224  0.0349  0.0349  0.0485  0.0000  0.0000  0.0000  0.0000  0.0000 </r>
       </set>
       <set comment="band 8">
        <r>  0.0130  0.0115  0.0067  0.0590  0.0000  0.0000  0.0000  0.0000  0.0000 </r>
        <r>  0.0139  0.0101  0.0054  0.0570  0.0000  0.0000  0.0000  0.0000  0.0000 </r>
       </set>
      </set>
      <set comment="kpoint 103">
       <set comment="band 1">
        <r>  0.2195  0.0079  0.0079  0.0034  0.0000  0.0000  0.0000  0.0000  0.0000 </r>
        <r>  0.2195  0.0079  0.0079  0.0034  0.0000  0.0000  0.0000  0.0000  0.0000 </r>
       </set>
       <set comment="band 2">
        <r>  0.1252  0.0296  0.0296  0.0232  0.0000  0.0000  0.0000  0.0000  0.0000 </r>
        <r>  0.1252  0.0296  0.0296  0.0232  0.0000  0.0000  0.0000  0.0000  0.0000 </r>
       </set>
       <set comment="band 3">
        <r>  0.0406  0.0628  0.0628  0.0249  0.0000  0.0000  0.0000  0.0000  0.0000 </r>
        <r>  0.0406  0.0628  0.0628  0.0249  0.0000  0.0000  0.0000  0.0000  0.0000 </r>
       </set>
       <set comment="band 4">
        <r>  0.0006  0.0418  0.0418  0.1118  0.0000  0.0000  0.0000  0.0000  0.0000 </r>
        <r>  0.0006  0.0418  0.0418  0.1118  0.0000  0.0000  0.0000  0.0000  0.0000 </r>
       </set>
       <set comment="band 5">
        <r>  0.0903  0.0343  0.0343  0.0096  0.0000  0.0000  0.0000  0.0000  0.0000 </r>
        <r>  0.0903  0.0343  0.0343  0.0096  0.0000  0.0000  0.0000  0.0000  0.0000 </r>
       </set>
       <set comment="band 6">
        <r>  0.0072  0.0233  0.0233  0.0361  0.0000  0.0000  0.0000  0.0000  0.0000 </r>
        <r>  0.0072  0.0233  0.0233  0.0361  0.0000  0.0000  0.0000  0.0000  0.0000 </r>
       </set>
       <set comment="band 7">
        <r>  0.0217  0.0333  0.0333  0.0496  0.0000  0.0000  0.0000  0.0000  0.0000 </r>
        <r>  0.0216  0.0333  0.0333  0.0497  0.0000  0.0000  0.0000  0.0000  0.0000 </r>
       </set>
       <set comment="band 8">
        <r>  0.0134  0.0091  0.0074  0.0589  0.0000  0.0000  0.0000  0.0000  0.0000 </r>
        <r>  0.0137  0.0086  0.0069  0.0579  0.0000  0.0000  0.0000  0.0000  0.0000 </r>
       </set>
      </set>
      <set comment="kpoint 104">
       <set comment="band 1">
        <r>  0.2200  0.0075  0.0075  0.0035  0.0000  0.0000  0.0000  0.0000  0.0000 </r>
        <r>  0.2200  0.0075  0.0075  0.0035  0.0000  0.0000  0.0000  0.0000  0.0000 </r>
       </set>
       <set comment="band 2">
        <r>  0.1219  0.0298  0.0298  0.0242  0.0000  0.0000  0.0000  0.0000  0.0000 </r>
        <r>  0.1219  0.0298  0.0298  0.0242  0.0000  0.0000  0.0000  0.0000  0.0000 </r>
       </set>
       <set comment="band 3">
        <r>  0.0413  0.0646  0.0646  0.0229  0.0000  0.0000  0.0000  0.0000  0.0000 </r>
        <r>  0.0413  0.0646  0.0646  0.0229  0.0000  0.0000  0.0000  0.0000  0.0000 </r>
       </set>
       <set comment="band 4">
        <r>  0.0005  0.0415  0.0415  0.1146  0.0000  0.0000  0.0000  0.0000  0.0000 </r>
        <r>  0.0005  0.0415  0.0415  0.1146  0.0000  0.0000  0.0000  0.0000  0.0000 </r>
       </set>
       <set comment="band 5">
        <r>  0.0948  0.0343  0.0343  0.0081  0.0000  0.0000  0.0000  0.0000  0.0000 </r>
        <r>  0.0948  0.0343  0.0343  0.0081  0.0000  0.0000  0.0000  0.0000  0.0000 </r>
       </set>
       <set comment="band 6">
        <r>  0.0069  0.0249  0.0249  0.0331  0.0000  0.0000  0.0000  0.0000  0.0000 </r>
        <r>  0.0069  0.0249  0.0249  0.0331  0.0000  0.0000  0.0000  0.0000  0.0000 </r>
       </set>
       <set comment="band 7">
        <r>  0.0206  0.0315  0.0315  0.0510  0.0000  0.0000  0.0000  0.0000  0.0000 </r>
        <r>  0.0206  0.0315  0.0315  0.0510  0.0000  0.0000  0.0000  0.0000  0.0000 </r>
       </set>
       <set comment="band 8">
        <r>  0.0200  0.0053  0.0011  0.0382  0.0000  0.0000  0.0000  0.0000  0.0000 </r>
        <r>  0.0066  0.0229  0.0189  0.0724  0.0000  0.0000  0.0000  0.0000  0.0000 </r>
       </set>
      </set>
      <set comment="kpoint 105">
       <set comment="band 1">
        <r>  0.2204  0.0071  0.0071  0.0036  0.0000  0.0000  0.0000  0.0000  0.0000 </r>
        <r>  0.2204  0.0071  0.0071  0.0036  0.0000  0.0000  0.0000  0.0000  0.0000 </r>
       </set>
       <set comment="band 2">
        <r>  0.1188  0.0299  0.0299  0.0251  0.0000  0.0000  0.0000  0.0000  0.0000 </r>
        <r>  0.1188  0.0299  0.0299  0.0251  0.0000  0.0000  0.0000  0.0000  0.0000 </r>
       </set>
       <set comment="band 3">
        <r>  0.0415  0.0664  0.0664  0.0210  0.0000  0.0000  0.0000  0.0000  0.0000 </r>
        <r>  0.0415  0.0664  0.0664  0.0210  0.0000  0.0000  0.0000  0.0000  0.0000 </r>
       </set>
       <set comment="band 4">
        <r>  0.0004  0.0411  0.0411  0.1174  0.0000  0.0000  0.0000  0.0000  0.0000 </r>
        <r>  0.0004  0.0411  0.0411  0.1174  0.0000  0.0000  0.0000  0.0000  0.0000 </r>
       </set>
       <set comment="band 5">
        <r>  0.0997  0.0343  0.0343  0.0066  0.0000  0.0000  0.0000  0.0000  0.0000 </r>
        <r>  0.0997  0.0343  0.0343  0.0066  0.0000  0.0000  0.0000  0.0000  0.0000 </r>
       </set>
       <set comment="band 6">
        <r>  0.0065  0.0265  0.0265  0.0301  0.0000  0.0000  0.0000  0.0000  0.0000 </r>
        <r>  0.0065  0.0265  0.0265  0.0301  0.0000  0.0000  0.0000  0.0000  0.0000 </r>
       </set>
       <set comment="band 7">
        <r>  0.0193  0.0297  0.0297  0.0527  0.0000  0.0000  0.0000  0.0000  0.0000 </r>
        <r>  0.0193  0.0297  0.0297  0.0527  0.0000  0.0000  0.0000  0.0000  0.0000 </r>
       </set>
       <set comment="band 8">
        <r>  0.0221  0.0201  0.0157  0.0059  0.0000  0.0000  0.0000  0.0000  0.0000 </r>
        <r>  0.0003  0.0523  0.0480  0.0703  0.0000  0.0000  0.0000  0.0000  0.0000 </r>
       </set>
      </set>
      <set comment="kpoint 106">
       <set comment="band 1">
        <r>  0.2208  0.0068  0.0068  0.0037  0.0000  0.0000  0.0000  0.0000  0.0000 </r>
        <r>  0.2208  0.0068  0.0068  0.0037  0.0000  0.0000  0.0000  0.0000  0.0000 </r>
       </set>
       <set comment="band 2">
        <r>  0.1160  0.0300  0.0300  0.0260  0.0000  0.0000  0.0000  0.0000  0.0000 </r>
        <r>  0.1160  0.0300  0.0300  0.0260  0.0000  0.0000  0.0000  0.0000  0.0000 </r>
       </set>
       <set comment="band 3">
        <r>  0.0412  0.0684  0.0684  0.0192  0.0000  0.0000  0.0000  0.0000  0.0000 </r>
        <r>  0.0412  0.0684  0.0684  0.0192  0.0000  0.0000  0.0000  0.0000  0.0000 </r>
       </set>
       <set comment="band 4">
        <r>  0.0004  0.0406  0.0406  0.1202  0.0000  0.0000  0.0000  0.0000  0.0000 </r>
        <r>  0.0004  0.0406  0.0406  0.1202  0.0000  0.0000  0.0000  0.0000  0.0000 </r>
       </set>
       <set comment="band 5">
        <r>  0.1052  0.0341  0.0341  0.0051  0.0000  0.0000  0.0000  0.0000  0.0000 </r>
        <r>  0.1052  0.0341  0.0341  0.0051  0.0000  0.0000  0.0000  0.0000  0.0000 </r>
       </set>
       <set comment="band 6">
        <r>  0.0061  0.0282  0.0282  0.0271  0.0000  0.0000  0.0000  0.0000  0.0000 </r>
        <r>  0.0061  0.0282  0.0282  0.0271  0.0000  0.0000  0.0000  0.0000  0.0000 </r>
       </set>
       <set comment="band 7">
        <r>  0.0175  0.0278  0.0278  0.0544  0.0000  0.0000  0.0000  0.0000  0.0000 </r>
        <r>  0.0175  0.0278  0.0278  0.0544  0.0000  0.0000  0.0000  0.0000  0.0000 </r>
       </set>
       <set comment="band 8">
        <r>  0.0107  0.0531  0.0498  0.0075  0.0000  0.0000  0.0000  0.0000  0.0000 </r>
        <r>  0.0033  0.0646  0.0624  0.0340  0.0000  0.0000  0.0000  0.0000  0.0000 </r>
       </set>
      </set>
      <set comment="kpoint 107">
       <set comment="band 1">
        <r>  0.2212  0.0065  0.0065  0.0038  0.0000  0.0000  0.0000  0.0000  0.0000 </r>
        <r>  0.2212  0.0065  0.0065  0.0038  0.0000  0.0000  0.0000  0.0000  0.0000 </r>
       </set>
       <set comment="band 2">
        <r>  0.1135  0.0301  0.0301  0.0267  0.0000  0.0000  0.0000  0.0000  0.0000 </r>
        <r>  0.1135  0.0301  0.0301  0.0267  0.0000  0.0000  0.0000  0.0000  0.0000 </r>
       </set>
       <set comment="band 3">
        <r>  0.0405  0.0706  0.0706  0.0175  0.0000  0.0000  0.0000  0.0000  0.0000 </r>
        <r>  0.0405  0.0706  0.0706  0.0175  0.0000  0.0000  0.0000  0.0000  0.0000 </r>
       </set>
       <set comment="band 4">
        <r>  0.0003  0.0402  0.0402  0.1229  0.0000  0.0000  0.0000  0.0000  0.0000 </r>
        <r>  0.0003  0.0402  0.0402  0.1229  0.0000  0.0000  0.0000  0.0000  0.0000 </r>
       </set>
       <set comment="band 5">
        <r>  0.1111  0.0338  0.0338  0.0037  0.0000  0.0000  0.0000  0.0000  0.0000 </r>
        <r>  0.1111  0.0338  0.0338  0.0037  0.0000  0.0000  0.0000  0.0000  0.0000 </r>
       </set>
       <set comment="band 6">
        <r>  0.0056  0.0299  0.0299  0.0241  0.0000  0.0000  0.0000  0.0000  0.0000 </r>
        <r>  0.0056  0.0299  0.0299  0.0241  0.0000  0.0000  0.0000  0.0000  0.0000 </r>
       </set>
       <set comment="band 7">
        <r>  0.0155  0.0260  0.0260  0.0563  0.0000  0.0000  0.0000  0.0000  0.0000 </r>
        <r>  0.0155  0.0260  0.0260  0.0563  0.0000  0.0000  0.0000  0.0000  0.0000 </r>
       </set>
       <set comment="band 8">
        <r>  0.0054  0.0574  0.0524  0.0148  0.0000  0.0000  0.0000  0.0000  0.0000 </r>
        <r>  0.0031  0.0621  0.0588  0.0245  0.0000  0.0000  0.0000  0.0000  0.0000 </r>
       </set>
      </set>
      <set comment="kpoint 108">
       <set comment="band 1">
        <r>  0.2215  0.0062  0.0062  0.0039  0.0000  0.0000  0.0000  0.0000  0.0000 </r>
        <r>  0.2215  0.0062  0.0062  0.0039  0.0000  0.0000  0.0000  0.0000  0.0000 </r>
       </set>
       <set comment="band 2">
        <r>  0.1112  0.0302  0.0302  0.0274  0.0000  0.0000  0.0000  0.0000  0.0000 </r>
        <r>  0.1112  0.0302  0.0302  0.0274  0.0000  0.0000  0.0000  0.0000  0.0000 </r>
       </set>
       <set comment="band 3">
        <r>  0.0393  0.0729  0.0729  0.0158  0.0000  0.0000  0.0000  0.0000  0.0000 </r>
        <r>  0.0393  0.0729  0.0729  0.0158  0.0000  0.0000  0.0000  0.0000  0.0000 </r>
       </set>
       <set comment="band 4">
        <r>  0.0002  0.0397  0.0397  0.1256  0.0000  0.0000  0.0000  0.0000  0.0000 </r>
        <r>  0.0002  0.0397  0.0397  0.1256  0.0000  0.0000  0.0000  0.0000  0.0000 </r>
       </set>
       <set comment="band 5">
        <r>  0.1174  0.0333  0.0333  0.0024  0.0000  0.0000  0.0000  0.0000  0.0000 </r>
        <r>  0.1174  0.0333  0.0333  0.0024  0.0000  0.0000  0.0000  0.0000  0.0000 </r>
       </set>
       <set comment="band 6">
        <r>  0.0052  0.0317  0.0317  0.0211  0.0000  0.0000  0.0000  0.0000  0.0000 </r>
        <r>  0.0052  0.0317  0.0317  0.0211  0.0000  0.0000  0.0000  0.0000  0.0000 </r>
       </set>
       <set comment="band 7">
        <r>  0.0132  0.0241  0.0241  0.0581  0.0000  0.0000  0.0000  0.0000  0.0000 </r>
        <r>  0.0132  0.0241  0.0241  0.0581  0.0000  0.0000  0.0000  0.0000  0.0000 </r>
       </set>
       <set comment="band 8">
        <r>  0.0017  0.0557  0.0585  0.0242  0.0000  0.0000  0.0000  0.0000  0.0000 </r>
        <r>  0.0029  0.0520  0.0567  0.0161  0.0000  0.0000  0.0000  0.0000  0.0000 </r>
       </set>
      </set>
      <set comment="kpoint 109">
       <set comment="band 1">
        <r>  0.2219  0.0059  0.0059  0.0040  0.0000  0.0000  0.0000  0.0000  0.0000 </r>
        <r>  0.2219  0.0059  0.0059  0.0040  0.0000  0.0000  0.0000  0.0000  0.0000 </r>
       </set>
       <set comment="band 2">
        <r>  0.1092  0.0303  0.0303  0.0280  0.0000  0.0000  0.0000  0.0000  0.0000 </r>
        <r>  0.1092  0.0303  0.0303  0.0280  0.0000  0.0000  0.0000  0.0000  0.0000 </r>
       </set>
       <set comment="band 3">
        <r>  0.0376  0.0755  0.0755  0.0142  0.0000  0.0000  0.0000  0.0000  0.0000 </r>
        <r>  0.0376  0.0755  0.0755  0.0142  0.0000  0.0000  0.0000  0.0000  0.0000 </r>
       </set>
       <set comment="band 4">
        <r>  0.0002  0.0392  0.0392  0.1282  0.0000  0.0000  0.0000  0.0000  0.0000 </r>
        <r>  0.0002  0.0392  0.0392  0.1282  0.0000  0.0000  0.0000  0.0000  0.0000 </r>
       </set>
       <set comment="band 5">
        <r>  0.1241  0.0325  0.0325  0.0012  0.0000  0.0000  0.0000  0.0000  0.0000 </r>
        <r>  0.1241  0.0325  0.0325  0.0012  0.0000  0.0000  0.0000  0.0000  0.0000 </r>
       </set>
       <set comment="band 6">
        <r>  0.0046  0.0336  0.0336  0.0183  0.0000  0.0000  0.0000  0.0000  0.0000 </r>
        <r>  0.0046  0.0336  0.0336  0.0183  0.0000  0.0000  0.0000  0.0000  0.0000 </r>
       </set>
       <set comment="band 7">
        <r>  0.0108  0.0224  0.0224  0.0598  0.0000  0.0000  0.0000  0.0000  0.0000 </r>
        <r>  0.0108  0.0224  0.0224  0.0598  0.0000  0.0000  0.0000  0.0000  0.0000 </r>
       </set>
       <set comment="band 8">
        <r>  0.0009  0.0523  0.0521  0.0193  0.0000  0.0000  0.0000  0.0000  0.0000 </r>
        <r>  0.0008  0.0525  0.0527  0.0205  0.0000  0.0000  0.0000  0.0000  0.0000 </r>
       </set>
      </set>
      <set comment="kpoint 110">
       <set comment="band 1">
        <r>  0.2222  0.0056  0.0056  0.0041  0.0000  0.0000  0.0000  0.0000  0.0000 </r>
        <r>  0.2222  0.0056  0.0056  0.0041  0.0000  0.0000  0.0000  0.0000  0.0000 </r>
       </set>
       <set comment="band 2">
        <r>  0.1075  0.0304  0.0304  0.0285  0.0000  0.0000  0.0000  0.0000  0.0000 </r>
        <r>  0.1075  0.0304  0.0304  0.0285  0.0000  0.0000  0.0000  0.0000  0.0000 </r>
       </set>
       <set comment="band 3">
        <r>  0.0354  0.0782  0.0782  0.0125  0.0000  0.0000  0.0000  0.0000  0.0000 </r>
        <r>  0.0354  0.0782  0.0782  0.0125  0.0000  0.0000  0.0000  0.0000  0.0000 </r>
       </set>
       <set comment="band 4">
        <r>  0.0001  0.0388  0.0388  0.1307  0.0000  0.0000  0.0000  0.0000  0.0000 </r>
        <r>  0.0001  0.0388  0.0388  0.1307  0.0000  0.0000  0.0000  0.0000  0.0000 </r>
       </set>
       <set comment="band 5">
        <r>  0.1310  0.0314  0.0314  0.0004  0.0000  0.0000  0.0000  0.0000  0.0000 </r>
        <r>  0.1310  0.0314  0.0314  0.0004  0.0000  0.0000  0.0000  0.0000  0.0000 </r>
       </set>
       <set comment="band 6">
        <r>  0.0041  0.0354  0.0354  0.0155  0.0000  0.0000  0.0000  0.0000  0.0000 </r>
        <r>  0.0041  0.0354  0.0354  0.0155  0.0000  0.0000  0.0000  0.0000  0.0000 </r>
       </set>
       <set comment="band 7">
        <r>  0.0083  0.0208  0.0208  0.0613  0.0000  0.0000  0.0000  0.0000  0.0000 </r>
        <r>  0.0083  0.0208  0.0208  0.0613  0.0000  0.0000  0.0000  0.0000  0.0000 </r>
       </set>
       <set comment="band 8">
        <r>  0.0001  0.0481  0.0479  0.0201  0.0000  0.0000  0.0000  0.0000  0.0000 </r>
        <r>  0.0001  0.0478  0.0478  0.0197  0.0000  0.0000  0.0000  0.0000  0.0000 </r>
       </set>
      </set>
      <set comment="kpoint 111">
       <set comment="band 1">
        <r>  0.2224  0.0054  0.0054  0.0041  0.0000  0.0000  0.0000  0.0000  0.0000 </r>
        <r>  0.2224  0.0054  0.0054  0.0041  0.0000  0.0000  0.0000  0.0000  0.0000 </r>
       </set>
       <set comment="band 2">
        <r>  0.1059  0.0304  0.0304  0.0289  0.0000  0.0000  0.0000  0.0000  0.0000 </r>
        <r>  0.1059  0.0304  0.0304  0.0289  0.0000  0.0000  0.0000  0.0000  0.0000 </r>
       </set>
       <set comment="band 3">
        <r>  0.0327  0.0812  0.0812  0.0109  0.0000  0.0000  0.0000  0.0000  0.0000 </r>
        <r>  0.0327  0.0812  0.0812  0.0109  0.0000  0.0000  0.0000  0.0000  0.0000 </r>
       </set>
       <set comment="band 4">
        <r>  0.0001  0.0383  0.0383  0.1330  0.0000  0.0000  0.0000  0.0000  0.0000 </r>
        <r>  0.0001  0.0383  0.0383  0.1330  0.0000  0.0000  0.0000  0.0000  0.0000 </r>
       </set>
       <set comment="band 5">
        <r>  0.1380  0.0298  0.0298  0.0000  0.0000  0.0000  0.0000  0.0000  0.0000 </r>
        <r>  0.1380  0.0298  0.0298  0.0000  0.0000  0.0000  0.0000  0.0000  0.0000 </r>
       </set>
       <set comment="band 6">
        <r>  0.0035  0.0372  0.0372  0.0129  0.0000  0.0000  0.0000  0.0000  0.0000 </r>
        <r>  0.0035  0.0372  0.0372  0.0129  0.0000  0.0000  0.0000  0.0000  0.0000 </r>
       </set>
       <set comment="band 7">
        <r>  0.0061  0.0195  0.0195  0.0626  0.0000  0.0000  0.0000  0.0000  0.0000 </r>
        <r>  0.0061  0.0195  0.0195  0.0626  0.0000  0.0000  0.0000  0.0000  0.0000 </r>
       </set>
       <set comment="band 8">
        <r>  0.0000  0.0428  0.0428  0.0195  0.0000  0.0000  0.0000  0.0000  0.0000 </r>
        <r>  0.0000  0.0429  0.0429  0.0196  0.0000  0.0000  0.0000  0.0000  0.0000 </r>
       </set>
      </set>
      <set comment="kpoint 112">
       <set comment="band 1">
        <r>  0.2227  0.0052  0.0052  0.0042  0.0000  0.0000  0.0000  0.0000  0.0000 </r>
        <r>  0.2227  0.0052  0.0052  0.0042  0.0000  0.0000  0.0000  0.0000  0.0000 </r>
       </set>
       <set comment="band 2">
        <r>  0.1045  0.0305  0.0305  0.0293  0.0000  0.0000  0.0000  0.0000  0.0000 </r>
        <r>  0.1045  0.0305  0.0305  0.0293  0.0000  0.0000  0.0000  0.0000  0.0000 </r>
       </set>
       <set comment="band 3">
        <r>  0.0294  0.0844  0.0844  0.0093  0.0000  0.0000  0.0000  0.0000  0.0000 </r>
        <r>  0.0294  0.0844  0.0844  0.0093  0.0000  0.0000  0.0000  0.0000  0.0000 </r>
       </set>
       <set comment="band 4">
        <r>  0.0001  0.0379  0.0379  0.1351  0.0000  0.0000  0.0000  0.0000  0.0000 </r>
        <r>  0.0001  0.0379  0.0379  0.1351  0.0000  0.0000  0.0000  0.0000  0.0000 </r>
       </set>
       <set comment="band 5">
        <r>  0.1450  0.0277  0.0277  0.0001  0.0000  0.0000  0.0000  0.0000  0.0000 </r>
        <r>  0.1450  0.0277  0.0277  0.0001  0.0000  0.0000  0.0000  0.0000  0.0000 </r>
       </set>
       <set comment="band 6">
        <r>  0.0029  0.0390  0.0390  0.0104  0.0000  0.0000  0.0000  0.0000  0.0000 </r>
        <r>  0.0029  0.0390  0.0390  0.0104  0.0000  0.0000  0.0000  0.0000  0.0000 </r>
       </set>
       <set comment="band 7">
        <r>  0.0041  0.0183  0.0183  0.0634  0.0000  0.0000  0.0000  0.0000  0.0000 </r>
        <r>  0.0041  0.0183  0.0183  0.0634  0.0000  0.0000  0.0000  0.0000  0.0000 </r>
       </set>
       <set comment="band 8">
        <r>  0.0005  0.0379  0.0380  0.0194  0.0000  0.0000  0.0000  0.0000  0.0000 </r>
        <r>  0.0005  0.0379  0.0379  0.0191  0.0000  0.0000  0.0000  0.0000  0.0000 </r>
       </set>
      </set>
      <set comment="kpoint 113">
       <set comment="band 1">
        <r>  0.2229  0.0050  0.0050  0.0042  0.0000  0.0000  0.0000  0.0000  0.0000 </r>
        <r>  0.2229  0.0050  0.0050  0.0042  0.0000  0.0000  0.0000  0.0000  0.0000 </r>
       </set>
       <set comment="band 2">
        <r>  0.1034  0.0305  0.0305  0.0297  0.0000  0.0000  0.0000  0.0000  0.0000 </r>
        <r>  0.1034  0.0305  0.0305  0.0297  0.0000  0.0000  0.0000  0.0000  0.0000 </r>
       </set>
       <set comment="band 3">
        <r>  0.0256  0.0878  0.0878  0.0077  0.0000  0.0000  0.0000  0.0000  0.0000 </r>
        <r>  0.0256  0.0878  0.0878  0.0077  0.0000  0.0000  0.0000  0.0000  0.0000 </r>
       </set>
       <set comment="band 4">
        <r>  0.0000  0.0374  0.0374  0.1370  0.0000  0.0000  0.0000  0.0000  0.0000 </r>
        <r>  0.0000  0.0374  0.0374  0.1370  0.0000  0.0000  0.0000  0.0000  0.0000 </r>
       </set>
       <set comment="band 5">
        <r>  0.1519  0.0252  0.0252  0.0005  0.0000  0.0000  0.0000  0.0000  0.0000 </r>
        <r>  0.1519  0.0252  0.0252  0.0005  0.0000  0.0000  0.0000  0.0000  0.0000 </r>
       </set>
       <set comment="band 6">
        <r>  0.0024  0.0407  0.0407  0.0081  0.0000  0.0000  0.0000  0.0000  0.0000 </r>
        <r>  0.0024  0.0407  0.0407  0.0081  0.0000  0.0000  0.0000  0.0000  0.0000 </r>
       </set>
       <set comment="band 7">
        <r>  0.0026  0.0175  0.0175  0.0640  0.0000  0.0000  0.0000  0.0000  0.0000 </r>
        <r>  0.0026  0.0175  0.0175  0.0640  0.0000  0.0000  0.0000  0.0000  0.0000 </r>
       </set>
       <set comment="band 8">
        <r>  0.0012  0.0333  0.0333  0.0189  0.0000  0.0000  0.0000  0.0000  0.0000 </r>
        <r>  0.0012  0.0333  0.0332  0.0189  0.0000  0.0000  0.0000  0.0000  0.0000 </r>
       </set>
      </set>
      <set comment="kpoint 114">
       <set comment="band 1">
        <r>  0.2231  0.0049  0.0049  0.0043  0.0000  0.0000  0.0000  0.0000  0.0000 </r>
        <r>  0.2231  0.0049  0.0049  0.0043  0.0000  0.0000  0.0000  0.0000  0.0000 </r>
       </set>
       <set comment="band 2">
        <r>  0.1024  0.0306  0.0306  0.0299  0.0000  0.0000  0.0000  0.0000  0.0000 </r>
        <r>  0.1024  0.0306  0.0306  0.0299  0.0000  0.0000  0.0000  0.0000  0.0000 </r>
       </set>
       <set comment="band 3">
        <r>  0.0213  0.0914  0.0914  0.0061  0.0000  0.0000  0.0000  0.0000  0.0000 </r>
        <r>  0.0213  0.0914  0.0914  0.0061  0.0000  0.0000  0.0000  0.0000  0.0000 </r>
       </set>
       <set comment="band 4">
        <r>  0.0000  0.0371  0.0371  0.1387  0.0000  0.0000  0.0000  0.0000  0.0000 </r>
        <r>  0.0000  0.0371  0.0371  0.1387  0.0000  0.0000  0.0000  0.0000  0.0000 </r>
       </set>
       <set comment="band 5">
        <r>  0.1586  0.0222  0.0222  0.0014  0.0000  0.0000  0.0000  0.0000  0.0000 </r>
        <r>  0.1586  0.0222  0.0222  0.0014  0.0000  0.0000  0.0000  0.0000  0.0000 </r>
       </set>
       <set comment="band 6">
        <r>  0.0018  0.0424  0.0424  0.0061  0.0000  0.0000  0.0000  0.0000  0.0000 </r>
        <r>  0.0018  0.0424  0.0424  0.0061  0.0000  0.0000  0.0000  0.0000  0.0000 </r>
       </set>
       <set comment="band 7">
        <r>  0.0014  0.0169  0.0169  0.0642  0.0000  0.0000  0.0000  0.0000  0.0000 </r>
        <r>  0.0014  0.0169  0.0169  0.0642  0.0000  0.0000  0.0000  0.0000  0.0000 </r>
       </set>
       <set comment="band 8">
        <r>  0.0021  0.0292  0.0292  0.0186  0.0000  0.0000  0.0000  0.0000  0.0000 </r>
        <r>  0.0021  0.0292  0.0292  0.0186  0.0000  0.0000  0.0000  0.0000  0.0000 </r>
       </set>
      </set>
      <set comment="kpoint 115">
       <set comment="band 1">
        <r>  0.2233  0.0047  0.0047  0.0043  0.0000  0.0000  0.0000  0.0000  0.0000 </r>
        <r>  0.2233  0.0047  0.0047  0.0043  0.0000  0.0000  0.0000  0.0000  0.0000 </r>
       </set>
       <set comment="band 2">
        <r>  0.1016  0.0306  0.0306  0.0302  0.0000  0.0000  0.0000  0.0000  0.0000 </r>
        <r>  0.1016  0.0306  0.0306  0.0302  0.0000  0.0000  0.0000  0.0000  0.0000 </r>
       </set>
       <set comment="band 3">
        <r>  0.0167  0.0951  0.0951  0.0046  0.0000  0.0000  0.0000  0.0000  0.0000 </r>
        <r>  0.0167  0.0951  0.0951  0.0046  0.0000  0.0000  0.0000  0.0000  0.0000 </r>
       </set>
       <set comment="band 4">
        <r>  0.0000  0.0367  0.0367  0.1402  0.0000  0.0000  0.0000  0.0000  0.0000 </r>
        <r>  0.0000  0.0367  0.0367  0.1402  0.0000  0.0000  0.0000  0.0000  0.0000 </r>
       </set>
       <set comment="band 5">
        <r>  0.1650  0.0189  0.0189  0.0025  0.0000  0.0000  0.0000  0.0000  0.0000 </r>
        <r>  0.1650  0.0189  0.0189  0.0025  0.0000  0.0000  0.0000  0.0000  0.0000 </r>
       </set>
       <set comment="band 6">
        <r>  0.0013  0.0438  0.0438  0.0043  0.0000  0.0000  0.0000  0.0000  0.0000 </r>
        <r>  0.0013  0.0438  0.0438  0.0043  0.0000  0.0000  0.0000  0.0000  0.0000 </r>
       </set>
       <set comment="band 7">
        <r>  0.0007  0.0164  0.0164  0.0642  0.0000  0.0000  0.0000  0.0000  0.0000 </r>
        <r>  0.0007  0.0164  0.0164  0.0642  0.0000  0.0000  0.0000  0.0000  0.0000 </r>
       </set>
       <set comment="band 8">
        <r>  0.0030  0.0258  0.0258  0.0184  0.0000  0.0000  0.0000  0.0000  0.0000 </r>
        <r>  0.0030  0.0258  0.0258  0.0184  0.0000  0.0000  0.0000  0.0000  0.0000 </r>
       </set>
      </set>
      <set comment="kpoint 116">
       <set comment="band 1">
        <r>  0.2234  0.0046  0.0046  0.0044  0.0000  0.0000  0.0000  0.0000  0.0000 </r>
        <r>  0.2234  0.0046  0.0046  0.0044  0.0000  0.0000  0.0000  0.0000  0.0000 </r>
       </set>
       <set comment="band 2">
        <r>  0.1009  0.0306  0.0306  0.0304  0.0000  0.0000  0.0000  0.0000  0.0000 </r>
        <r>  0.1009  0.0306  0.0306  0.0304  0.0000  0.0000  0.0000  0.0000  0.0000 </r>
       </set>
       <set comment="band 3">
        <r>  0.0120  0.0988  0.0988  0.0032  0.0000  0.0000  0.0000  0.0000  0.0000 </r>
        <r>  0.0120  0.0988  0.0988  0.0032  0.0000  0.0000  0.0000  0.0000  0.0000 </r>
       </set>
       <set comment="band 4">
        <r>  0.0000  0.0364  0.0364  0.1414  0.0000  0.0000  0.0000  0.0000  0.0000 </r>
        <r>  0.0000  0.0364  0.0364  0.1414  0.0000  0.0000  0.0000  0.0000  0.0000 </r>
       </set>
       <set comment="band 5">
        <r>  0.1710  0.0155  0.0155  0.0038  0.0000  0.0000  0.0000  0.0000  0.0000 </r>
        <r>  0.1710  0.0155  0.0155  0.0038  0.0000  0.0000  0.0000  0.0000  0.0000 </r>
       </set>
       <set comment="band 6">
        <r>  0.0009  0.0451  0.0451  0.0028  0.0000  0.0000  0.0000  0.0000  0.0000 </r>
        <r>  0.0009  0.0451  0.0451  0.0028  0.0000  0.0000  0.0000  0.0000  0.0000 </r>
       </set>
       <set comment="band 7">
        <r>  0.0003  0.0162  0.0162  0.0640  0.0000  0.0000  0.0000  0.0000  0.0000 </r>
        <r>  0.0003  0.0162  0.0162  0.0640  0.0000  0.0000  0.0000  0.0000  0.0000 </r>
       </set>
       <set comment="band 8">
        <r>  0.0038  0.0230  0.0230  0.0183  0.0000  0.0000  0.0000  0.0000  0.0000 </r>
        <r>  0.0038  0.0230  0.0230  0.0183  0.0000  0.0000  0.0000  0.0000  0.0000 </r>
       </set>
      </set>
      <set comment="kpoint 117">
       <set comment="band 1">
        <r>  0.2235  0.0045  0.0045  0.0044  0.0000  0.0000  0.0000  0.0000  0.0000 </r>
        <r>  0.2235  0.0045  0.0045  0.0044  0.0000  0.0000  0.0000  0.0000  0.0000 </r>
       </set>
       <set comment="band 2">
        <r>  0.1004  0.0307  0.0307  0.0305  0.0000  0.0000  0.0000  0.0000  0.0000 </r>
        <r>  0.1004  0.0307  0.0307  0.0305  0.0000  0.0000  0.0000  0.0000  0.0000 </r>
       </set>
       <set comment="band 3">
        <r>  0.0074  0.1022  0.1022  0.0019  0.0000  0.0000  0.0000  0.0000  0.0000 </r>
        <r>  0.0074  0.1022  0.1022  0.0019  0.0000  0.0000  0.0000  0.0000  0.0000 </r>
       </set>
       <set comment="band 4">
        <r>  0.0000  0.0362  0.0362  0.1423  0.0000  0.0000  0.0000  0.0000  0.0000 </r>
        <r>  0.0000  0.0362  0.0362  0.1423  0.0000  0.0000  0.0000  0.0000  0.0000 </r>
       </set>
       <set comment="band 5">
        <r>  0.1765  0.0122  0.0122  0.0050  0.0000  0.0000  0.0000  0.0000  0.0000 </r>
        <r>  0.1765  0.0122  0.0122  0.0050  0.0000  0.0000  0.0000  0.0000  0.0000 </r>
       </set>
       <set comment="band 6">
        <r>  0.0005  0.0461  0.0461  0.0016  0.0000  0.0000  0.0000  0.0000  0.0000 </r>
        <r>  0.0005  0.0461  0.0461  0.0016  0.0000  0.0000  0.0000  0.0000  0.0000 </r>
       </set>
       <set comment="band 7">
        <r>  0.0001  0.0160  0.0160  0.0638  0.0000  0.0000  0.0000  0.0000  0.0000 </r>
        <r>  0.0001  0.0160  0.0160  0.0638  0.0000  0.0000  0.0000  0.0000  0.0000 </r>
       </set>
       <set comment="band 8">
        <r>  0.0045  0.0209  0.0209  0.0182  0.0000  0.0000  0.0000  0.0000  0.0000 </r>
        <r>  0.0045  0.0209  0.0209  0.0182  0.0000  0.0000  0.0000  0.0000  0.0000 </r>
       </set>
      </set>
      <set comment="kpoint 118">
       <set comment="band 1">
        <r>  0.2236  0.0045  0.0045  0.0044  0.0000  0.0000  0.0000  0.0000  0.0000 </r>
        <r>  0.2236  0.0045  0.0045  0.0044  0.0000  0.0000  0.0000  0.0000  0.0000 </r>
       </set>
       <set comment="band 2">
        <r>  0.1000  0.0307  0.0307  0.0306  0.0000  0.0000  0.0000  0.0000  0.0000 </r>
        <r>  0.1000  0.0307  0.0307  0.0306  0.0000  0.0000  0.0000  0.0000  0.0000 </r>
       </set>
       <set comment="band 3">
        <r>  0.0035  0.1051  0.1051  0.0009  0.0000  0.0000  0.0000  0.0000  0.0000 </r>
        <r>  0.0035  0.1051  0.1051  0.0009  0.0000  0.0000  0.0000  0.0000  0.0000 </r>
       </set>
       <set comment="band 4">
        <r>  0.0000  0.0360  0.0360  0.1430  0.0000  0.0000  0.0000  0.0000  0.0000 </r>
        <r>  0.0000  0.0360  0.0360  0.1430  0.0000  0.0000  0.0000  0.0000  0.0000 </r>
       </set>
       <set comment="band 5">
        <r>  0.1809  0.0095  0.0095  0.0060  0.0000  0.0000  0.0000  0.0000  0.0000 </r>
        <r>  0.1809  0.0095  0.0095  0.0060  0.0000  0.0000  0.0000  0.0000  0.0000 </r>
       </set>
       <set comment="band 6">
        <r>  0.0002  0.0469  0.0469  0.0007  0.0000  0.0000  0.0000  0.0000  0.0000 </r>
        <r>  0.0002  0.0469  0.0469  0.0007  0.0000  0.0000  0.0000  0.0000  0.0000 </r>
       </set>
       <set comment="band 7">
        <r>  0.0000  0.0159  0.0159  0.0636  0.0000  0.0000  0.0000  0.0000  0.0000 </r>
        <r>  0.0000  0.0159  0.0159  0.0636  0.0000  0.0000  0.0000  0.0000  0.0000 </r>
       </set>
       <set comment="band 8">
        <r>  0.0050  0.0194  0.0194  0.0182  0.0000  0.0000  0.0000  0.0000  0.0000 </r>
        <r>  0.0050  0.0194  0.0194  0.0182  0.0000  0.0000  0.0000  0.0000  0.0000 </r>
       </set>
      </set>
      <set comment="kpoint 119">
       <set comment="band 1">
        <r>  0.2236  0.0044  0.0044  0.0044  0.0000  0.0000  0.0000  0.0000  0.0000 </r>
        <r>  0.2236  0.0044  0.0044  0.0044  0.0000  0.0000  0.0000  0.0000  0.0000 </r>
       </set>
       <set comment="band 2">
        <r>  0.0998  0.0307  0.0307  0.0307  0.0000  0.0000  0.0000  0.0000  0.0000 </r>
        <r>  0.0998  0.0307  0.0307  0.0307  0.0000  0.0000  0.0000  0.0000  0.0000 </r>
       </set>
       <set comment="band 3">
        <r>  0.0009  0.1070  0.1070  0.0002  0.0000  0.0000  0.0000  0.0000  0.0000 </r>
        <r>  0.0009  0.1070  0.1070  0.0002  0.0000  0.0000  0.0000  0.0000  0.0000 </r>
       </set>
       <set comment="band 4">
        <r>  0.0000  0.0359  0.0359  0.1434  0.0000  0.0000  0.0000  0.0000  0.0000 </r>
        <r>  0.0000  0.0359  0.0359  0.1434  0.0000  0.0000  0.0000  0.0000  0.0000 </r>
       </set>
       <set comment="band 5">
        <r>  0.1838  0.0076  0.0076  0.0067  0.0000  0.0000  0.0000  0.0000  0.0000 </r>
        <r>  0.1838  0.0076  0.0076  0.0067  0.0000  0.0000  0.0000  0.0000  0.0000 </r>
       </set>
       <set comment="band 6">
        <r>  0.0001  0.0474  0.0474  0.0002  0.0000  0.0000  0.0000  0.0000  0.0000 </r>
        <r>  0.0001  0.0474  0.0474  0.0002  0.0000  0.0000  0.0000  0.0000  0.0000 </r>
       </set>
       <set comment="band 7">
        <r>  0.0000  0.0159  0.0159  0.0635  0.0000  0.0000  0.0000  0.0000  0.0000 </r>
        <r>  0.0000  0.0159  0.0159  0.0635  0.0000  0.0000  0.0000  0.0000  0.0000 </r>
       </set>
       <set comment="band 8">
        <r>  0.0053  0.0184  0.0184  0.0181  0.0000  0.0000  0.0000  0.0000  0.0000 </r>
        <r>  0.0053  0.0184  0.0184  0.0181  0.0000  0.0000  0.0000  0.0000  0.0000 </r>
       </set>
      </set>
      <set comment="kpoint 120">
       <set comment="band 1">
        <r>  0.2236  0.0044  0.0044  0.0044  0.0000  0.0000  0.0000  0.0000  0.0000 </r>
        <r>  0.2236  0.0044  0.0044  0.0044  0.0000  0.0000  0.0000  0.0000  0.0000 </r>
       </set>
       <set comment="band 2">
        <r>  0.0998  0.0307  0.0307  0.0307  0.0000  0.0000  0.0000  0.0000  0.0000 </r>
        <r>  0.0998  0.0307  0.0307  0.0307  0.0000  0.0000  0.0000  0.0000  0.0000 </r>
       </set>
       <set comment="band 3">
        <r>  0.0000  0.0282  0.1411  0.0460  0.0000  0.0000  0.0000  0.0000  0.0000 </r>
        <r>  0.0000  0.0282  0.1411  0.0460  0.0000  0.0000  0.0000  0.0000  0.0000 </r>
       </set>
       <set comment="band 4">
        <r>  0.0000  0.1154  0.0025  0.0975  0.0000  0.0000  0.0000  0.0000  0.0000 </r>
        <r>  0.0000  0.1154  0.0025  0.0975  0.0000  0.0000  0.0000  0.0000  0.0000 </r>
       </set>
       <set comment="band 5">
        <r>  0.1848  0.0069  0.0069  0.0069  0.0000  0.0000  0.0000  0.0000  0.0000 </r>
        <r>  0.1848  0.0069  0.0069  0.0069  0.0000  0.0000  0.0000  0.0000  0.0000 </r>
       </set>
       <set comment="band 6">
        <r>  0.0000  0.0231  0.0282  0.0439  0.0000  0.0000  0.0000  0.0000  0.0000 </r>
        <r>  0.0000  0.0231  0.0282  0.0439  0.0000  0.0000  0.0000  0.0000  0.0000 </r>
       </set>
       <set comment="band 7">
        <r>  0.0000  0.0403  0.0352  0.0196  0.0000  0.0000  0.0000  0.0000  0.0000 </r>
        <r>  0.0000  0.0403  0.0352  0.0196  0.0000  0.0000  0.0000  0.0000  0.0000 </r>
       </set>
       <set comment="band 8">
        <r>  0.0054  0.0181  0.0181  0.0181  0.0000  0.0000  0.0000  0.0000  0.0000 </r>
        <r>  0.0054  0.0181  0.0181  0.0181  0.0000  0.0000  0.0000  0.0000  0.0000 </r>
       </set>
      </set>
      <set comment="kpoint 121">
       <set comment="band 1">
        <r>  0.2236  0.0044  0.0044  0.0044  0.0000  0.0000  0.0000  0.0000  0.0000 </r>
        <r>  0.2236  0.0044  0.0044  0.0044  0.0000  0.0000  0.0000  0.0000  0.0000 </r>
       </set>
       <set comment="band 2">
        <r>  0.0998  0.0307  0.0307  0.0307  0.0000  0.0000  0.0000  0.0000  0.0000 </r>
        <r>  0.0998  0.0307  0.0307  0.0307  0.0000  0.0000  0.0000  0.0000  0.0000 </r>
       </set>
       <set comment="band 3">
        <r>  0.0000  0.0568  0.1389  0.0197  0.0000  0.0000  0.0000  0.0000  0.0000 </r>
        <r>  0.0000  0.0568  0.1389  0.0197  0.0000  0.0000  0.0000  0.0000  0.0000 </r>
       </set>
       <set comment="band 4">
        <r>  0.0000  0.0867  0.0047  0.1239  0.0000  0.0000  0.0000  0.0000  0.0000 </r>
        <r>  0.0000  0.0867  0.0047  0.1239  0.0000  0.0000  0.0000  0.0000  0.0000 </r>
       </set>
       <set comment="band 5">
        <r>  0.1848  0.0069  0.0069  0.0069  0.0000  0.0000  0.0000  0.0000  0.0000 </r>
        <r>  0.1848  0.0069  0.0069  0.0069  0.0000  0.0000  0.0000  0.0000  0.0000 </r>
       </set>
       <set comment="band 6">
        <r>  0.0000  0.0329  0.0501  0.0121  0.0000  0.0000  0.0000  0.0000  0.0000 </r>
        <r>  0.0000  0.0329  0.0501  0.0121  0.0000  0.0000  0.0000  0.0000  0.0000 </r>
       </set>
       <set comment="band 7">
        <r>  0.0000  0.0305  0.0133  0.0514  0.0000  0.0000  0.0000  0.0000  0.0000 </r>
        <r>  0.0000  0.0305  0.0133  0.0514  0.0000  0.0000  0.0000  0.0000  0.0000 </r>
       </set>
       <set comment="band 8">
        <r>  0.0054  0.0181  0.0181  0.0181  0.0000  0.0000  0.0000  0.0000  0.0000 </r>
        <r>  0.0054  0.0181  0.0181  0.0181  0.0000  0.0000  0.0000  0.0000  0.0000 </r>
       </set>
      </set>
      <set comment="kpoint 122">
       <set comment="band 1">
        <r>  0.2233  0.0044  0.0044  0.0044  0.0000  0.0000  0.0000  0.0000  0.0000 </r>
        <r>  0.2233  0.0044  0.0044  0.0044  0.0000  0.0000  0.0000  0.0000  0.0000 </r>
       </set>
       <set comment="band 2">
        <r>  0.1000  0.0307  0.0307  0.0307  0.0000  0.0000  0.0000  0.0000  0.0000 </r>
        <r>  0.1000  0.0307  0.0307  0.0307  0.0000  0.0000  0.0000  0.0000  0.0000 </r>
       </set>
       <set comment="band 3">
        <r>  0.0000  0.0513  0.1354  0.0286  0.0000  0.0000  0.0000  0.0000  0.0000 </r>
        <r>  0.0000  0.0513  0.1354  0.0286  0.0000  0.0000  0.0000  0.0000  0.0000 </r>
       </set>
       <set comment="band 4">
        <r>  0.0000  0.0923  0.0082  0.1149  0.0000  0.0000  0.0000  0.0000  0.0000 </r>
        <r>  0.0000  0.0923  0.0082  0.1149  0.0000  0.0000  0.0000  0.0000  0.0000 </r>
       </set>
       <set comment="band 5">
        <r>  0.1847  0.0070  0.0070  0.0070  0.0000  0.0000  0.0000  0.0000  0.0000 </r>
        <r>  0.1847  0.0070  0.0070  0.0070  0.0000  0.0000  0.0000  0.0000  0.0000 </r>
       </set>
       <set comment="band 6">
        <r>  0.0000  0.0297  0.0599  0.0056  0.0000  0.0000  0.0000  0.0000  0.0000 </r>
        <r>  0.0000  0.0297  0.0599  0.0056  0.0000  0.0000  0.0000  0.0000  0.0000 </r>
       </set>
       <set comment="band 7">
        <r>  0.0000  0.0338  0.0036  0.0579  0.0000  0.0000  0.0000  0.0000  0.0000 </r>
        <r>  0.0000  0.0338  0.0036  0.0579  0.0000  0.0000  0.0000  0.0000  0.0000 </r>
       </set>
       <set comment="band 8">
        <r>  0.0054  0.0182  0.0182  0.0182  0.0000  0.0000  0.0000  0.0000  0.0000 </r>
        <r>  0.0054  0.0182  0.0182  0.0182  0.0000  0.0000  0.0000  0.0000  0.0000 </r>
       </set>
      </set>
      <set comment="kpoint 123">
       <set comment="band 1">
        <r>  0.2225  0.0045  0.0045  0.0045  0.0000  0.0000  0.0000  0.0000  0.0000 </r>
        <r>  0.2225  0.0045  0.0045  0.0045  0.0000  0.0000  0.0000  0.0000  0.0000 </r>
       </set>
       <set comment="band 2">
        <r>  0.1008  0.0307  0.0307  0.0307  0.0000  0.0000  0.0000  0.0000  0.0000 </r>
        <r>  0.1008  0.0307  0.0307  0.0307  0.0000  0.0000  0.0000  0.0000  0.0000 </r>
       </set>
       <set comment="band 3">
        <r>  0.0000  0.0367  0.1435  0.0351  0.0000  0.0000  0.0000  0.0000  0.0000 </r>
        <r>  0.0000  0.0367  0.1435  0.0351  0.0000  0.0000  0.0000  0.0000  0.0000 </r>
       </set>
       <set comment="band 4">
        <r>  0.0000  0.1069  0.0000  0.1084  0.0000  0.0000  0.0000  0.0000  0.0000 </r>
        <r>  0.0000  0.1069  0.0000  0.1084  0.0000  0.0000  0.0000  0.0000  0.0000 </r>
       </set>
       <set comment="band 5">
        <r>  0.1845  0.0070  0.0070  0.0070  0.0000  0.0000  0.0000  0.0000  0.0000 </r>
        <r>  0.1845  0.0070  0.0070  0.0070  0.0000  0.0000  0.0000  0.0000  0.0000 </r>
       </set>
       <set comment="band 6">
        <r>  0.0000  0.0353  0.0568  0.0034  0.0000  0.0000  0.0000  0.0000  0.0000 </r>
        <r>  0.0000  0.0353  0.0568  0.0034  0.0000  0.0000  0.0000  0.0000  0.0000 </r>
       </set>
       <set comment="band 7">
        <r>  0.0000  0.0284  0.0069  0.0603  0.0000  0.0000  0.0000  0.0000  0.0000 </r>
        <r>  0.0000  0.0284  0.0069  0.0603  0.0000  0.0000  0.0000  0.0000  0.0000 </r>
       </set>
       <set comment="band 8">
        <r>  0.0053  0.0184  0.0184  0.0185  0.0000  0.0000  0.0000  0.0000  0.0000 </r>
        <r>  0.0053  0.0184  0.0184  0.0184  0.0000  0.0000  0.0000  0.0000  0.0000 </r>
       </set>
      </set>
      <set comment="kpoint 124">
       <set comment="band 1">
        <r>  0.2212  0.0046  0.0046  0.0046  0.0000  0.0000  0.0000  0.0000  0.0000 </r>
        <r>  0.2212  0.0046  0.0046  0.0046  0.0000  0.0000  0.0000  0.0000  0.0000 </r>
       </set>
       <set comment="band 2">
        <r>  0.1018  0.0306  0.0306  0.0306  0.0000  0.0000  0.0000  0.0000  0.0000 </r>
        <r>  0.1018  0.0306  0.0306  0.0306  0.0000  0.0000  0.0000  0.0000  0.0000 </r>
       </set>
       <set comment="band 3">
        <r>  0.0000  0.0317  0.1433  0.0403  0.0000  0.0000  0.0000  0.0000  0.0000 </r>
        <r>  0.0000  0.0317  0.1433  0.0403  0.0000  0.0000  0.0000  0.0000  0.0000 </r>
       </set>
       <set comment="band 4">
        <r>  0.0000  0.1118  0.0002  0.1032  0.0000  0.0000  0.0000  0.0000  0.0000 </r>
        <r>  0.0000  0.1118  0.0002  0.1032  0.0000  0.0000  0.0000  0.0000  0.0000 </r>
       </set>
       <set comment="band 5">
        <r>  0.1841  0.0071  0.0071  0.0071  0.0000  0.0000  0.0000  0.0000  0.0000 </r>
        <r>  0.1841  0.0071  0.0071  0.0071  0.0000  0.0000  0.0000  0.0000  0.0000 </r>
       </set>
       <set comment="band 6">
        <r>  0.0000  0.0533  0.0061  0.0367  0.0000  0.0000  0.0000  0.0000  0.0000 </r>
        <r>  0.0000  0.0533  0.0061  0.0367  0.0000  0.0000  0.0000  0.0000  0.0000 </r>
       </set>
       <set comment="band 7">
        <r>  0.0000  0.0108  0.0580  0.0274  0.0000  0.0000  0.0000  0.0000  0.0000 </r>
        <r>  0.0000  0.0108  0.0580  0.0274  0.0000  0.0000  0.0000  0.0000  0.0000 </r>
       </set>
       <set comment="band 8">
        <r>  0.0051  0.0188  0.0188  0.0188  0.0000  0.0000  0.0000  0.0000  0.0000 </r>
        <r>  0.0051  0.0188  0.0188  0.0188  0.0000  0.0000  0.0000  0.0000  0.0000 </r>
       </set>
      </set>
      <set comment="kpoint 125">
       <set comment="band 1">
        <r>  0.2196  0.0047  0.0047  0.0047  0.0000  0.0000  0.0000  0.0000  0.0000 </r>
        <r>  0.2196  0.0047  0.0047  0.0047  0.0000  0.0000  0.0000  0.0000  0.0000 </r>
       </set>
       <set comment="band 2">
        <r>  0.1031  0.0307  0.0307  0.0307  0.0000  0.0000  0.0000  0.0000  0.0000 </r>
        <r>  0.1031  0.0307  0.0307  0.0307  0.0000  0.0000  0.0000  0.0000  0.0000 </r>
       </set>
       <set comment="band 3">
        <r>  0.0000  0.0364  0.1434  0.0353  0.0000  0.0000  0.0000  0.0000  0.0000 </r>
        <r>  0.0000  0.0364  0.1434  0.0353  0.0000  0.0000  0.0000  0.0000  0.0000 </r>
       </set>
       <set comment="band 4">
        <r>  0.0000  0.1070  0.0000  0.1081  0.0000  0.0000  0.0000  0.0000  0.0000 </r>
        <r>  0.0000  0.1070  0.0000  0.1081  0.0000  0.0000  0.0000  0.0000  0.0000 </r>
       </set>
       <set comment="band 5">
        <r>  0.1836  0.0073  0.0073  0.0073  0.0000  0.0000  0.0000  0.0000  0.0000 </r>
        <r>  0.1836  0.0073  0.0073  0.0073  0.0000  0.0000  0.0000  0.0000  0.0000 </r>
       </set>
       <set comment="band 6">
        <r>  0.0000  0.0535  0.0006  0.0428  0.0000  0.0000  0.0000  0.0000  0.0000 </r>
        <r>  0.0000  0.0535  0.0006  0.0428  0.0000  0.0000  0.0000  0.0000  0.0000 </r>
       </set>
       <set comment="band 7">
        <r>  0.0000  0.0111  0.0640  0.0218  0.0000  0.0000  0.0000  0.0000  0.0000 </r>
        <r>  0.0000  0.0111  0.0640  0.0218  0.0000  0.0000  0.0000  0.0000  0.0000 </r>
       </set>
       <set comment="band 8">
        <r>  0.0048  0.0194  0.0194  0.0194  0.0000  0.0000  0.0000  0.0000  0.0000 </r>
        <r>  0.0048  0.0194  0.0194  0.0194  0.0000  0.0000  0.0000  0.0000  0.0000 </r>
       </set>
      </set>
      <set comment="kpoint 126">
       <set comment="band 1">
        <r>  0.2180  0.0047  0.0047  0.0047  0.0000  0.0000  0.0000  0.0000  0.0000 </r>
        <r>  0.2180  0.0047  0.0047  0.0047  0.0000  0.0000  0.0000  0.0000  0.0000 </r>
       </set>
       <set comment="band 2">
        <r>  0.1044  0.0307  0.0307  0.0307  0.0000  0.0000  0.0000  0.0000  0.0000 </r>
        <r>  0.1044  0.0307  0.0307  0.0307  0.0000  0.0000  0.0000  0.0000  0.0000 </r>
       </set>
       <set comment="band 3">
        <r>  0.0000  0.0377  0.1433  0.0340  0.0000  0.0000  0.0000  0.0000  0.0000 </r>
        <r>  0.0000  0.0377  0.1433  0.0340  0.0000  0.0000  0.0000  0.0000  0.0000 </r>
       </set>
       <set comment="band 4">
        <r>  0.0000  0.1056  0.0000  0.1093  0.0000  0.0000  0.0000  0.0000  0.0000 </r>
        <r>  0.0000  0.1056  0.0000  0.1093  0.0000  0.0000  0.0000  0.0000  0.0000 </r>
       </set>
       <set comment="band 5">
        <r>  0.1830  0.0075  0.0075  0.0075  0.0000  0.0000  0.0000  0.0000  0.0000 </r>
        <r>  0.1830  0.0075  0.0075  0.0075  0.0000  0.0000  0.0000  0.0000  0.0000 </r>
       </set>
       <set comment="band 6">
        <r>  0.0000  0.0515  0.0002  0.0462  0.0000  0.0000  0.0000  0.0000  0.0000 </r>
        <r>  0.0000  0.0515  0.0002  0.0462  0.0000  0.0000  0.0000  0.0000  0.0000 </r>
       </set>
       <set comment="band 7">
        <r>  0.0000  0.0137  0.0651  0.0191  0.0000  0.0000  0.0000  0.0000  0.0000 </r>
        <r>  0.0000  0.0137  0.0651  0.0191  0.0000  0.0000  0.0000  0.0000  0.0000 </r>
       </set>
       <set comment="band 8">
        <r>  0.0045  0.0202  0.0202  0.0202  0.0000  0.0000  0.0000  0.0000  0.0000 </r>
        <r>  0.0045  0.0202  0.0202  0.0202  0.0000  0.0000  0.0000  0.0000  0.0000 </r>
       </set>
      </set>
      <set comment="kpoint 127">
       <set comment="band 1">
        <r>  0.2164  0.0048  0.0048  0.0048  0.0000  0.0000  0.0000  0.0000  0.0000 </r>
        <r>  0.2164  0.0048  0.0048  0.0048  0.0000  0.0000  0.0000  0.0000  0.0000 </r>
       </set>
       <set comment="band 2">
        <r>  0.1055  0.0309  0.0309  0.0309  0.0000  0.0000  0.0000  0.0000  0.0000 </r>
        <r>  0.1055  0.0309  0.0309  0.0309  0.0000  0.0000  0.0000  0.0000  0.0000 </r>
       </set>
       <set comment="band 3">
        <r>  0.0000  0.0373  0.1432  0.0343  0.0000  0.0000  0.0000  0.0000  0.0000 </r>
        <r>  0.0000  0.0373  0.1432  0.0343  0.0000  0.0000  0.0000  0.0000  0.0000 </r>
       </set>
       <set comment="band 4">
        <r>  0.0000  0.1059  0.0000  0.1089  0.0000  0.0000  0.0000  0.0000  0.0000 </r>
        <r>  0.0000  0.1059  0.0000  0.1089  0.0000  0.0000  0.0000  0.0000  0.0000 </r>
       </set>
       <set comment="band 5">
        <r>  0.1821  0.0078  0.0078  0.0078  0.0000  0.0000  0.0000  0.0000  0.0000 </r>
        <r>  0.1821  0.0078  0.0078  0.0078  0.0000  0.0000  0.0000  0.0000  0.0000 </r>
       </set>
       <set comment="band 6">
        <r>  0.0000  0.0484  0.0001  0.0508  0.0000  0.0000  0.0000  0.0000  0.0000 </r>
        <r>  0.0000  0.0484  0.0001  0.0508  0.0000  0.0000  0.0000  0.0000  0.0000 </r>
       </set>
       <set comment="band 7">
        <r>  0.0000  0.0178  0.0661  0.0154  0.0000  0.0000  0.0000  0.0000  0.0000 </r>
        <r>  0.0000  0.0178  0.0661  0.0154  0.0000  0.0000  0.0000  0.0000  0.0000 </r>
       </set>
       <set comment="band 8">
        <r>  0.0041  0.0213  0.0213  0.0213  0.0000  0.0000  0.0000  0.0000  0.0000 </r>
        <r>  0.0041  0.0213  0.0213  0.0213  0.0000  0.0000  0.0000  0.0000  0.0000 </r>
       </set>
      </set>
      <set comment="kpoint 128">
       <set comment="band 1">
        <r>  0.2150  0.0048  0.0048  0.0048  0.0000  0.0000  0.0000  0.0000  0.0000 </r>
        <r>  0.2150  0.0048  0.0048  0.0048  0.0000  0.0000  0.0000  0.0000  0.0000 </r>
       </set>
       <set comment="band 2">
        <r>  0.1064  0.0311  0.0311  0.0311  0.0000  0.0000  0.0000  0.0000  0.0000 </r>
        <r>  0.1064  0.0311  0.0311  0.0311  0.0000  0.0000  0.0000  0.0000  0.0000 </r>
       </set>
       <set comment="band 3">
        <r>  0.0000  0.0375  0.1430  0.0341  0.0000  0.0000  0.0000  0.0000  0.0000 </r>
        <r>  0.0000  0.0375  0.1430  0.0341  0.0000  0.0000  0.0000  0.0000  0.0000 </r>
       </set>
       <set comment="band 4">
        <r>  0.0000  0.1056  0.0001  0.1089  0.0000  0.0000  0.0000  0.0000  0.0000 </r>
        <r>  0.0000  0.1056  0.0001  0.1089  0.0000  0.0000  0.0000  0.0000  0.0000 </r>
       </set>
       <set comment="band 5">
        <r>  0.1812  0.0081  0.0081  0.0081  0.0000  0.0000  0.0000  0.0000  0.0000 </r>
        <r>  0.1812  0.0081  0.0081  0.0081  0.0000  0.0000  0.0000  0.0000  0.0000 </r>
       </set>
       <set comment="band 6">
        <r>  0.0000  0.0120  0.0221  0.0666  0.0000  0.0000  0.0000  0.0000  0.0000 </r>
        <r>  0.0000  0.0120  0.0221  0.0666  0.0000  0.0000  0.0000  0.0000  0.0000 </r>
       </set>
       <set comment="band 7">
        <r>  0.0000  0.0552  0.0450  0.0005  0.0000  0.0000  0.0000  0.0000  0.0000 </r>
        <r>  0.0000  0.0552  0.0450  0.0005  0.0000  0.0000  0.0000  0.0000  0.0000 </r>
       </set>
       <set comment="band 8">
        <r>  0.0037  0.0226  0.0227  0.0226  0.0000  0.0000  0.0000  0.0000  0.0000 </r>
        <r>  0.0037  0.0226  0.0226  0.0227  0.0000  0.0000  0.0000  0.0000  0.0000 </r>
       </set>
      </set>
      <set comment="kpoint 129">
       <set comment="band 1">
        <r>  0.2137  0.0048  0.0048  0.0048  0.0000  0.0000  0.0000  0.0000  0.0000 </r>
        <r>  0.2137  0.0048  0.0048  0.0048  0.0000  0.0000  0.0000  0.0000  0.0000 </r>
       </set>
       <set comment="band 2">
        <r>  0.1071  0.0314  0.0314  0.0314  0.0000  0.0000  0.0000  0.0000  0.0000 </r>
        <r>  0.1071  0.0314  0.0314  0.0314  0.0000  0.0000  0.0000  0.0000  0.0000 </r>
       </set>
       <set comment="band 3">
        <r>  0.0000  0.0402  0.1427  0.0315  0.0000  0.0000  0.0000  0.0000  0.0000 </r>
        <r>  0.0000  0.0402  0.1427  0.0315  0.0000  0.0000  0.0000  0.0000  0.0000 </r>
       </set>
       <set comment="band 4">
        <r>  0.0000  0.1028  0.0002  0.1114  0.0000  0.0000  0.0000  0.0000  0.0000 </r>
        <r>  0.0000  0.1028  0.0002  0.1114  0.0000  0.0000  0.0000  0.0000  0.0000 </r>
       </set>
       <set comment="band 5">
        <r>  0.1801  0.0084  0.0084  0.0084  0.0000  0.0000  0.0000  0.0000  0.0000 </r>
        <r>  0.1801  0.0084  0.0084  0.0084  0.0000  0.0000  0.0000  0.0000  0.0000 </r>
       </set>
       <set comment="band 6">
        <r>  0.0000  0.0534  0.0007  0.0484  0.0000  0.0000  0.0000  0.0000  0.0000 </r>
        <r>  0.0000  0.0534  0.0007  0.0484  0.0000  0.0000  0.0000  0.0000  0.0000 </r>
       </set>
       <set comment="band 7">
        <r>  0.0000  0.0149  0.0676  0.0200  0.0000  0.0000  0.0000  0.0000  0.0000 </r>
        <r>  0.0000  0.0149  0.0676  0.0200  0.0000  0.0000  0.0000  0.0000  0.0000 </r>
       </set>
       <set comment="band 8">
        <r>  0.0035  0.0245  0.0245  0.0245  0.0000  0.0000  0.0000  0.0000  0.0000 </r>
        <r>  0.0035  0.0245  0.0245  0.0245  0.0000  0.0000  0.0000  0.0000  0.0000 </r>
       </set>
      </set>
      <set comment="kpoint 130">
       <set comment="band 1">
        <r>  0.2126  0.0047  0.0047  0.0047  0.0000  0.0000  0.0000  0.0000  0.0000 </r>
        <r>  0.2126  0.0047  0.0047  0.0047  0.0000  0.0000  0.0000  0.0000  0.0000 </r>
       </set>
       <set comment="band 2">
        <r>  0.1075  0.0317  0.0317  0.0317  0.0000  0.0000  0.0000  0.0000  0.0000 </r>
        <r>  0.1075  0.0317  0.0317  0.0317  0.0000  0.0000  0.0000  0.0000  0.0000 </r>
       </set>
       <set comment="band 3">
        <r>  0.0000  0.0764  0.0098  0.1280  0.0000  0.0000  0.0000  0.0000  0.0000 </r>
        <r>  0.0000  0.0764  0.0098  0.1280  0.0000  0.0000  0.0000  0.0000  0.0000 </r>
       </set>
       <set comment="band 4">
        <r>  0.0000  0.0664  0.1330  0.0148  0.0000  0.0000  0.0000  0.0000  0.0000 </r>
        <r>  0.0000  0.0664  0.1330  0.0148  0.0000  0.0000  0.0000  0.0000  0.0000 </r>
       </set>
       <set comment="band 5">
        <r>  0.1788  0.0089  0.0089  0.0089  0.0000  0.0000  0.0000  0.0000  0.0000 </r>
        <r>  0.1788  0.0089  0.0089  0.0089  0.0000  0.0000  0.0000  0.0000  0.0000 </r>
       </set>
       <set comment="band 6">
        <r>  0.0000  0.0695  0.0152  0.0199  0.0000  0.0000  0.0000  0.0000  0.0000 </r>
        <r>  0.0000  0.0695  0.0152  0.0199  0.0000  0.0000  0.0000  0.0000  0.0000 </r>
       </set>
       <set comment="band 7">
        <r>  0.0000  0.0002  0.0545  0.0498  0.0000  0.0000  0.0000  0.0000  0.0000 </r>
        <r>  0.0000  0.0002  0.0545  0.0498  0.0000  0.0000  0.0000  0.0000  0.0000 </r>
       </set>
       <set comment="band 8">
        <r>  0.0036  0.0265  0.0268  0.0271  0.0000  0.0000  0.0000  0.0000  0.0000 </r>
        <r>  0.0036  0.0267  0.0270  0.0266  0.0000  0.0000  0.0000  0.0000  0.0000 </r>
       </set>
      </set>
      <set comment="kpoint 131">
       <set comment="band 1">
        <r>  0.2116  0.0046  0.0046  0.0046  0.0000  0.0000  0.0000  0.0000  0.0000 </r>
        <r>  0.2116  0.0046  0.0046  0.0046  0.0000  0.0000  0.0000  0.0000  0.0000 </r>
       </set>
       <set comment="band 2">
        <r>  0.1076  0.0321  0.0321  0.0321  0.0000  0.0000  0.0000  0.0000  0.0000 </r>
        <r>  0.1076  0.0321  0.0321  0.0321  0.0000  0.0000  0.0000  0.0000  0.0000 </r>
       </set>
       <set comment="band 3">
        <r>  0.0000  0.1328  0.0102  0.0709  0.0000  0.0000  0.0000  0.0000  0.0000 </r>
        <r>  0.0000  0.1328  0.0102  0.0709  0.0000  0.0000  0.0000  0.0000  0.0000 </r>
       </set>
       <set comment="band 4">
        <r>  0.0000  0.0098  0.1324  0.0717  0.0000  0.0000  0.0000  0.0000  0.0000 </r>
        <r>  0.0000  0.0098  0.1324  0.0717  0.0000  0.0000  0.0000  0.0000  0.0000 </r>
       </set>
       <set comment="band 5">
        <r>  0.1774  0.0093  0.0093  0.0093  0.0000  0.0000  0.0000  0.0000  0.0000 </r>
        <r>  0.1774  0.0093  0.0093  0.0093  0.0000  0.0000  0.0000  0.0000  0.0000 </r>
       </set>
       <set comment="band 6">
        <r>  0.0000  0.0184  0.0655  0.0230  0.0000  0.0000  0.0000  0.0000  0.0000 </r>
        <r>  0.0000  0.0184  0.0655  0.0230  0.0000  0.0000  0.0000  0.0000  0.0000 </r>
       </set>
       <set comment="band 7">
        <r>  0.0000  0.0529  0.0058  0.0482  0.0000  0.0000  0.0000  0.0000  0.0000 </r>
        <r>  0.0000  0.0529  0.0058  0.0482  0.0000  0.0000  0.0000  0.0000  0.0000 </r>
       </set>
       <set comment="band 8">
        <r>  0.0044  0.0298  0.0303  0.0305  0.0000  0.0000  0.0000  0.0000  0.0000 </r>
        <r>  0.0045  0.0308  0.0300  0.0303  0.0000  0.0000  0.0000  0.0000  0.0000 </r>
       </set>
      </set>
      <set comment="kpoint 132">
       <set comment="band 1">
        <r>  0.2109  0.0044  0.0044  0.0044  0.0000  0.0000  0.0000  0.0000  0.0000 </r>
        <r>  0.2109  0.0044  0.0044  0.0044  0.0000  0.0000  0.0000  0.0000  0.0000 </r>
       </set>
       <set comment="band 2">
        <r>  0.1075  0.0326  0.0326  0.0326  0.0000  0.0000  0.0000  0.0000  0.0000 </r>
        <r>  0.1075  0.0326  0.0326  0.0326  0.0000  0.0000  0.0000  0.0000  0.0000 </r>
       </set>
       <set comment="band 3">
        <r>  0.0000  0.1089  0.0001  0.1047  0.0000  0.0000  0.0000  0.0000  0.0000 </r>
        <r>  0.0000  0.1089  0.0001  0.1047  0.0000  0.0000  0.0000  0.0000  0.0000 </r>
       </set>
       <set comment="band 4">
        <r>  0.0000  0.0335  0.1424  0.0378  0.0000  0.0000  0.0000  0.0000  0.0000 </r>
        <r>  0.0000  0.0335  0.1424  0.0378  0.0000  0.0000  0.0000  0.0000  0.0000 </r>
       </set>
       <set comment="band 5">
        <r>  0.1758  0.0098  0.0098  0.0098  0.0000  0.0000  0.0000  0.0000  0.0000 </r>
        <r>  0.1758  0.0098  0.0098  0.0098  0.0000  0.0000  0.0000  0.0000  0.0000 </r>
       </set>
       <set comment="band 6">
        <r>  0.0000  0.0557  0.0008  0.0529  0.0000  0.0000  0.0000  0.0000  0.0000 </r>
        <r>  0.0000  0.0557  0.0008  0.0529  0.0000  0.0000  0.0000  0.0000  0.0000 </r>
       </set>
       <set comment="band 7">
        <r>  0.0000  0.0172  0.0722  0.0200  0.0000  0.0000  0.0000  0.0000  0.0000 </r>
        <r>  0.0000  0.0172  0.0722  0.0200  0.0000  0.0000  0.0000  0.0000  0.0000 </r>
       </set>
       <set comment="band 8">
        <r>  0.0066  0.0337  0.0334  0.0360  0.0000  0.0000  0.0000  0.0000  0.0000 </r>
        <r>  0.0068  0.0343  0.0351  0.0326  0.0000  0.0000  0.0000  0.0000  0.0000 </r>
       </set>
      </set>
      <set comment="kpoint 133">
       <set comment="band 1">
        <r>  0.2103  0.0043  0.0043  0.0043  0.0000  0.0000  0.0000  0.0000  0.0000 </r>
        <r>  0.2103  0.0043  0.0043  0.0043  0.0000  0.0000  0.0000  0.0000  0.0000 </r>
       </set>
       <set comment="band 2">
        <r>  0.1071  0.0332  0.0332  0.0332  0.0000  0.0000  0.0000  0.0000  0.0000 </r>
        <r>  0.1071  0.0332  0.0332  0.0332  0.0000  0.0000  0.0000  0.0000  0.0000 </r>
       </set>
       <set comment="band 3">
        <r>  0.0000  0.1067  0.0000  0.1066  0.0000  0.0000  0.0000  0.0000  0.0000 </r>
        <r>  0.0000  0.1067  0.0000  0.1066  0.0000  0.0000  0.0000  0.0000  0.0000 </r>
       </set>
       <set comment="band 4">
        <r>  0.0000  0.0355  0.1422  0.0356  0.0000  0.0000  0.0000  0.0000  0.0000 </r>
        <r>  0.0000  0.0355  0.1422  0.0356  0.0000  0.0000  0.0000  0.0000  0.0000 </r>
       </set>
       <set comment="band 5">
        <r>  0.1741  0.0104  0.0104  0.0104  0.0000  0.0000  0.0000  0.0000  0.0000 </r>
        <r>  0.1741  0.0104  0.0104  0.0104  0.0000  0.0000  0.0000  0.0000  0.0000 </r>
       </set>
       <set comment="band 6">
        <r>  0.0000  0.0593  0.0039  0.0490  0.0000  0.0000  0.0000  0.0000  0.0000 </r>
        <r>  0.0000  0.0593  0.0039  0.0490  0.0000  0.0000  0.0000  0.0000  0.0000 </r>
       </set>
       <set comment="band 7">
        <r>  0.0000  0.0155  0.0710  0.0258  0.0000  0.0000  0.0000  0.0000  0.0000 </r>
        <r>  0.0000  0.0155  0.0710  0.0258  0.0000  0.0000  0.0000  0.0000  0.0000 </r>
       </set>
       <set comment="band 8">
        <r>  0.0120  0.0398  0.0386  0.0384  0.0000  0.0000  0.0000  0.0000  0.0000 </r>
        <r>  0.0114  0.0382  0.0393  0.0395  0.0000  0.0000  0.0000  0.0000  0.0000 </r>
       </set>
      </set>
      <set comment="kpoint 134">
       <set comment="band 1">
        <r>  0.2099  0.0041  0.0041  0.0041  0.0000  0.0000  0.0000  0.0000  0.0000 </r>
        <r>  0.2099  0.0041  0.0041  0.0041  0.0000  0.0000  0.0000  0.0000  0.0000 </r>
       </set>
       <set comment="band 2">
        <r>  0.1065  0.0338  0.0338  0.0338  0.0000  0.0000  0.0000  0.0000  0.0000 </r>
        <r>  0.1065  0.0338  0.0338  0.0338  0.0000  0.0000  0.0000  0.0000  0.0000 </r>
       </set>
       <set comment="band 3">
        <r>  0.0000  0.1064  0.0000  0.1066  0.0000  0.0000  0.0000  0.0000  0.0000 </r>
        <r>  0.0000  0.1064  0.0000  0.1066  0.0000  0.0000  0.0000  0.0000  0.0000 </r>
       </set>
       <set comment="band 4">
        <r>  0.0000  0.0356  0.1420  0.0354  0.0000  0.0000  0.0000  0.0000  0.0000 </r>
        <r>  0.0000  0.0356  0.1420  0.0354  0.0000  0.0000  0.0000  0.0000  0.0000 </r>
       </set>
       <set comment="band 5">
        <r>  0.1722  0.0110  0.0110  0.0110  0.0000  0.0000  0.0000  0.0000  0.0000 </r>
        <r>  0.1722  0.0110  0.0110  0.0110  0.0000  0.0000  0.0000  0.0000  0.0000 </r>
       </set>
       <set comment="band 6">
        <r>  0.0000  0.0494  0.0089  0.0571  0.0000  0.0000  0.0000  0.0000  0.0000 </r>
        <r>  0.0000  0.0494  0.0089  0.0571  0.0000  0.0000  0.0000  0.0000  0.0000 </r>
       </set>
       <set comment="band 7">
        <r>  0.0000  0.0275  0.0681  0.0198  0.0000  0.0000  0.0000  0.0000  0.0000 </r>
        <r>  0.0000  0.0275  0.0681  0.0198  0.0000  0.0000  0.0000  0.0000  0.0000 </r>
       </set>
       <set comment="band 8">
        <r>  0.0197  0.0499  0.0436  0.0389  0.0000  0.0000  0.0000  0.0000  0.0000 </r>
        <r>  0.0188  0.0402  0.0449  0.0392  0.0000  0.0000  0.0000  0.0000  0.0000 </r>
       </set>
      </set>
      <set comment="kpoint 135">
       <set comment="band 1">
        <r>  0.2096  0.0039  0.0039  0.0039  0.0000  0.0000  0.0000  0.0000  0.0000 </r>
        <r>  0.2096  0.0039  0.0039  0.0039  0.0000  0.0000  0.0000  0.0000  0.0000 </r>
       </set>
       <set comment="band 2">
        <r>  0.1056  0.0345  0.0345  0.0345  0.0000  0.0000  0.0000  0.0000  0.0000 </r>
        <r>  0.1056  0.0345  0.0345  0.0345  0.0000  0.0000  0.0000  0.0000  0.0000 </r>
       </set>
       <set comment="band 3">
        <r>  0.0000  0.1077  0.0000  0.1051  0.0000  0.0000  0.0000  0.0000  0.0000 </r>
        <r>  0.0000  0.1077  0.0000  0.1051  0.0000  0.0000  0.0000  0.0000  0.0000 </r>
       </set>
       <set comment="band 4">
        <r>  0.0000  0.0341  0.1418  0.0368  0.0000  0.0000  0.0000  0.0000  0.0000 </r>
        <r>  0.0000  0.0341  0.1418  0.0368  0.0000  0.0000  0.0000  0.0000  0.0000 </r>
       </set>
       <set comment="band 5">
        <r>  0.1702  0.0116  0.0116  0.0116  0.0000  0.0000  0.0000  0.0000  0.0000 </r>
        <r>  0.1702  0.0116  0.0116  0.0116  0.0000  0.0000  0.0000  0.0000  0.0000 </r>
       </set>
       <set comment="band 6">
        <r>  0.0000  0.0776  0.0211  0.0199  0.0000  0.0000  0.0000  0.0000  0.0000 </r>
        <r>  0.0000  0.0776  0.0211  0.0199  0.0000  0.0000  0.0000  0.0000  0.0000 </r>
       </set>
       <set comment="band 7">
        <r>  0.0000  0.0015  0.0580  0.0592  0.0000  0.0000  0.0000  0.0000  0.0000 </r>
        <r>  0.0000  0.0015  0.0580  0.0592  0.0000  0.0000  0.0000  0.0000  0.0000 </r>
       </set>
       <set comment="band 8">
        <r>  0.0347  0.0490  0.0503  0.0490  0.0000  0.0000  0.0000  0.0000  0.0000 </r>
        <r>  0.0346  0.0496  0.0498  0.0477  0.0000  0.0000  0.0000  0.0000  0.0000 </r>
       </set>
      </set>
      <set comment="kpoint 136">
       <set comment="band 1">
        <r>  0.2093  0.0036  0.0036  0.0036  0.0000  0.0000  0.0000  0.0000  0.0000 </r>
        <r>  0.2093  0.0036  0.0036  0.0036  0.0000  0.0000  0.0000  0.0000  0.0000 </r>
       </set>
       <set comment="band 2">
        <r>  0.1045  0.0352  0.0352  0.0352  0.0000  0.0000  0.0000  0.0000  0.0000 </r>
        <r>  0.1045  0.0352  0.0352  0.0352  0.0000  0.0000  0.0000  0.0000  0.0000 </r>
       </set>
       <set comment="band 3">
        <r>  0.0000  0.1064  0.0000  0.1061  0.0000  0.0000  0.0000  0.0000  0.0000 </r>
        <r>  0.0000  0.1064  0.0000  0.1061  0.0000  0.0000  0.0000  0.0000  0.0000 </r>
       </set>
       <set comment="band 4">
        <r>  0.0000  0.0352  0.1417  0.0356  0.0000  0.0000  0.0000  0.0000  0.0000 </r>
        <r>  0.0000  0.0352  0.1417  0.0356  0.0000  0.0000  0.0000  0.0000  0.0000 </r>
       </set>
       <set comment="band 5">
        <r>  0.1680  0.0123  0.0123  0.0123  0.0000  0.0000  0.0000  0.0000  0.0000 </r>
        <r>  0.1680  0.0123  0.0123  0.0123  0.0000  0.0000  0.0000  0.0000  0.0000 </r>
       </set>
       <set comment="band 6">
        <r>  0.0000  0.0711  0.0213  0.0299  0.0000  0.0000  0.0000  0.0000  0.0000 </r>
        <r>  0.0000  0.0711  0.0213  0.0299  0.0000  0.0000  0.0000  0.0000  0.0000 </r>
       </set>
       <set comment="band 7">
        <r>  0.0000  0.0104  0.0602  0.0516  0.0000  0.0000  0.0000  0.0000  0.0000 </r>
        <r>  0.0000  0.0104  0.0602  0.0516  0.0000  0.0000  0.0000  0.0000  0.0000 </r>
       </set>
       <set comment="band 8">
        <r>  0.0412  0.0603  0.0437  0.0312  0.0000  0.0000  0.0000  0.0000  0.0000 </r>
        <r>  0.0415  0.0425  0.0376  0.0580  0.0000  0.0000  0.0000  0.0000  0.0000 </r>
       </set>
      </set>
      <set comment="kpoint 137">
       <set comment="band 1">
        <r>  0.2092  0.0034  0.0034  0.0034  0.0000  0.0000  0.0000  0.0000  0.0000 </r>
        <r>  0.2092  0.0034  0.0034  0.0034  0.0000  0.0000  0.0000  0.0000  0.0000 </r>
       </set>
       <set comment="band 2">
        <r>  0.1032  0.0359  0.0359  0.0359  0.0000  0.0000  0.0000  0.0000  0.0000 </r>
        <r>  0.1032  0.0359  0.0359  0.0359  0.0000  0.0000  0.0000  0.0000  0.0000 </r>
       </set>
       <set comment="band 3">
        <r>  0.0000  0.1062  0.0000  0.1059  0.0000  0.0000  0.0000  0.0000  0.0000 </r>
        <r>  0.0000  0.1062  0.0000  0.1059  0.0000  0.0000  0.0000  0.0000  0.0000 </r>
       </set>
       <set comment="band 4">
        <r>  0.0000  0.0352  0.1415  0.0355  0.0000  0.0000  0.0000  0.0000  0.0000 </r>
        <r>  0.0000  0.0352  0.1415  0.0355  0.0000  0.0000  0.0000  0.0000  0.0000 </r>
       </set>
       <set comment="band 5">
        <r>  0.1657  0.0131  0.0131  0.0131  0.0000  0.0000  0.0000  0.0000  0.0000 </r>
        <r>  0.1657  0.0131  0.0131  0.0131  0.0000  0.0000  0.0000  0.0000  0.0000 </r>
       </set>
       <set comment="band 6">
        <r>  0.0000  0.0249  0.0711  0.0299  0.0000  0.0000  0.0000  0.0000  0.0000 </r>
        <r>  0.0000  0.0249  0.0711  0.0299  0.0000  0.0000  0.0000  0.0000  0.0000 </r>
       </set>
       <set comment="band 7">
        <r>  0.0000  0.0590  0.0129  0.0540  0.0000  0.0000  0.0000  0.0000  0.0000 </r>
        <r>  0.0000  0.0590  0.0129  0.0540  0.0000  0.0000  0.0000  0.0000  0.0000 </r>
       </set>
       <set comment="band 8">
        <r>  0.0607  0.0565  0.0338  0.0582  0.0000  0.0000  0.0000  0.0000  0.0000 </r>
        <r>  0.0609  0.0474  0.0588  0.0403  0.0000  0.0000  0.0000  0.0000  0.0000 </r>
       </set>
      </set>
      <set comment="kpoint 138">
       <set comment="band 1">
        <r>  0.2092  0.0032  0.0032  0.0032  0.0000  0.0000  0.0000  0.0000  0.0000 </r>
        <r>  0.2092  0.0032  0.0032  0.0032  0.0000  0.0000  0.0000  0.0000  0.0000 </r>
       </set>
       <set comment="band 2">
        <r>  0.1017  0.0368  0.0368  0.0368  0.0000  0.0000  0.0000  0.0000  0.0000 </r>
        <r>  0.1017  0.0368  0.0368  0.0368  0.0000  0.0000  0.0000  0.0000  0.0000 </r>
       </set>
       <set comment="band 3">
        <r>  0.0000  0.1054  0.0000  0.1065  0.0000  0.0000  0.0000  0.0000  0.0000 </r>
        <r>  0.0000  0.1054  0.0000  0.1065  0.0000  0.0000  0.0000  0.0000  0.0000 </r>
       </set>
       <set comment="band 4">
        <r>  0.0000  0.0359  0.1413  0.0348  0.0000  0.0000  0.0000  0.0000  0.0000 </r>
        <r>  0.0000  0.0359  0.1413  0.0348  0.0000  0.0000  0.0000  0.0000  0.0000 </r>
       </set>
       <set comment="band 5">
        <r>  0.1631  0.0139  0.0139  0.0139  0.0000  0.0000  0.0000  0.0000  0.0000 </r>
        <r>  0.1631  0.0139  0.0139  0.0139  0.0000  0.0000  0.0000  0.0000  0.0000 </r>
       </set>
       <set comment="band 6">
        <r>  0.0000  0.0764  0.0434  0.0098  0.0000  0.0000  0.0000  0.0000  0.0000 </r>
        <r>  0.0000  0.0764  0.0434  0.0098  0.0000  0.0000  0.0000  0.0000  0.0000 </r>
       </set>
       <set comment="band 7">
        <r>  0.0000  0.0100  0.0430  0.0766  0.0000  0.0000  0.0000  0.0000  0.0000 </r>
        <r>  0.0000  0.0100  0.0430  0.0766  0.0000  0.0000  0.0000  0.0000  0.0000 </r>
       </set>
       <set comment="band 8">
        <r>  0.0795  0.0455  0.0487  0.0609  0.0000  0.0000  0.0000  0.0000  0.0000 </r>
        <r>  0.0799  0.0541  0.0561  0.0465  0.0000  0.0000  0.0000  0.0000  0.0000 </r>
       </set>
      </set>
      <set comment="kpoint 139">
       <set comment="band 1">
        <r>  0.2092  0.0030  0.0030  0.0030  0.0000  0.0000  0.0000  0.0000  0.0000 </r>
        <r>  0.2092  0.0030  0.0030  0.0030  0.0000  0.0000  0.0000  0.0000  0.0000 </r>
       </set>
       <set comment="band 2">
        <r>  0.1000  0.0376  0.0376  0.0376  0.0000  0.0000  0.0000  0.0000  0.0000 </r>
        <r>  0.1000  0.0376  0.0376  0.0376  0.0000  0.0000  0.0000  0.0000  0.0000 </r>
       </set>
       <set comment="band 3">
        <r>  0.0000  0.1070  0.0000  0.1046  0.0000  0.0000  0.0000  0.0000  0.0000 </r>
        <r>  0.0000  0.1070  0.0000  0.1046  0.0000  0.0000  0.0000  0.0000  0.0000 </r>
       </set>
       <set comment="band 4">
        <r>  0.0000  0.0341  0.1411  0.0365  0.0000  0.0000  0.0000  0.0000  0.0000 </r>
        <r>  0.0000  0.0341  0.1411  0.0365  0.0000  0.0000  0.0000  0.0000  0.0000 </r>
       </set>
       <set comment="band 5">
        <r>  0.1604  0.0148  0.0148  0.0148  0.0000  0.0000  0.0000  0.0000  0.0000 </r>
        <r>  0.1604  0.0148  0.0148  0.0148  0.0000  0.0000  0.0000  0.0000  0.0000 </r>
       </set>
       <set comment="band 6">
        <r>  0.0000  0.0607  0.0463  0.0264  0.0000  0.0000  0.0000  0.0000  0.0000 </r>
        <r>  0.0000  0.0607  0.0463  0.0264  0.0000  0.0000  0.0000  0.0000  0.0000 </r>
       </set>
       <set comment="band 7">
        <r>  0.0000  0.0282  0.0426  0.0626  0.0000  0.0000  0.0000  0.0000  0.0000 </r>
        <r>  0.0000  0.0282  0.0426  0.0626  0.0000  0.0000  0.0000  0.0000  0.0000 </r>
       </set>
       <set comment="band 8">
        <r>  0.0950  0.0534  0.0518  0.0529  0.0000  0.0000  0.0000  0.0000  0.0000 </r>
        <r>  0.0942  0.0516  0.0521  0.0526  0.0000  0.0000  0.0000  0.0000  0.0000 </r>
       </set>
      </set>
      <set comment="kpoint 140">
       <set comment="band 1">
        <r>  0.2093  0.0027  0.0027  0.0027  0.0000  0.0000  0.0000  0.0000  0.0000 </r>
        <r>  0.2093  0.0027  0.0027  0.0027  0.0000  0.0000  0.0000  0.0000  0.0000 </r>
       </set>
       <set comment="band 2">
        <r>  0.0981  0.0385  0.0385  0.0385  0.0000  0.0000  0.0000  0.0000  0.0000 </r>
        <r>  0.0981  0.0385  0.0385  0.0385  0.0000  0.0000  0.0000  0.0000  0.0000 </r>
       </set>
       <set comment="band 3">
        <r>  0.0000  0.1060  0.0000  0.1053  0.0000  0.0000  0.0000  0.0000  0.0000 </r>
        <r>  0.0000  0.1060  0.0000  0.1053  0.0000  0.0000  0.0000  0.0000  0.0000 </r>
       </set>
       <set comment="band 4">
        <r>  0.0000  0.0349  0.1409  0.0356  0.0000  0.0000  0.0000  0.0000  0.0000 </r>
        <r>  0.0000  0.0349  0.1409  0.0356  0.0000  0.0000  0.0000  0.0000  0.0000 </r>
       </set>
       <set comment="band 5">
        <r>  0.1575  0.0157  0.0157  0.0157  0.0000  0.0000  0.0000  0.0000  0.0000 </r>
        <r>  0.1575  0.0157  0.0157  0.0157  0.0000  0.0000  0.0000  0.0000  0.0000 </r>
       </set>
       <set comment="band 6">
        <r>  0.0000  0.0122  0.0767  0.0482  0.0000  0.0000  0.0000  0.0000  0.0000 </r>
        <r>  0.0000  0.0122  0.0767  0.0482  0.0000  0.0000  0.0000  0.0000  0.0000 </r>
       </set>
       <set comment="band 7">
        <r>  0.0000  0.0792  0.0147  0.0432  0.0000  0.0000  0.0000  0.0000  0.0000 </r>
        <r>  0.0000  0.0792  0.0147  0.0432  0.0000  0.0000  0.0000  0.0000  0.0000 </r>
       </set>
       <set comment="band 8">
        <r>  0.1059  0.0507  0.0504  0.0515  0.0000  0.0000  0.0000  0.0000  0.0000 </r>
        <r>  0.1059  0.0517  0.0515  0.0503  0.0000  0.0000  0.0000  0.0000  0.0000 </r>
       </set>
      </set>
      <set comment="kpoint 141">
       <set comment="band 1">
        <r>  0.2094  0.0025  0.0025  0.0025  0.0000  0.0000  0.0000  0.0000  0.0000 </r>
        <r>  0.2094  0.0025  0.0025  0.0025  0.0000  0.0000  0.0000  0.0000  0.0000 </r>
       </set>
       <set comment="band 2">
        <r>  0.0960  0.0395  0.0395  0.0395  0.0000  0.0000  0.0000  0.0000  0.0000 </r>
        <r>  0.0960  0.0395  0.0395  0.0395  0.0000  0.0000  0.0000  0.0000  0.0000 </r>
       </set>
       <set comment="band 3">
        <r>  0.0000  0.1059  0.0000  0.1052  0.0000  0.0000  0.0000  0.0000  0.0000 </r>
        <r>  0.0000  0.1059  0.0000  0.1052  0.0000  0.0000  0.0000  0.0000  0.0000 </r>
       </set>
       <set comment="band 4">
        <r>  0.0000  0.0348  0.1408  0.0355  0.0000  0.0000  0.0000  0.0000  0.0000 </r>
        <r>  0.0000  0.0348  0.1408  0.0355  0.0000  0.0000  0.0000  0.0000  0.0000 </r>
       </set>
       <set comment="band 5">
        <r>  0.1544  0.0167  0.0167  0.0167  0.0000  0.0000  0.0000  0.0000  0.0000 </r>
        <r>  0.1544  0.0167  0.0167  0.0167  0.0000  0.0000  0.0000  0.0000  0.0000 </r>
       </set>
       <set comment="band 6">
        <r>  0.0000  0.0777  0.0226  0.0403  0.0000  0.0000  0.0000  0.0000  0.0000 </r>
        <r>  0.0000  0.0777  0.0226  0.0403  0.0000  0.0000  0.0000  0.0000  0.0000 </r>
       </set>
       <set comment="band 7">
        <r>  0.0000  0.0160  0.0711  0.0534  0.0000  0.0000  0.0000  0.0000  0.0000 </r>
        <r>  0.0000  0.0160  0.0711  0.0534  0.0000  0.0000  0.0000  0.0000  0.0000 </r>
       </set>
       <set comment="band 8">
        <r>  0.1155  0.0496  0.0494  0.0497  0.0000  0.0000  0.0000  0.0000  0.0000 </r>
        <r>  0.1156  0.0497  0.0497  0.0494  0.0000  0.0000  0.0000  0.0000  0.0000 </r>
       </set>
      </set>
      <set comment="kpoint 142">
       <set comment="band 1">
        <r>  0.2095  0.0023  0.0023  0.0023  0.0000  0.0000  0.0000  0.0000  0.0000 </r>
        <r>  0.2095  0.0023  0.0023  0.0023  0.0000  0.0000  0.0000  0.0000  0.0000 </r>
       </set>
       <set comment="band 2">
        <r>  0.0938  0.0405  0.0405  0.0405  0.0000  0.0000  0.0000  0.0000  0.0000 </r>
        <r>  0.0938  0.0405  0.0405  0.0405  0.0000  0.0000  0.0000  0.0000  0.0000 </r>
       </set>
       <set comment="band 3">
        <r>  0.0000  0.1054  0.0000  0.1055  0.0000  0.0000  0.0000  0.0000  0.0000 </r>
        <r>  0.0000  0.1054  0.0000  0.1055  0.0000  0.0000  0.0000  0.0000  0.0000 </r>
       </set>
       <set comment="band 4">
        <r>  0.0000  0.0352  0.1406  0.0351  0.0000  0.0000  0.0000  0.0000  0.0000 </r>
        <r>  0.0000  0.0352  0.1406  0.0351  0.0000  0.0000  0.0000  0.0000  0.0000 </r>
       </set>
       <set comment="band 5">
        <r>  0.1511  0.0177  0.0177  0.0177  0.0000  0.0000  0.0000  0.0000  0.0000 </r>
        <r>  0.1511  0.0177  0.0177  0.0177  0.0000  0.0000  0.0000  0.0000  0.0000 </r>
       </set>
       <set comment="band 6">
        <r>  0.0000  0.0597  0.0511  0.0329  0.0000  0.0000  0.0000  0.0000  0.0000 </r>
        <r>  0.0000  0.0597  0.0511  0.0329  0.0000  0.0000  0.0000  0.0000  0.0000 </r>
       </set>
       <set comment="band 7">
        <r>  0.0000  0.0361  0.0447  0.0629  0.0000  0.0000  0.0000  0.0000  0.0000 </r>
        <r>  0.0000  0.0361  0.0447  0.0629  0.0000  0.0000  0.0000  0.0000  0.0000 </r>
       </set>
       <set comment="band 8">
        <r>  0.1246  0.0479  0.0481  0.0480  0.0000  0.0000  0.0000  0.0000  0.0000 </r>
        <r>  0.1247  0.0481  0.0480  0.0480  0.0000  0.0000  0.0000  0.0000  0.0000 </r>
       </set>
      </set>
      <set comment="kpoint 143">
       <set comment="band 1">
        <r>  0.2096  0.0020  0.0020  0.0020  0.0000  0.0000  0.0000  0.0000  0.0000 </r>
        <r>  0.2096  0.0020  0.0020  0.0020  0.0000  0.0000  0.0000  0.0000  0.0000 </r>
       </set>
       <set comment="band 2">
        <r>  0.0912  0.0416  0.0416  0.0416  0.0000  0.0000  0.0000  0.0000  0.0000 </r>
        <r>  0.0912  0.0416  0.0416  0.0416  0.0000  0.0000  0.0000  0.0000  0.0000 </r>
       </set>
       <set comment="band 3">
        <r>  0.0000  0.1054  0.0000  0.1054  0.0000  0.0000  0.0000  0.0000  0.0000 </r>
        <r>  0.0000  0.1054  0.0000  0.1054  0.0000  0.0000  0.0000  0.0000  0.0000 </r>
       </set>
       <set comment="band 4">
        <r>  0.0000  0.0351  0.1405  0.0352  0.0000  0.0000  0.0000  0.0000  0.0000 </r>
        <r>  0.0000  0.0351  0.1405  0.0352  0.0000  0.0000  0.0000  0.0000  0.0000 </r>
       </set>
       <set comment="band 5">
        <r>  0.1475  0.0189  0.0189  0.0189  0.0000  0.0000  0.0000  0.0000  0.0000 </r>
        <r>  0.1475  0.0189  0.0189  0.0189  0.0000  0.0000  0.0000  0.0000  0.0000 </r>
       </set>
       <set comment="band 6">
        <r>  0.0000  0.0131  0.0605  0.0729  0.0000  0.0000  0.0000  0.0000  0.0000 </r>
        <r>  0.0000  0.0131  0.0605  0.0729  0.0000  0.0000  0.0000  0.0000  0.0000 </r>
       </set>
       <set comment="band 7">
        <r>  0.0000  0.0845  0.0372  0.0248  0.0000  0.0000  0.0000  0.0000  0.0000 </r>
        <r>  0.0000  0.0845  0.0372  0.0248  0.0000  0.0000  0.0000  0.0000  0.0000 </r>
       </set>
       <set comment="band 8">
        <r>  0.1328  0.0465  0.0465  0.0465  0.0000  0.0000  0.0000  0.0000  0.0000 </r>
        <r>  0.1328  0.0465  0.0465  0.0465  0.0000  0.0000  0.0000  0.0000  0.0000 </r>
       </set>
      </set>
      <set comment="kpoint 144">
       <set comment="band 1">
        <r>  0.2098  0.0018  0.0018  0.0018  0.0000  0.0000  0.0000  0.0000  0.0000 </r>
        <r>  0.2098  0.0018  0.0018  0.0018  0.0000  0.0000  0.0000  0.0000  0.0000 </r>
       </set>
       <set comment="band 2">
        <r>  0.0885  0.0427  0.0427  0.0427  0.0000  0.0000  0.0000  0.0000  0.0000 </r>
        <r>  0.0885  0.0427  0.0427  0.0427  0.0000  0.0000  0.0000  0.0000  0.0000 </r>
       </set>
       <set comment="band 3">
        <r>  0.0000  0.1056  0.0000  0.1050  0.0000  0.0000  0.0000  0.0000  0.0000 </r>
        <r>  0.0000  0.1056  0.0000  0.1050  0.0000  0.0000  0.0000  0.0000  0.0000 </r>
       </set>
       <set comment="band 4">
        <r>  0.0000  0.0348  0.1404  0.0354  0.0000  0.0000  0.0000  0.0000  0.0000 </r>
        <r>  0.0000  0.0348  0.1404  0.0354  0.0000  0.0000  0.0000  0.0000  0.0000 </r>
       </set>
       <set comment="band 5">
        <r>  0.1437  0.0200  0.0200  0.0200  0.0000  0.0000  0.0000  0.0000  0.0000 </r>
        <r>  0.1437  0.0200  0.0200  0.0200  0.0000  0.0000  0.0000  0.0000  0.0000 </r>
       </set>
       <set comment="band 6">
        <r>  0.0000  0.0262  0.0877  0.0349  0.0000  0.0000  0.0000  0.0000  0.0000 </r>
        <r>  0.0000  0.0262  0.0877  0.0349  0.0000  0.0000  0.0000  0.0000  0.0000 </r>
       </set>
       <set comment="band 7">
        <r>  0.0000  0.0730  0.0115  0.0643  0.0000  0.0000  0.0000  0.0000  0.0000 </r>
        <r>  0.0000  0.0730  0.0115  0.0643  0.0000  0.0000  0.0000  0.0000  0.0000 </r>
       </set>
       <set comment="band 8">
        <r>  0.1407  0.0449  0.0449  0.0449  0.0000  0.0000  0.0000  0.0000  0.0000 </r>
        <r>  0.1407  0.0449  0.0449  0.0449  0.0000  0.0000  0.0000  0.0000  0.0000 </r>
       </set>
      </set>
      <set comment="kpoint 145">
       <set comment="band 1">
        <r>  0.2100  0.0016  0.0016  0.0016  0.0000  0.0000  0.0000  0.0000  0.0000 </r>
        <r>  0.2100  0.0016  0.0016  0.0016  0.0000  0.0000  0.0000  0.0000  0.0000 </r>
       </set>
       <set comment="band 2">
        <r>  0.0855  0.0439  0.0439  0.0439  0.0000  0.0000  0.0000  0.0000  0.0000 </r>
        <r>  0.0855  0.0439  0.0439  0.0439  0.0000  0.0000  0.0000  0.0000  0.0000 </r>
       </set>
       <set comment="band 3">
        <r>  0.0000  0.1054  0.0000  0.1052  0.0000  0.0000  0.0000  0.0000  0.0000 </r>
        <r>  0.0000  0.1054  0.0000  0.1052  0.0000  0.0000  0.0000  0.0000  0.0000 </r>
       </set>
       <set comment="band 4">
        <r>  0.0000  0.0350  0.1404  0.0352  0.0000  0.0000  0.0000  0.0000  0.0000 </r>
        <r>  0.0000  0.0350  0.1404  0.0352  0.0000  0.0000  0.0000  0.0000  0.0000 </r>
       </set>
       <set comment="band 5">
        <r>  0.1396  0.0213  0.0213  0.0213  0.0000  0.0000  0.0000  0.0000  0.0000 </r>
        <r>  0.1396  0.0213  0.0213  0.0213  0.0000  0.0000  0.0000  0.0000  0.0000 </r>
       </set>
       <set comment="band 6">
        <r>  0.0000  0.1002  0.0215  0.0290  0.0000  0.0000  0.0000  0.0000  0.0000 </r>
        <r>  0.0000  0.1002  0.0215  0.0290  0.0000  0.0000  0.0000  0.0000  0.0000 </r>
       </set>
       <set comment="band 7">
        <r>  0.0000  0.0002  0.0790  0.0715  0.0000  0.0000  0.0000  0.0000  0.0000 </r>
        <r>  0.0000  0.0002  0.0790  0.0715  0.0000  0.0000  0.0000  0.0000  0.0000 </r>
       </set>
       <set comment="band 8">
        <r>  0.1486  0.0433  0.0433  0.0433  0.0000  0.0000  0.0000  0.0000  0.0000 </r>
        <r>  0.1485  0.0433  0.0433  0.0433  0.0000  0.0000  0.0000  0.0000  0.0000 </r>
       </set>
      </set>
      <set comment="kpoint 146">
       <set comment="band 1">
        <r>  0.2102  0.0014  0.0014  0.0014  0.0000  0.0000  0.0000  0.0000  0.0000 </r>
        <r>  0.2102  0.0014  0.0014  0.0014  0.0000  0.0000  0.0000  0.0000  0.0000 </r>
       </set>
       <set comment="band 2">
        <r>  0.0822  0.0452  0.0452  0.0452  0.0000  0.0000  0.0000  0.0000  0.0000 </r>
        <r>  0.0822  0.0452  0.0452  0.0452  0.0000  0.0000  0.0000  0.0000  0.0000 </r>
       </set>
       <set comment="band 3">
        <r>  0.0000  0.1037  0.0002  0.1066  0.0000  0.0000  0.0000  0.0000  0.0000 </r>
        <r>  0.0000  0.1037  0.0002  0.1066  0.0000  0.0000  0.0000  0.0000  0.0000 </r>
       </set>
       <set comment="band 4">
        <r>  0.0000  0.0366  0.1402  0.0337  0.0000  0.0000  0.0000  0.0000  0.0000 </r>
        <r>  0.0000  0.0366  0.1402  0.0337  0.0000  0.0000  0.0000  0.0000  0.0000 </r>
       </set>
       <set comment="band 5">
        <r>  0.1351  0.0226  0.0226  0.0226  0.0000  0.0000  0.0000  0.0000  0.0000 </r>
        <r>  0.1351  0.0226  0.0226  0.0226  0.0000  0.0000  0.0000  0.0000  0.0000 </r>
       </set>
       <set comment="band 6">
        <r>  0.0000  0.0383  0.0648  0.0490  0.0000  0.0000  0.0000  0.0000  0.0000 </r>
        <r>  0.0000  0.0383  0.0648  0.0490  0.0000  0.0000  0.0000  0.0000  0.0000 </r>
       </set>
       <set comment="band 7">
        <r>  0.0000  0.0631  0.0366  0.0524  0.0000  0.0000  0.0000  0.0000  0.0000 </r>
        <r>  0.0000  0.0631  0.0366  0.0524  0.0000  0.0000  0.0000  0.0000  0.0000 </r>
       </set>
       <set comment="band 8">
        <r>  0.1565  0.0416  0.0416  0.0416  0.0000  0.0000  0.0000  0.0000  0.0000 </r>
        <r>  0.1565  0.0416  0.0416  0.0416  0.0000  0.0000  0.0000  0.0000  0.0000 </r>
       </set>
      </set>
      <set comment="kpoint 147">
       <set comment="band 1">
        <r>  0.2104  0.0012  0.0012  0.0012  0.0000  0.0000  0.0000  0.0000  0.0000 </r>
        <r>  0.2104  0.0012  0.0012  0.0012  0.0000  0.0000  0.0000  0.0000  0.0000 </r>
       </set>
       <set comment="band 2">
        <r>  0.0786  0.0466  0.0466  0.0466  0.0000  0.0000  0.0000  0.0000  0.0000 </r>
        <r>  0.0786  0.0466  0.0466  0.0466  0.0000  0.0000  0.0000  0.0000  0.0000 </r>
       </set>
       <set comment="band 3">
        <r>  0.0000  0.1080  0.0001  0.1025  0.0000  0.0000  0.0000  0.0000  0.0000 </r>
        <r>  0.0000  0.1080  0.0001  0.1025  0.0000  0.0000  0.0000  0.0000  0.0000 </r>
       </set>
       <set comment="band 4">
        <r>  0.0000  0.0324  0.1403  0.0379  0.0000  0.0000  0.0000  0.0000  0.0000 </r>
        <r>  0.0000  0.0324  0.1403  0.0379  0.0000  0.0000  0.0000  0.0000  0.0000 </r>
       </set>
       <set comment="band 5">
        <r>  0.1302  0.0241  0.0241  0.0241  0.0000  0.0000  0.0000  0.0000  0.0000 </r>
        <r>  0.1302  0.0241  0.0241  0.0241  0.0000  0.0000  0.0000  0.0000  0.0000 </r>
       </set>
       <set comment="band 6">
        <r>  0.0000  0.0455  0.0884  0.0193  0.0000  0.0000  0.0000  0.0000  0.0000 </r>
        <r>  0.0000  0.0455  0.0884  0.0193  0.0000  0.0000  0.0000  0.0000  0.0000 </r>
       </set>
       <set comment="band 7">
        <r>  0.0000  0.0566  0.0137  0.0828  0.0000  0.0000  0.0000  0.0000  0.0000 </r>
        <r>  0.0000  0.0566  0.0137  0.0828  0.0000  0.0000  0.0000  0.0000  0.0000 </r>
       </set>
       <set comment="band 8">
        <r>  0.1647  0.0398  0.0398  0.0398  0.0000  0.0000  0.0000  0.0000  0.0000 </r>
        <r>  0.1647  0.0398  0.0398  0.0398  0.0000  0.0000  0.0000  0.0000  0.0000 </r>
       </set>
      </set>
      <set comment="kpoint 148">
       <set comment="band 1">
        <r>  0.2106  0.0011  0.0011  0.0011  0.0000  0.0000  0.0000  0.0000  0.0000 </r>
        <r>  0.2106  0.0011  0.0011  0.0011  0.0000  0.0000  0.0000  0.0000  0.0000 </r>
       </set>
       <set comment="band 2">
        <r>  0.0747  0.0480  0.0480  0.0480  0.0000  0.0000  0.0000  0.0000  0.0000 </r>
        <r>  0.0747  0.0480  0.0480  0.0480  0.0000  0.0000  0.0000  0.0000  0.0000 </r>
       </set>
       <set comment="band 3">
        <r>  0.0000  0.1047  0.0000  0.1060  0.0000  0.0000  0.0000  0.0000  0.0000 </r>
        <r>  0.0000  0.1047  0.0000  0.1060  0.0000  0.0000  0.0000  0.0000  0.0000 </r>
       </set>
       <set comment="band 4">
        <r>  0.0000  0.0358  0.1404  0.0345  0.0000  0.0000  0.0000  0.0000  0.0000 </r>
        <r>  0.0000  0.0358  0.1404  0.0345  0.0000  0.0000  0.0000  0.0000  0.0000 </r>
       </set>
       <set comment="band 5">
        <r>  0.1248  0.0256  0.0256  0.0256  0.0000  0.0000  0.0000  0.0000  0.0000 </r>
        <r>  0.1248  0.0256  0.0256  0.0256  0.0000  0.0000  0.0000  0.0000  0.0000 </r>
       </set>
       <set comment="band 6">
        <r>  0.0000  0.0735  0.0326  0.0478  0.0000  0.0000  0.0000  0.0000  0.0000 </r>
        <r>  0.0000  0.0735  0.0326  0.0478  0.0000  0.0000  0.0000  0.0000  0.0000 </r>
       </set>
       <set comment="band 7">
        <r>  0.0000  0.0291  0.0700  0.0548  0.0000  0.0000  0.0000  0.0000  0.0000 </r>
        <r>  0.0000  0.0291  0.0700  0.0548  0.0000  0.0000  0.0000  0.0000  0.0000 </r>
       </set>
       <set comment="band 8">
        <r>  0.1734  0.0379  0.0379  0.0379  0.0000  0.0000  0.0000  0.0000  0.0000 </r>
        <r>  0.1734  0.0379  0.0379  0.0379  0.0000  0.0000  0.0000  0.0000  0.0000 </r>
       </set>
      </set>
      <set comment="kpoint 149">
       <set comment="band 1">
        <r>  0.2108  0.0009  0.0009  0.0009  0.0000  0.0000  0.0000  0.0000  0.0000 </r>
        <r>  0.2108  0.0009  0.0009  0.0009  0.0000  0.0000  0.0000  0.0000  0.0000 </r>
       </set>
       <set comment="band 2">
        <r>  0.0703  0.0496  0.0496  0.0496  0.0000  0.0000  0.0000  0.0000  0.0000 </r>
        <r>  0.0703  0.0496  0.0496  0.0496  0.0000  0.0000  0.0000  0.0000  0.0000 </r>
       </set>
       <set comment="band 3">
        <r>  0.0000  0.1053  0.0000  0.1055  0.0000  0.0000  0.0000  0.0000  0.0000 </r>
        <r>  0.0000  0.1053  0.0000  0.1055  0.0000  0.0000  0.0000  0.0000  0.0000 </r>
       </set>
       <set comment="band 4">
        <r>  0.0000  0.0352  0.1405  0.0350  0.0000  0.0000  0.0000  0.0000  0.0000 </r>
        <r>  0.0000  0.0352  0.1405  0.0350  0.0000  0.0000  0.0000  0.0000  0.0000 </r>
       </set>
       <set comment="band 5">
        <r>  0.1187  0.0272  0.0272  0.0272  0.0000  0.0000  0.0000  0.0000  0.0000 </r>
        <r>  0.1187  0.0272  0.0272  0.0272  0.0000  0.0000  0.0000  0.0000  0.0000 </r>
       </set>
       <set comment="band 6">
        <r>  0.0000  0.0637  0.0883  0.0022  0.0000  0.0000  0.0000  0.0000  0.0000 </r>
        <r>  0.0000  0.0637  0.0883  0.0022  0.0000  0.0000  0.0000  0.0000  0.0000 </r>
       </set>
       <set comment="band 7">
        <r>  0.0000  0.0391  0.0145  0.1006  0.0000  0.0000  0.0000  0.0000  0.0000 </r>
        <r>  0.0000  0.0391  0.0145  0.1006  0.0000  0.0000  0.0000  0.0000  0.0000 </r>
       </set>
       <set comment="band 8">
        <r>  0.1828  0.0359  0.0359  0.0359  0.0000  0.0000  0.0000  0.0000  0.0000 </r>
        <r>  0.1828  0.0359  0.0359  0.0359  0.0000  0.0000  0.0000  0.0000  0.0000 </r>
       </set>
      </set>
      <set comment="kpoint 150">
       <set comment="band 1">
        <r>  0.2110  0.0007  0.0007  0.0007  0.0000  0.0000  0.0000  0.0000  0.0000 </r>
        <r>  0.2110  0.0007  0.0007  0.0007  0.0000  0.0000  0.0000  0.0000  0.0000 </r>
       </set>
       <set comment="band 2">
        <r>  0.0655  0.0512  0.0512  0.0512  0.0000  0.0000  0.0000  0.0000  0.0000 </r>
        <r>  0.0655  0.0512  0.0512  0.0512  0.0000  0.0000  0.0000  0.0000  0.0000 </r>
       </set>
       <set comment="band 3">
        <r>  0.0000  0.1066  0.0001  0.1043  0.0000  0.0000  0.0000  0.0000  0.0000 </r>
        <r>  0.0000  0.1066  0.0001  0.1043  0.0000  0.0000  0.0000  0.0000  0.0000 </r>
       </set>
       <set comment="band 4">
        <r>  0.0000  0.0340  0.1406  0.0364  0.0000  0.0000  0.0000  0.0000  0.0000 </r>
        <r>  0.0000  0.0340  0.1406  0.0364  0.0000  0.0000  0.0000  0.0000  0.0000 </r>
       </set>
       <set comment="band 5">
        <r>  0.1117  0.0290  0.0290  0.0290  0.0000  0.0000  0.0000  0.0000  0.0000 </r>
        <r>  0.1117  0.0290  0.0290  0.0290  0.0000  0.0000  0.0000  0.0000  0.0000 </r>
       </set>
       <set comment="band 6">
        <r>  0.0000  0.0148  0.0747  0.0648  0.0000  0.0000  0.0000  0.0000  0.0000 </r>
        <r>  0.0000  0.0148  0.0747  0.0648  0.0000  0.0000  0.0000  0.0000  0.0000 </r>
       </set>
       <set comment="band 7">
        <r>  0.0000  0.0880  0.0282  0.0381  0.0000  0.0000  0.0000  0.0000  0.0000 </r>
        <r>  0.0000  0.0880  0.0282  0.0381  0.0000  0.0000  0.0000  0.0000  0.0000 </r>
       </set>
       <set comment="band 8">
        <r>  0.1933  0.0336  0.0336  0.0336  0.0000  0.0000  0.0000  0.0000  0.0000 </r>
        <r>  0.1933  0.0336  0.0336  0.0336  0.0000  0.0000  0.0000  0.0000  0.0000 </r>
       </set>
      </set>
      <set comment="kpoint 151">
       <set comment="band 1">
        <r>  0.2112  0.0006  0.0006  0.0006  0.0000  0.0000  0.0000  0.0000  0.0000 </r>
        <r>  0.2112  0.0006  0.0006  0.0006  0.0000  0.0000  0.0000  0.0000  0.0000 </r>
       </set>
       <set comment="band 2">
        <r>  0.0602  0.0530  0.0530  0.0530  0.0000  0.0000  0.0000  0.0000  0.0000 </r>
        <r>  0.0602  0.0530  0.0530  0.0530  0.0000  0.0000  0.0000  0.0000  0.0000 </r>
       </set>
       <set comment="band 3">
        <r>  0.0000  0.1004  0.0003  0.1106  0.0000  0.0000  0.0000  0.0000  0.0000 </r>
        <r>  0.0000  0.1004  0.0003  0.1106  0.0000  0.0000  0.0000  0.0000  0.0000 </r>
       </set>
       <set comment="band 4">
        <r>  0.0000  0.0404  0.1406  0.0303  0.0000  0.0000  0.0000  0.0000  0.0000 </r>
        <r>  0.0000  0.0404  0.1406  0.0303  0.0000  0.0000  0.0000  0.0000  0.0000 </r>
       </set>
       <set comment="band 5">
        <r>  0.1036  0.0309  0.0309  0.0309  0.0000  0.0000  0.0000  0.0000  0.0000 </r>
        <r>  0.1036  0.0309  0.0309  0.0309  0.0000  0.0000  0.0000  0.0000  0.0000 </r>
       </set>
       <set comment="band 6">
        <r>  0.0000  0.0089  0.0518  0.0934  0.0000  0.0000  0.0000  0.0000  0.0000 </r>
        <r>  0.0000  0.0089  0.0518  0.0934  0.0000  0.0000  0.0000  0.0000  0.0000 </r>
       </set>
       <set comment="band 7">
        <r>  0.0000  0.0938  0.0509  0.0094  0.0000  0.0000  0.0000  0.0000  0.0000 </r>
        <r>  0.0000  0.0938  0.0509  0.0094  0.0000  0.0000  0.0000  0.0000  0.0000 </r>
       </set>
       <set comment="band 8">
        <r>  0.2053  0.0310  0.0310  0.0310  0.0000  0.0000  0.0000  0.0000  0.0000 </r>
        <r>  0.2053  0.0310  0.0310  0.0310  0.0000  0.0000  0.0000  0.0000  0.0000 </r>
       </set>
      </set>
      <set comment="kpoint 152">
       <set comment="band 1">
        <r>  0.2113  0.0005  0.0005  0.0005  0.0000  0.0000  0.0000  0.0000  0.0000 </r>
        <r>  0.2113  0.0005  0.0005  0.0005  0.0000  0.0000  0.0000  0.0000  0.0000 </r>
       </set>
       <set comment="band 2">
        <r>  0.0542  0.0550  0.0550  0.0550  0.0000  0.0000  0.0000  0.0000  0.0000 </r>
        <r>  0.0542  0.0550  0.0550  0.0550  0.0000  0.0000  0.0000  0.0000  0.0000 </r>
       </set>
       <set comment="band 3">
        <r>  0.0000  0.1322  0.0168  0.0625  0.0000  0.0000  0.0000  0.0000  0.0000 </r>
        <r>  0.0000  0.1322  0.0168  0.0625  0.0000  0.0000  0.0000  0.0000  0.0000 </r>
       </set>
       <set comment="band 4">
        <r>  0.0000  0.0088  0.1243  0.0785  0.0000  0.0000  0.0000  0.0000  0.0000 </r>
        <r>  0.0000  0.0088  0.1243  0.0785  0.0000  0.0000  0.0000  0.0000  0.0000 </r>
       </set>
       <set comment="band 5">
        <r>  0.0940  0.0331  0.0331  0.0331  0.0000  0.0000  0.0000  0.0000  0.0000 </r>
        <r>  0.0940  0.0331  0.0331  0.0331  0.0000  0.0000  0.0000  0.0000  0.0000 </r>
       </set>
       <set comment="band 6">
        <r>  0.0000  0.0998  0.0150  0.0390  0.0000  0.0000  0.0000  0.0000  0.0000 </r>
        <r>  0.0000  0.0998  0.0150  0.0390  0.0000  0.0000  0.0000  0.0000  0.0000 </r>
       </set>
       <set comment="band 7">
        <r>  0.0000  0.0027  0.0875  0.0635  0.0000  0.0000  0.0000  0.0000  0.0000 </r>
        <r>  0.0000  0.0027  0.0875  0.0635  0.0000  0.0000  0.0000  0.0000  0.0000 </r>
       </set>
       <set comment="band 8">
        <r>  0.2192  0.0280  0.0280  0.0280  0.0000  0.0000  0.0000  0.0000  0.0000 </r>
        <r>  0.2192  0.0280  0.0280  0.0280  0.0000  0.0000  0.0000  0.0000  0.0000 </r>
       </set>
      </set>
      <set comment="kpoint 153">
       <set comment="band 1">
        <r>  0.2115  0.0004  0.0004  0.0004  0.0000  0.0000  0.0000  0.0000  0.0000 </r>
        <r>  0.2115  0.0004  0.0004  0.0004  0.0000  0.0000  0.0000  0.0000  0.0000 </r>
       </set>
       <set comment="band 2">
        <r>  0.0476  0.0571  0.0571  0.0571  0.0000  0.0000  0.0000  0.0000  0.0000 </r>
        <r>  0.0476  0.0571  0.0571  0.0571  0.0000  0.0000  0.0000  0.0000  0.0000 </r>
       </set>
       <set comment="band 3">
        <r>  0.0000  0.0956  0.0024  0.1139  0.0000  0.0000  0.0000  0.0000  0.0000 </r>
        <r>  0.0000  0.0956  0.0024  0.1139  0.0000  0.0000  0.0000  0.0000  0.0000 </r>
       </set>
       <set comment="band 4">
        <r>  0.0000  0.0457  0.1389  0.0274  0.0000  0.0000  0.0000  0.0000  0.0000 </r>
        <r>  0.0000  0.0457  0.1389  0.0274  0.0000  0.0000  0.0000  0.0000  0.0000 </r>
       </set>
       <set comment="band 5">
        <r>  0.0825  0.0355  0.0355  0.0355  0.0000  0.0000  0.0000  0.0000  0.0000 </r>
        <r>  0.0825  0.0355  0.0355  0.0355  0.0000  0.0000  0.0000  0.0000  0.0000 </r>
       </set>
       <set comment="band 6">
        <r>  0.0000  0.0634  0.0754  0.0146  0.0000  0.0000  0.0000  0.0000  0.0000 </r>
        <r>  0.0000  0.0634  0.0754  0.0146  0.0000  0.0000  0.0000  0.0000  0.0000 </r>
       </set>
       <set comment="band 7">
        <r>  0.0000  0.0389  0.0268  0.0877  0.0000  0.0000  0.0000  0.0000  0.0000 </r>
        <r>  0.0000  0.0389  0.0268  0.0877  0.0000  0.0000  0.0000  0.0000  0.0000 </r>
       </set>
       <set comment="band 8">
        <r>  0.2358  0.0246  0.0246  0.0246  0.0000  0.0000  0.0000  0.0000  0.0000 </r>
        <r>  0.2358  0.0246  0.0246  0.0246  0.0000  0.0000  0.0000  0.0000  0.0000 </r>
       </set>
      </set>
      <set comment="kpoint 154">
       <set comment="band 1">
        <r>  0.2116  0.0003  0.0003  0.0003  0.0000  0.0000  0.0000  0.0000  0.0000 </r>
        <r>  0.2116  0.0003  0.0003  0.0003  0.0000  0.0000  0.0000  0.0000  0.0000 </r>
       </set>
       <set comment="band 2">
        <r>  0.0402  0.0594  0.0594  0.0594  0.0000  0.0000  0.0000  0.0000  0.0000 </r>
        <r>  0.0402  0.0594  0.0594  0.0594  0.0000  0.0000  0.0000  0.0000  0.0000 </r>
       </set>
       <set comment="band 3">
        <r>  0.0000  0.0778  0.0886  0.0459  0.0000  0.0000  0.0000  0.0000  0.0000 </r>
        <r>  0.0000  0.0778  0.0886  0.0459  0.0000  0.0000  0.0000  0.0000  0.0000 </r>
       </set>
       <set comment="band 4">
        <r>  0.0000  0.0637  0.0529  0.0956  0.0000  0.0000  0.0000  0.0000  0.0000 </r>
        <r>  0.0000  0.0637  0.0529  0.0956  0.0000  0.0000  0.0000  0.0000  0.0000 </r>
       </set>
       <set comment="band 5">
        <r>  0.0684  0.0383  0.0383  0.0383  0.0000  0.0000  0.0000  0.0000  0.0000 </r>
        <r>  0.0684  0.0383  0.0383  0.0383  0.0000  0.0000  0.0000  0.0000  0.0000 </r>
       </set>
       <set comment="band 6">
        <r>  0.0000  0.0233  0.0373  0.0923  0.0000  0.0000  0.0000  0.0000  0.0000 </r>
        <r>  0.0000  0.0233  0.0373  0.0923  0.0000  0.0000  0.0000  0.0000  0.0000 </r>
       </set>
       <set comment="band 7">
        <r>  0.0000  0.0786  0.0646  0.0096  0.0000  0.0000  0.0000  0.0000  0.0000 </r>
        <r>  0.0000  0.0786  0.0646  0.0096  0.0000  0.0000  0.0000  0.0000  0.0000 </r>
       </set>
       <set comment="band 8">
        <r>  0.2556  0.0206  0.0206  0.0206  0.0000  0.0000  0.0000  0.0000  0.0000 </r>
        <r>  0.2556  0.0206  0.0206  0.0206  0.0000  0.0000  0.0000  0.0000  0.0000 </r>
       </set>
      </set>
      <set comment="kpoint 155">
       <set comment="band 1">
        <r>  0.2117  0.0002  0.0002  0.0002  0.0000  0.0000  0.0000  0.0000  0.0000 </r>
        <r>  0.2117  0.0002  0.0002  0.0002  0.0000  0.0000  0.0000  0.0000  0.0000 </r>
       </set>
       <set comment="band 2">
        <r>  0.0322  0.0618  0.0618  0.0618  0.0000  0.0000  0.0000  0.0000  0.0000 </r>
        <r>  0.0322  0.0618  0.0618  0.0618  0.0000  0.0000  0.0000  0.0000  0.0000 </r>
       </set>
       <set comment="band 3">
        <r>  0.0000  0.1346  0.0121  0.0660  0.0000  0.0000  0.0000  0.0000  0.0000 </r>
        <r>  0.0000  0.1346  0.0121  0.0660  0.0000  0.0000  0.0000  0.0000  0.0000 </r>
       </set>
       <set comment="band 4">
        <r>  0.0000  0.0072  0.1297  0.0758  0.0000  0.0000  0.0000  0.0000  0.0000 </r>
        <r>  0.0000  0.0072  0.1297  0.0758  0.0000  0.0000  0.0000  0.0000  0.0000 </r>
       </set>
       <set comment="band 5">
        <r>  0.0515  0.0414  0.0414  0.0414  0.0000  0.0000  0.0000  0.0000  0.0000 </r>
        <r>  0.0515  0.0414  0.0414  0.0414  0.0000  0.0000  0.0000  0.0000  0.0000 </r>
       </set>
       <set comment="band 6">
        <r>  0.0000  0.0931  0.0433  0.0160  0.0000  0.0000  0.0000  0.0000  0.0000 </r>
        <r>  0.0000  0.0931  0.0433  0.0160  0.0000  0.0000  0.0000  0.0000  0.0000 </r>
       </set>
       <set comment="band 7">
        <r>  0.0000  0.0085  0.0582  0.0856  0.0000  0.0000  0.0000  0.0000  0.0000 </r>
        <r>  0.0000  0.0085  0.0582  0.0856  0.0000  0.0000  0.0000  0.0000  0.0000 </r>
       </set>
       <set comment="band 8">
        <r>  0.2790  0.0159  0.0159  0.0159  0.0000  0.0000  0.0000  0.0000  0.0000 </r>
        <r>  0.2790  0.0159  0.0159  0.0159  0.0000  0.0000  0.0000  0.0000  0.0000 </r>
       </set>
      </set>
      <set comment="kpoint 156">
       <set comment="band 1">
        <r>  0.2118  0.0001  0.0001  0.0001  0.0000  0.0000  0.0000  0.0000  0.0000 </r>
        <r>  0.2118  0.0001  0.0001  0.0001  0.0000  0.0000  0.0000  0.0000  0.0000 </r>
       </set>
       <set comment="band 2">
        <r>  0.0237  0.0644  0.0644  0.0644  0.0000  0.0000  0.0000  0.0000  0.0000 </r>
        <r>  0.0237  0.0644  0.0644  0.0644  0.0000  0.0000  0.0000  0.0000  0.0000 </r>
       </set>
       <set comment="band 3">
        <r>  0.0000  0.1078  0.0334  0.0718  0.0000  0.0000  0.0000  0.0000  0.0000 </r>
        <r>  0.0000  0.1078  0.0334  0.0718  0.0000  0.0000  0.0000  0.0000  0.0000 </r>
       </set>
       <set comment="band 4">
        <r>  0.0000  0.0342  0.1086  0.0702  0.0000  0.0000  0.0000  0.0000  0.0000 </r>
        <r>  0.0000  0.0342  0.1086  0.0702  0.0000  0.0000  0.0000  0.0000  0.0000 </r>
       </set>
       <set comment="band 5">
        <r>  0.0329  0.0447  0.0447  0.0447  0.0000  0.0000  0.0000  0.0000  0.0000 </r>
        <r>  0.0329  0.0447  0.0447  0.0447  0.0000  0.0000  0.0000  0.0000  0.0000 </r>
       </set>
       <set comment="band 6">
        <r>  0.0000  0.0163  0.0399  0.0956  0.0000  0.0000  0.0000  0.0000  0.0000 </r>
        <r>  0.0000  0.0163  0.0399  0.0956  0.0000  0.0000  0.0000  0.0000  0.0000 </r>
       </set>
       <set comment="band 7">
        <r>  0.0000  0.0849  0.0613  0.0056  0.0000  0.0000  0.0000  0.0000  0.0000 </r>
        <r>  0.0000  0.0849  0.0613  0.0056  0.0000  0.0000  0.0000  0.0000  0.0000 </r>
       </set>
       <set comment="band 8">
        <r>  0.3048  0.0109  0.0109  0.0109  0.0000  0.0000  0.0000  0.0000  0.0000 </r>
        <r>  0.3048  0.0109  0.0109  0.0109  0.0000  0.0000  0.0000  0.0000  0.0000 </r>
       </set>
      </set>
      <set comment="kpoint 157">
       <set comment="band 1">
        <r>  0.2119  0.0001  0.0001  0.0001  0.0000  0.0000  0.0000  0.0000  0.0000 </r>
        <r>  0.2119  0.0001  0.0001  0.0001  0.0000  0.0000  0.0000  0.0000  0.0000 </r>
       </set>
       <set comment="band 2">
        <r>  0.0151  0.0669  0.0669  0.0669  0.0000  0.0000  0.0000  0.0000  0.0000 </r>
        <r>  0.0151  0.0669  0.0669  0.0669  0.0000  0.0000  0.0000  0.0000  0.0000 </r>
       </set>
       <set comment="band 3">
        <r>  0.0000  0.1390  0.0213  0.0530  0.0000  0.0000  0.0000  0.0000  0.0000 </r>
        <r>  0.0000  0.1390  0.0213  0.0530  0.0000  0.0000  0.0000  0.0000  0.0000 </r>
       </set>
       <set comment="band 4">
        <r>  0.0000  0.0032  0.1209  0.0892  0.0000  0.0000  0.0000  0.0000  0.0000 </r>
        <r>  0.0000  0.0032  0.1209  0.0892  0.0000  0.0000  0.0000  0.0000  0.0000 </r>
       </set>
       <set comment="band 5">
        <r>  0.0157  0.0477  0.0477  0.0477  0.0000  0.0000  0.0000  0.0000  0.0000 </r>
        <r>  0.0157  0.0477  0.0477  0.0477  0.0000  0.0000  0.0000  0.0000  0.0000 </r>
       </set>
       <set comment="band 6">
        <r>  0.0000  0.0900  0.0197  0.0417  0.0000  0.0000  0.0000  0.0000  0.0000 </r>
        <r>  0.0000  0.0900  0.0197  0.0417  0.0000  0.0000  0.0000  0.0000  0.0000 </r>
       </set>
       <set comment="band 7">
        <r>  0.0000  0.0110  0.0812  0.0592  0.0000  0.0000  0.0000  0.0000  0.0000 </r>
        <r>  0.0000  0.0110  0.0812  0.0592  0.0000  0.0000  0.0000  0.0000  0.0000 </r>
       </set>
       <set comment="band 8">
        <r>  0.3293  0.0061  0.0061  0.0061  0.0000  0.0000  0.0000  0.0000  0.0000 </r>
        <r>  0.3294  0.0061  0.0061  0.0061  0.0000  0.0000  0.0000  0.0000  0.0000 </r>
       </set>
      </set>
      <set comment="kpoint 158">
       <set comment="band 1">
        <r>  0.2119  0.0000  0.0000  0.0000  0.0000  0.0000  0.0000  0.0000  0.0000 </r>
        <r>  0.2119  0.0000  0.0000  0.0000  0.0000  0.0000  0.0000  0.0000  0.0000 </r>
       </set>
       <set comment="band 2">
        <r>  0.0075  0.0691  0.0691  0.0691  0.0000  0.0000  0.0000  0.0000  0.0000 </r>
        <r>  0.0075  0.0691  0.0691  0.0691  0.0000  0.0000  0.0000  0.0000  0.0000 </r>
       </set>
       <set comment="band 3">
        <r>  0.0000  0.0434  0.1071  0.0631  0.0000  0.0000  0.0000  0.0000  0.0000 </r>
        <r>  0.0000  0.0434  0.1071  0.0631  0.0000  0.0000  0.0000  0.0000  0.0000 </r>
       </set>
       <set comment="band 4">
        <r>  0.0000  0.0990  0.0353  0.0793  0.0000  0.0000  0.0000  0.0000  0.0000 </r>
        <r>  0.0000  0.0990  0.0353  0.0793  0.0000  0.0000  0.0000  0.0000  0.0000 </r>
       </set>
       <set comment="band 5">
        <r>  0.0000  0.0018  0.0860  0.0632  0.0000  0.0000  0.0000  0.0000  0.0000 </r>
        <r>  0.0000  0.0018  0.0860  0.0632  0.0000  0.0000  0.0000  0.0000  0.0000 </r>
       </set>
       <set comment="band 6">
        <r>  0.0000  0.0989  0.0146  0.0375  0.0000  0.0000  0.0000  0.0000  0.0000 </r>
        <r>  0.0000  0.0989  0.0146  0.0375  0.0000  0.0000  0.0000  0.0000  0.0000 </r>
       </set>
       <set comment="band 7">
        <r>  0.0045  0.0495  0.0495  0.0495  0.0000  0.0000  0.0000  0.0000  0.0000 </r>
        <r>  0.0045  0.0495  0.0495  0.0495  0.0000  0.0000  0.0000  0.0000  0.0000 </r>
       </set>
       <set comment="band 8">
        <r>  0.3473  0.0024  0.0024  0.0024  0.0000  0.0000  0.0000  0.0000  0.0000 </r>
        <r>  0.3473  0.0024  0.0024  0.0024  0.0000  0.0000  0.0000  0.0000  0.0000 </r>
       </set>
      </set>
      <set comment="kpoint 159">
       <set comment="band 1">
        <r>  0.2119  0.0000  0.0000  0.0000  0.0000  0.0000  0.0000  0.0000  0.0000 </r>
        <r>  0.2119  0.0000  0.0000  0.0000  0.0000  0.0000  0.0000  0.0000  0.0000 </r>
       </set>
       <set comment="band 2">
        <r>  0.0020  0.0707  0.0707  0.0707  0.0000  0.0000  0.0000  0.0000  0.0000 </r>
        <r>  0.0020  0.0707  0.0707  0.0707  0.0000  0.0000  0.0000  0.0000  0.0000 </r>
       </set>
       <set comment="band 3">
        <r>  0.0000  0.1112  0.0002  0.1024  0.0000  0.0000  0.0000  0.0000  0.0000 </r>
        <r>  0.0000  0.1112  0.0002  0.1024  0.0000  0.0000  0.0000  0.0000  0.0000 </r>
       </set>
       <set comment="band 4">
        <r>  0.0000  0.0314  0.1423  0.0401  0.0000  0.0000  0.0000  0.0000  0.0000 </r>
        <r>  0.0000  0.0314  0.1423  0.0401  0.0000  0.0000  0.0000  0.0000  0.0000 </r>
       </set>
       <set comment="band 5">
        <r>  0.0000  0.0367  0.0772  0.0369  0.0000  0.0000  0.0000  0.0000  0.0000 </r>
        <r>  0.0000  0.0367  0.0772  0.0369  0.0000  0.0000  0.0000  0.0000  0.0000 </r>
       </set>
       <set comment="band 6">
        <r>  0.0000  0.0638  0.0233  0.0637  0.0000  0.0000  0.0000  0.0000  0.0000 </r>
        <r>  0.0000  0.0638  0.0233  0.0637  0.0000  0.0000  0.0000  0.0000  0.0000 </r>
       </set>
       <set comment="band 7">
        <r>  0.0005  0.0502  0.0502  0.0502  0.0000  0.0000  0.0000  0.0000  0.0000 </r>
        <r>  0.0005  0.0502  0.0502  0.0502  0.0000  0.0000  0.0000  0.0000  0.0000 </r>
       </set>
       <set comment="band 8">
        <r>  0.3563  0.0005  0.0005  0.0005  0.0000  0.0000  0.0000  0.0000  0.0000 </r>
        <r>  0.3563  0.0005  0.0005  0.0005  0.0000  0.0000  0.0000  0.0000  0.0000 </r>
       </set>
      </set>
      <set comment="kpoint 160">
       <set comment="band 1">
        <r>  0.2120  0.0000  0.0000  0.0000  0.0000  0.0000  0.0000  0.0000  0.0000 </r>
        <r>  0.2120  0.0000  0.0000  0.0000  0.0000  0.0000  0.0000  0.0000  0.0000 </r>
       </set>
       <set comment="band 2">
        <r>  0.0000  0.0713  0.0713  0.0713  0.0000  0.0000  0.0000  0.0000  0.0000 </r>
        <r>  0.0000  0.0713  0.0713  0.0713  0.0000  0.0000  0.0000  0.0000  0.0000 </r>
       </set>
       <set comment="band 3">
        <r>  0.0000  0.1069  0.0000  0.1069  0.0000  0.0000  0.0000  0.0000  0.0000 </r>
        <r>  0.0000  0.1069  0.0000  0.1069  0.0000  0.0000  0.0000  0.0000  0.0000 </r>
       </set>
       <set comment="band 4">
        <r>  0.0000  0.0356  0.1425  0.0357  0.0000  0.0000  0.0000  0.0000  0.0000 </r>
        <r>  0.0000  0.0356  0.1425  0.0357  0.0000  0.0000  0.0000  0.0000  0.0000 </r>
       </set>
       <set comment="band 5">
        <r>  0.0000  0.0502  0.0508  0.0497  0.0000  0.0000  0.0000  0.0000  0.0000 </r>
        <r>  0.0000  0.0502  0.0508  0.0497  0.0000  0.0000  0.0000  0.0000  0.0000 </r>
       </set>
       <set comment="band 6">
        <r>  0.0000  0.0018  0.0682  0.0807  0.0000  0.0000  0.0000  0.0000  0.0000 </r>
        <r>  0.0000  0.0018  0.0682  0.0807  0.0000  0.0000  0.0000  0.0000  0.0000 </r>
       </set>
       <set comment="band 7">
        <r>  0.0000  0.0987  0.0317  0.0204  0.0000  0.0000  0.0000  0.0000  0.0000 </r>
        <r>  0.0000  0.0987  0.0317  0.0204  0.0000  0.0000  0.0000  0.0000  0.0000 </r>
       </set>
       <set comment="band 8">
        <r>  0.3586  0.0000  0.0000  0.0000  0.0000  0.0000  0.0000  0.0000  0.0000 </r>
        <r>  0.3586  0.0000  0.0000  0.0000  0.0000  0.0000  0.0000  0.0000  0.0000 </r>
       </set>
      </set>
      <set comment="kpoint 161">
       <set comment="band 1">
        <r>  0.2120  0.0000  0.0000  0.0000  0.0000  0.0000  0.0000  0.0000  0.0000 </r>
        <r>  0.2120  0.0000  0.0000  0.0000  0.0000  0.0000  0.0000  0.0000  0.0000 </r>
       </set>
       <set comment="band 2">
        <r>  0.0000  0.0696  0.0718  0.0725  0.0000  0.0000  0.0000  0.0000  0.0000 </r>
        <r>  0.0000  0.0696  0.0718  0.0725  0.0000  0.0000  0.0000  0.0000  0.0000 </r>
       </set>
       <set comment="band 3">
        <r>  0.0000  0.0934  0.1148  0.0056  0.0000  0.0000  0.0000  0.0000  0.0000 </r>
        <r>  0.0000  0.0934  0.1148  0.0056  0.0000  0.0000  0.0000  0.0000  0.0000 </r>
       </set>
       <set comment="band 4">
        <r>  0.0000  0.0509  0.0272  0.1357  0.0000  0.0000  0.0000  0.0000  0.0000 </r>
        <r>  0.0000  0.0509  0.0272  0.1357  0.0000  0.0000  0.0000  0.0000  0.0000 </r>
       </set>
       <set comment="band 5">
        <r>  0.0000  0.0165  0.1174  0.0168  0.0000  0.0000  0.0000  0.0000  0.0000 </r>
        <r>  0.0000  0.0165  0.1174  0.0168  0.0000  0.0000  0.0000  0.0000  0.0000 </r>
       </set>
       <set comment="band 6">
        <r>  0.0000  0.0072  0.0237  0.1198  0.0000  0.0000  0.0000  0.0000  0.0000 </r>
        <r>  0.0000  0.0072  0.0237  0.1198  0.0000  0.0000  0.0000  0.0000  0.0000 </r>
       </set>
       <set comment="band 7">
        <r>  0.0000  0.1270  0.0097  0.0140  0.0000  0.0000  0.0000  0.0000  0.0000 </r>
        <r>  0.0000  0.1270  0.0097  0.0140  0.0000  0.0000  0.0000  0.0000  0.0000 </r>
       </set>
       <set comment="band 8">
        <r>  0.3586  0.0000  0.0000  0.0000  0.0000  0.0000  0.0000  0.0000  0.0000 </r>
        <r>  0.3586  0.0000  0.0000  0.0000  0.0000  0.0000  0.0000  0.0000  0.0000 </r>
       </set>
      </set>
      <set comment="kpoint 162">
       <set comment="band 1">
        <r>  0.2119  0.0000  0.0000  0.0000  0.0000  0.0000  0.0000  0.0000  0.0000 </r>
        <r>  0.2119  0.0000  0.0000  0.0000  0.0000  0.0000  0.0000  0.0000  0.0000 </r>
       </set>
       <set comment="band 2">
        <r>  0.0030  0.1052  0.0011  0.1052  0.0000  0.0000  0.0000  0.0000  0.0000 </r>
        <r>  0.0030  0.1052  0.0011  0.1052  0.0000  0.0000  0.0000  0.0000  0.0000 </r>
       </set>
       <set comment="band 3">
        <r>  0.0000  0.0005  0.2124  0.0005  0.0000  0.0000  0.0000  0.0000  0.0000 </r>
        <r>  0.0000  0.0005  0.2124  0.0005  0.0000  0.0000  0.0000  0.0000  0.0000 </r>
       </set>
       <set comment="band 4">
        <r>  0.0000  0.1069  0.0000  0.1069  0.0000  0.0000  0.0000  0.0000  0.0000 </r>
        <r>  0.0000  0.1069  0.0000  0.1069  0.0000  0.0000  0.0000  0.0000  0.0000 </r>
       </set>
       <set comment="band 5">
        <r>  0.0000  0.0754  0.0000  0.0754  0.0000  0.0000  0.0000  0.0000  0.0000 </r>
        <r>  0.0000  0.0754  0.0000  0.0754  0.0000  0.0000  0.0000  0.0000  0.0000 </r>
       </set>
       <set comment="band 6">
        <r>  0.0003  0.0745  0.0015  0.0745  0.0000  0.0000  0.0000  0.0000  0.0000 </r>
        <r>  0.0003  0.0745  0.0015  0.0745  0.0000  0.0000  0.0000  0.0000  0.0000 </r>
       </set>
       <set comment="band 7">
        <r>  0.0004  0.0007  0.1495  0.0007  0.0000  0.0000  0.0000  0.0000  0.0000 </r>
        <r>  0.0004  0.0007  0.1495  0.0007  0.0000  0.0000  0.0000  0.0000  0.0000 </r>
       </set>
       <set comment="band 8">
        <r>  0.3551  0.0012  0.0001  0.0012  0.0000  0.0000  0.0000  0.0000  0.0000 </r>
        <r>  0.3551  0.0012  0.0001  0.0012  0.0000  0.0000  0.0000  0.0000  0.0000 </r>
       </set>
      </set>
      <set comment="kpoint 163">
       <set comment="band 1">
        <r>  0.2119  0.0001  0.0000  0.0001  0.0000  0.0000  0.0000  0.0000  0.0000 </r>
        <r>  0.2119  0.0001  0.0000  0.0001  0.0000  0.0000  0.0000  0.0000  0.0000 </r>
       </set>
       <set comment="band 2">
        <r>  0.0109  0.1006  0.0038  0.1006  0.0000  0.0000  0.0000  0.0000  0.0000 </r>
        <r>  0.0109  0.1006  0.0038  0.1006  0.0000  0.0000  0.0000  0.0000  0.0000 </r>
       </set>
       <set comment="band 3">
        <r>  0.0000  0.0021  0.2082  0.0021  0.0000  0.0000  0.0000  0.0000  0.0000 </r>
        <r>  0.0000  0.0021  0.2082  0.0021  0.0000  0.0000  0.0000  0.0000  0.0000 </r>
       </set>
       <set comment="band 4">
        <r>  0.0000  0.1070  0.0000  0.1070  0.0000  0.0000  0.0000  0.0000  0.0000 </r>
        <r>  0.0000  0.1070  0.0000  0.1070  0.0000  0.0000  0.0000  0.0000  0.0000 </r>
       </set>
       <set comment="band 5">
        <r>  0.0000  0.0753  0.0000  0.0753  0.0000  0.0000  0.0000  0.0000  0.0000 </r>
        <r>  0.0000  0.0753  0.0000  0.0753  0.0000  0.0000  0.0000  0.0000  0.0000 </r>
       </set>
       <set comment="band 6">
        <r>  0.0014  0.0721  0.0057  0.0721  0.0000  0.0000  0.0000  0.0000  0.0000 </r>
        <r>  0.0014  0.0721  0.0057  0.0721  0.0000  0.0000  0.0000  0.0000  0.0000 </r>
       </set>
       <set comment="band 7">
        <r>  0.0059  0.0018  0.1453  0.0018  0.0000  0.0000  0.0000  0.0000  0.0000 </r>
        <r>  0.0059  0.0018  0.1453  0.0018  0.0000  0.0000  0.0000  0.0000  0.0000 </r>
       </set>
       <set comment="band 8">
        <r>  0.3415  0.0048  0.0015  0.0048  0.0000  0.0000  0.0000  0.0000  0.0000 </r>
        <r>  0.3415  0.0048  0.0015  0.0048  0.0000  0.0000  0.0000  0.0000  0.0000 </r>
       </set>
      </set>
      <set comment="kpoint 164">
       <set comment="band 1">
        <r>  0.2118  0.0002  0.0000  0.0002  0.0000  0.0000  0.0000  0.0000  0.0000 </r>
        <r>  0.2118  0.0002  0.0000  0.0002  0.0000  0.0000  0.0000  0.0000  0.0000 </r>
       </set>
       <set comment="band 2">
        <r>  0.0214  0.0945  0.0074  0.0945  0.0000  0.0000  0.0000  0.0000  0.0000 </r>
        <r>  0.0214  0.0945  0.0074  0.0945  0.0000  0.0000  0.0000  0.0000  0.0000 </r>
       </set>
       <set comment="band 3">
        <r>  0.0001  0.0045  0.2018  0.0045  0.0000  0.0000  0.0000  0.0000  0.0000 </r>
        <r>  0.0001  0.0045  0.2018  0.0045  0.0000  0.0000  0.0000  0.0000  0.0000 </r>
       </set>
       <set comment="band 4">
        <r>  0.0000  0.1071  0.0000  0.1071  0.0000  0.0000  0.0000  0.0000  0.0000 </r>
        <r>  0.0000  0.1071  0.0000  0.1071  0.0000  0.0000  0.0000  0.0000  0.0000 </r>
       </set>
       <set comment="band 5">
        <r>  0.0000  0.0753  0.0000  0.0753  0.0000  0.0000  0.0000  0.0000  0.0000 </r>
        <r>  0.0000  0.0753  0.0000  0.0753  0.0000  0.0000  0.0000  0.0000  0.0000 </r>
       </set>
       <set comment="band 6">
        <r>  0.0029  0.0684  0.0122  0.0684  0.0000  0.0000  0.0000  0.0000  0.0000 </r>
        <r>  0.0029  0.0684  0.0122  0.0684  0.0000  0.0000  0.0000  0.0000  0.0000 </r>
       </set>
       <set comment="band 7">
        <r>  0.0211  0.0023  0.1378  0.0023  0.0000  0.0000  0.0000  0.0000  0.0000 </r>
        <r>  0.0211  0.0023  0.1378  0.0023  0.0000  0.0000  0.0000  0.0000  0.0000 </r>
       </set>
       <set comment="band 8">
        <r>  0.3153  0.0107  0.0053  0.0107  0.0000  0.0000  0.0000  0.0000  0.0000 </r>
        <r>  0.3153  0.0107  0.0053  0.0107  0.0000  0.0000  0.0000  0.0000  0.0000 </r>
       </set>
      </set>
      <set comment="kpoint 165">
       <set comment="band 1">
        <r>  0.2117  0.0003  0.0000  0.0003  0.0000  0.0000  0.0000  0.0000  0.0000 </r>
        <r>  0.2117  0.0003  0.0000  0.0003  0.0000  0.0000  0.0000  0.0000  0.0000 </r>
       </set>
       <set comment="band 2">
        <r>  0.0327  0.0881  0.0110  0.0881  0.0000  0.0000  0.0000  0.0000  0.0000 </r>
        <r>  0.0327  0.0881  0.0110  0.0881  0.0000  0.0000  0.0000  0.0000  0.0000 </r>
       </set>
       <set comment="band 3">
        <r>  0.0002  0.0073  0.1939  0.0073  0.0000  0.0000  0.0000  0.0000  0.0000 </r>
        <r>  0.0002  0.0073  0.1939  0.0073  0.0000  0.0000  0.0000  0.0000  0.0000 </r>
       </set>
       <set comment="band 4">
        <r>  0.0000  0.1073  0.0000  0.1073  0.0000  0.0000  0.0000  0.0000  0.0000 </r>
        <r>  0.0000  0.1073  0.0000  0.1073  0.0000  0.0000  0.0000  0.0000  0.0000 </r>
       </set>
       <set comment="band 5">
        <r>  0.0000  0.0753  0.0000  0.0753  0.0000  0.0000  0.0000  0.0000  0.0000 </r>
        <r>  0.0000  0.0753  0.0000  0.0753  0.0000  0.0000  0.0000  0.0000  0.0000 </r>
       </set>
       <set comment="band 6">
        <r>  0.0049  0.0638  0.0202  0.0638  0.0000  0.0000  0.0000  0.0000  0.0000 </r>
        <r>  0.0049  0.0638  0.0202  0.0638  0.0000  0.0000  0.0000  0.0000  0.0000 </r>
       </set>
       <set comment="band 7">
        <r>  0.0424  0.0021  0.1289  0.0021  0.0000  0.0000  0.0000  0.0000  0.0000 </r>
        <r>  0.0424  0.0021  0.1289  0.0021  0.0000  0.0000  0.0000  0.0000  0.0000 </r>
       </set>
       <set comment="band 8">
        <r>  0.2821  0.0178  0.0104  0.0178  0.0000  0.0000  0.0000  0.0000  0.0000 </r>
        <r>  0.2821  0.0178  0.0104  0.0178  0.0000  0.0000  0.0000  0.0000  0.0000 </r>
       </set>
      </set>
      <set comment="kpoint 166">
       <set comment="band 1">
        <r>  0.2116  0.0004  0.0000  0.0004  0.0000  0.0000  0.0000  0.0000  0.0000 </r>
        <r>  0.2116  0.0004  0.0000  0.0004  0.0000  0.0000  0.0000  0.0000  0.0000 </r>
       </set>
       <set comment="band 2">
        <r>  0.0436  0.0820  0.0142  0.0820  0.0000  0.0000  0.0000  0.0000  0.0000 </r>
        <r>  0.0436  0.0820  0.0142  0.0820  0.0000  0.0000  0.0000  0.0000  0.0000 </r>
       </set>
       <set comment="band 3">
        <r>  0.0005  0.0105  0.1850  0.0105  0.0000  0.0000  0.0000  0.0000  0.0000 </r>
        <r>  0.0005  0.0105  0.1850  0.0105  0.0000  0.0000  0.0000  0.0000  0.0000 </r>
       </set>
       <set comment="band 4">
        <r>  0.0000  0.1075  0.0000  0.1075  0.0000  0.0000  0.0000  0.0000  0.0000 </r>
        <r>  0.0000  0.1075  0.0000  0.1075  0.0000  0.0000  0.0000  0.0000  0.0000 </r>
       </set>
       <set comment="band 5">
        <r>  0.0000  0.0753  0.0000  0.0753  0.0000  0.0000  0.0000  0.0000  0.0000 </r>
        <r>  0.0000  0.0753  0.0000  0.0753  0.0000  0.0000  0.0000  0.0000  0.0000 </r>
       </set>
       <set comment="band 6">
        <r>  0.0072  0.0586  0.0290  0.0586  0.0000  0.0000  0.0000  0.0000  0.0000 </r>
        <r>  0.0072  0.0586  0.0290  0.0586  0.0000  0.0000  0.0000  0.0000  0.0000 </r>
       </set>
       <set comment="band 7">
        <r>  0.0625  0.0015  0.1210  0.0015  0.0000  0.0000  0.0000  0.0000  0.0000 </r>
        <r>  0.0625  0.0015  0.1210  0.0015  0.0000  0.0000  0.0000  0.0000  0.0000 </r>
       </set>
       <set comment="band 8">
        <r>  0.2501  0.0251  0.0148  0.0251  0.0000  0.0000  0.0000  0.0000  0.0000 </r>
        <r>  0.2502  0.0251  0.0148  0.0251  0.0000  0.0000  0.0000  0.0000  0.0000 </r>
       </set>
      </set>
      <set comment="kpoint 167">
       <set comment="band 1">
        <r>  0.2114  0.0006  0.0000  0.0006  0.0000  0.0000  0.0000  0.0000  0.0000 </r>
        <r>  0.2114  0.0006  0.0000  0.0006  0.0000  0.0000  0.0000  0.0000  0.0000 </r>
       </set>
       <set comment="band 2">
        <r>  0.0537  0.0764  0.0171  0.0764  0.0000  0.0000  0.0000  0.0000  0.0000 </r>
        <r>  0.0537  0.0764  0.0171  0.0764  0.0000  0.0000  0.0000  0.0000  0.0000 </r>
       </set>
       <set comment="band 3">
        <r>  0.0010  0.0136  0.1759  0.0136  0.0000  0.0000  0.0000  0.0000  0.0000 </r>
        <r>  0.0010  0.0136  0.1759  0.0136  0.0000  0.0000  0.0000  0.0000  0.0000 </r>
       </set>
       <set comment="band 4">
        <r>  0.0000  0.1077  0.0000  0.1077  0.0000  0.0000  0.0000  0.0000  0.0000 </r>
        <r>  0.0000  0.1077  0.0000  0.1077  0.0000  0.0000  0.0000  0.0000  0.0000 </r>
       </set>
       <set comment="band 5">
        <r>  0.0000  0.0753  0.0000  0.0753  0.0000  0.0000  0.0000  0.0000  0.0000 </r>
        <r>  0.0000  0.0753  0.0000  0.0753  0.0000  0.0000  0.0000  0.0000  0.0000 </r>
       </set>
       <set comment="band 6">
        <r>  0.0097  0.0531  0.0381  0.0531  0.0000  0.0000  0.0000  0.0000  0.0000 </r>
        <r>  0.0097  0.0531  0.0381  0.0531  0.0000  0.0000  0.0000  0.0000  0.0000 </r>
       </set>
       <set comment="band 7">
        <r>  0.0782  0.0010  0.1149  0.0010  0.0000  0.0000  0.0000  0.0000  0.0000 </r>
        <r>  0.0782  0.0010  0.1149  0.0010  0.0000  0.0000  0.0000  0.0000  0.0000 </r>
       </set>
       <set comment="band 8">
        <r>  0.2229  0.0319  0.0175  0.0319  0.0000  0.0000  0.0000  0.0000  0.0000 </r>
        <r>  0.2229  0.0319  0.0175  0.0319  0.0000  0.0000  0.0000  0.0000  0.0000 </r>
       </set>
      </set>
      <set comment="kpoint 168">
       <set comment="band 1">
        <r>  0.2112  0.0008  0.0000  0.0008  0.0000  0.0000  0.0000  0.0000  0.0000 </r>
        <r>  0.2112  0.0008  0.0000  0.0008  0.0000  0.0000  0.0000  0.0000  0.0000 </r>
       </set>
       <set comment="band 2">
        <r>  0.0629  0.0714  0.0196  0.0714  0.0000  0.0000  0.0000  0.0000  0.0000 </r>
        <r>  0.0629  0.0714  0.0196  0.0714  0.0000  0.0000  0.0000  0.0000  0.0000 </r>
       </set>
       <set comment="band 3">
        <r>  0.0015  0.0165  0.1669  0.0165  0.0000  0.0000  0.0000  0.0000  0.0000 </r>
        <r>  0.0015  0.0165  0.1669  0.0165  0.0000  0.0000  0.0000  0.0000  0.0000 </r>
       </set>
       <set comment="band 4">
        <r>  0.0000  0.1080  0.0000  0.1080  0.0000  0.0000  0.0000  0.0000  0.0000 </r>
        <r>  0.0000  0.1080  0.0000  0.1080  0.0000  0.0000  0.0000  0.0000  0.0000 </r>
       </set>
       <set comment="band 5">
        <r>  0.0000  0.0752  0.0000  0.0752  0.0000  0.0000  0.0000  0.0000  0.0000 </r>
        <r>  0.0000  0.0752  0.0000  0.0752  0.0000  0.0000  0.0000  0.0000  0.0000 </r>
       </set>
       <set comment="band 6">
        <r>  0.0896  0.0006  0.1104  0.0006  0.0000  0.0000  0.0000  0.0000  0.0000 </r>
        <r>  0.0896  0.0006  0.1104  0.0006  0.0000  0.0000  0.0000  0.0000  0.0000 </r>
       </set>
       <set comment="band 7">
        <r>  0.0122  0.0477  0.0470  0.0477  0.0000  0.0000  0.0000  0.0000  0.0000 </r>
        <r>  0.0122  0.0477  0.0470  0.0477  0.0000  0.0000  0.0000  0.0000  0.0000 </r>
       </set>
       <set comment="band 8">
        <r>  0.2003  0.0380  0.0187  0.0380  0.0000  0.0000  0.0000  0.0000  0.0000 </r>
        <r>  0.2004  0.0380  0.0187  0.0380  0.0000  0.0000  0.0000  0.0000  0.0000 </r>
       </set>
      </set>
      <set comment="kpoint 169">
       <set comment="band 1">
        <r>  0.2110  0.0011  0.0000  0.0011  0.0000  0.0000  0.0000  0.0000  0.0000 </r>
        <r>  0.2110  0.0011  0.0000  0.0011  0.0000  0.0000  0.0000  0.0000  0.0000 </r>
       </set>
       <set comment="band 2">
        <r>  0.0713  0.0669  0.0217  0.0669  0.0000  0.0000  0.0000  0.0000  0.0000 </r>
        <r>  0.0713  0.0669  0.0217  0.0669  0.0000  0.0000  0.0000  0.0000  0.0000 </r>
       </set>
       <set comment="band 3">
        <r>  0.0023  0.0192  0.1582  0.0192  0.0000  0.0000  0.0000  0.0000  0.0000 </r>
        <r>  0.0023  0.0192  0.1582  0.0192  0.0000  0.0000  0.0000  0.0000  0.0000 </r>
       </set>
       <set comment="band 4">
        <r>  0.0000  0.1083  0.0000  0.1083  0.0000  0.0000  0.0000  0.0000  0.0000 </r>
        <r>  0.0000  0.1083  0.0000  0.1083  0.0000  0.0000  0.0000  0.0000  0.0000 </r>
       </set>
       <set comment="band 5">
        <r>  0.0000  0.0752  0.0000  0.0752  0.0000  0.0000  0.0000  0.0000  0.0000 </r>
        <r>  0.0000  0.0752  0.0000  0.0752  0.0000  0.0000  0.0000  0.0000  0.0000 </r>
       </set>
       <set comment="band 6">
        <r>  0.0975  0.0004  0.1072  0.0004  0.0000  0.0000  0.0000  0.0000  0.0000 </r>
        <r>  0.0975  0.0004  0.1072  0.0004  0.0000  0.0000  0.0000  0.0000  0.0000 </r>
       </set>
       <set comment="band 7">
        <r>  0.0147  0.0424  0.0554  0.0424  0.0000  0.0000  0.0000  0.0000  0.0000 </r>
        <r>  0.0147  0.0424  0.0554  0.0424  0.0000  0.0000  0.0000  0.0000  0.0000 </r>
       </set>
       <set comment="band 8">
        <r>  0.1812  0.0436  0.0185  0.0436  0.0000  0.0000  0.0000  0.0000  0.0000 </r>
        <r>  0.1812  0.0436  0.0185  0.0436  0.0000  0.0000  0.0000  0.0000  0.0000 </r>
       </set>
      </set>
      <set comment="kpoint 170">
       <set comment="band 1">
        <r>  0.2108  0.0014  0.0000  0.0014  0.0000  0.0000  0.0000  0.0000  0.0000 </r>
        <r>  0.2108  0.0014  0.0000  0.0014  0.0000  0.0000  0.0000  0.0000  0.0000 </r>
       </set>
       <set comment="band 2">
        <r>  0.0789  0.0628  0.0235  0.0628  0.0000  0.0000  0.0000  0.0000  0.0000 </r>
        <r>  0.0789  0.0628  0.0235  0.0628  0.0000  0.0000  0.0000  0.0000  0.0000 </r>
       </set>
       <set comment="band 3">
        <r>  0.0031  0.0217  0.1501  0.0217  0.0000  0.0000  0.0000  0.0000  0.0000 </r>
        <r>  0.0031  0.0217  0.1501  0.0217  0.0000  0.0000  0.0000  0.0000  0.0000 </r>
       </set>
       <set comment="band 4">
        <r>  0.0000  0.1085  0.0000  0.1085  0.0000  0.0000  0.0000  0.0000  0.0000 </r>
        <r>  0.0000  0.1085  0.0000  0.1085  0.0000  0.0000  0.0000  0.0000  0.0000 </r>
       </set>
       <set comment="band 5">
        <r>  0.0000  0.0751  0.0000  0.0751  0.0000  0.0000  0.0000  0.0000  0.0000 </r>
        <r>  0.0000  0.0751  0.0000  0.0751  0.0000  0.0000  0.0000  0.0000  0.0000 </r>
       </set>
       <set comment="band 6">
        <r>  0.1028  0.0002  0.1049  0.0002  0.0000  0.0000  0.0000  0.0000  0.0000 </r>
        <r>  0.1028  0.0002  0.1049  0.0002  0.0000  0.0000  0.0000  0.0000  0.0000 </r>
       </set>
       <set comment="band 7">
        <r>  0.0171  0.0374  0.0632  0.0374  0.0000  0.0000  0.0000  0.0000  0.0000 </r>
        <r>  0.0171  0.0374  0.0632  0.0374  0.0000  0.0000  0.0000  0.0000  0.0000 </r>
       </set>
       <set comment="band 8">
        <r>  0.1641  0.0484  0.0173  0.0484  0.0000  0.0000  0.0000  0.0000  0.0000 </r>
        <r>  0.1641  0.0484  0.0173  0.0484  0.0000  0.0000  0.0000  0.0000  0.0000 </r>
       </set>
      </set>
      <set comment="kpoint 171">
       <set comment="band 1">
        <r>  0.2105  0.0017  0.0000  0.0017  0.0000  0.0000  0.0000  0.0000  0.0000 </r>
        <r>  0.2105  0.0017  0.0000  0.0017  0.0000  0.0000  0.0000  0.0000  0.0000 </r>
       </set>
       <set comment="band 2">
        <r>  0.0859  0.0590  0.0251  0.0590  0.0000  0.0000  0.0000  0.0000  0.0000 </r>
        <r>  0.0859  0.0590  0.0251  0.0590  0.0000  0.0000  0.0000  0.0000  0.0000 </r>
       </set>
       <set comment="band 3">
        <r>  0.0040  0.0238  0.1425  0.0238  0.0000  0.0000  0.0000  0.0000  0.0000 </r>
        <r>  0.0040  0.0238  0.1425  0.0238  0.0000  0.0000  0.0000  0.0000  0.0000 </r>
       </set>
       <set comment="band 4">
        <r>  0.0000  0.1087  0.0000  0.1087  0.0000  0.0000  0.0000  0.0000  0.0000 </r>
        <r>  0.0000  0.1087  0.0000  0.1087  0.0000  0.0000  0.0000  0.0000  0.0000 </r>
       </set>
       <set comment="band 5">
        <r>  0.0000  0.0751  0.0000  0.0751  0.0000  0.0000  0.0000  0.0000  0.0000 </r>
        <r>  0.0000  0.0751  0.0000  0.0751  0.0000  0.0000  0.0000  0.0000  0.0000 </r>
       </set>
       <set comment="band 6">
        <r>  0.1062  0.0001  0.1032  0.0001  0.0000  0.0000  0.0000  0.0000  0.0000 </r>
        <r>  0.1062  0.0001  0.1032  0.0001  0.0000  0.0000  0.0000  0.0000  0.0000 </r>
       </set>
       <set comment="band 7">
        <r>  0.0193  0.0328  0.0702  0.0328  0.0000  0.0000  0.0000  0.0000  0.0000 </r>
        <r>  0.0193  0.0328  0.0702  0.0328  0.0000  0.0000  0.0000  0.0000  0.0000 </r>
       </set>
       <set comment="band 8">
        <r>  0.1479  0.0523  0.0151  0.0523  0.0000  0.0000  0.0000  0.0000  0.0000 </r>
        <r>  0.1479  0.0523  0.0151  0.0523  0.0000  0.0000  0.0000  0.0000  0.0000 </r>
       </set>
      </set>
      <set comment="kpoint 172">
       <set comment="band 1">
        <r>  0.2102  0.0020  0.0000  0.0020  0.0000  0.0000  0.0000  0.0000  0.0000 </r>
        <r>  0.2102  0.0020  0.0000  0.0020  0.0000  0.0000  0.0000  0.0000  0.0000 </r>
       </set>
       <set comment="band 2">
        <r>  0.0924  0.0556  0.0265  0.0556  0.0000  0.0000  0.0000  0.0000  0.0000 </r>
        <r>  0.0924  0.0556  0.0265  0.0556  0.0000  0.0000  0.0000  0.0000  0.0000 </r>
       </set>
       <set comment="band 3">
        <r>  0.0050  0.0256  0.1356  0.0256  0.0000  0.0000  0.0000  0.0000  0.0000 </r>
        <r>  0.0050  0.0256  0.1356  0.0256  0.0000  0.0000  0.0000  0.0000  0.0000 </r>
       </set>
       <set comment="band 4">
        <r>  0.0000  0.1089  0.0000  0.1089  0.0000  0.0000  0.0000  0.0000  0.0000 </r>
        <r>  0.0000  0.1089  0.0000  0.1089  0.0000  0.0000  0.0000  0.0000  0.0000 </r>
       </set>
       <set comment="band 5">
        <r>  0.1081  0.0001  0.1018  0.0001  0.0000  0.0000  0.0000  0.0000  0.0000 </r>
        <r>  0.1081  0.0001  0.1018  0.0001  0.0000  0.0000  0.0000  0.0000  0.0000 </r>
       </set>
       <set comment="band 6">
        <r>  0.0000  0.0750  0.0000  0.0750  0.0000  0.0000  0.0000  0.0000  0.0000 </r>
        <r>  0.0000  0.0750  0.0000  0.0750  0.0000  0.0000  0.0000  0.0000  0.0000 </r>
       </set>
       <set comment="band 7">
        <r>  0.0213  0.0286  0.0764  0.0286  0.0000  0.0000  0.0000  0.0000  0.0000 </r>
        <r>  0.0213  0.0286  0.0764  0.0286  0.0000  0.0000  0.0000  0.0000  0.0000 </r>
       </set>
       <set comment="band 8">
        <r>  0.1320  0.0548  0.0121  0.0548  0.0000  0.0000  0.0000  0.0000  0.0000 </r>
        <r>  0.1320  0.0548  0.0121  0.0548  0.0000  0.0000  0.0000  0.0000  0.0000 </r>
       </set>
      </set>
      <set comment="kpoint 173">
       <set comment="band 1">
        <r>  0.2100  0.0023  0.0001  0.0023  0.0000  0.0000  0.0000  0.0000  0.0000 </r>
        <r>  0.2100  0.0023  0.0001  0.0023  0.0000  0.0000  0.0000  0.0000  0.0000 </r>
       </set>
       <set comment="band 2">
        <r>  0.0983  0.0524  0.0278  0.0524  0.0000  0.0000  0.0000  0.0000  0.0000 </r>
        <r>  0.0983  0.0524  0.0278  0.0524  0.0000  0.0000  0.0000  0.0000  0.0000 </r>
       </set>
       <set comment="band 3">
        <r>  0.0060  0.0271  0.1292  0.0271  0.0000  0.0000  0.0000  0.0000  0.0000 </r>
        <r>  0.0060  0.0271  0.1292  0.0271  0.0000  0.0000  0.0000  0.0000  0.0000 </r>
       </set>
       <set comment="band 4">
        <r>  0.0000  0.1090  0.0000  0.1090  0.0000  0.0000  0.0000  0.0000  0.0000 </r>
        <r>  0.0000  0.1090  0.0000  0.1090  0.0000  0.0000  0.0000  0.0000  0.0000 </r>
       </set>
       <set comment="band 5">
        <r>  0.1088  0.0000  0.1006  0.0000  0.0000  0.0000  0.0000  0.0000  0.0000 </r>
        <r>  0.1088  0.0000  0.1006  0.0000  0.0000  0.0000  0.0000  0.0000  0.0000 </r>
       </set>
       <set comment="band 6">
        <r>  0.0000  0.0750  0.0000  0.0750  0.0000  0.0000  0.0000  0.0000  0.0000 </r>
        <r>  0.0000  0.0750  0.0000  0.0750  0.0000  0.0000  0.0000  0.0000  0.0000 </r>
       </set>
       <set comment="band 7">
        <r>  0.0231  0.0248  0.0820  0.0248  0.0000  0.0000  0.0000  0.0000  0.0000 </r>
        <r>  0.0231  0.0248  0.0820  0.0248  0.0000  0.0000  0.0000  0.0000  0.0000 </r>
       </set>
       <set comment="band 8">
        <r>  0.1165  0.0559  0.0087  0.0559  0.0000  0.0000  0.0000  0.0000  0.0000 </r>
        <r>  0.1165  0.0559  0.0087  0.0559  0.0000  0.0000  0.0000  0.0000  0.0000 </r>
       </set>
      </set>
      <set comment="kpoint 174">
       <set comment="band 1">
        <r>  0.2097  0.0027  0.0001  0.0027  0.0000  0.0000  0.0000  0.0000  0.0000 </r>
        <r>  0.2097  0.0027  0.0001  0.0027  0.0000  0.0000  0.0000  0.0000  0.0000 </r>
       </set>
       <set comment="band 2">
        <r>  0.1039  0.0495  0.0289  0.0495  0.0000  0.0000  0.0000  0.0000  0.0000 </r>
        <r>  0.1039  0.0495  0.0289  0.0495  0.0000  0.0000  0.0000  0.0000  0.0000 </r>
       </set>
       <set comment="band 3">
        <r>  0.0070  0.0285  0.1235  0.0285  0.0000  0.0000  0.0000  0.0000  0.0000 </r>
        <r>  0.0070  0.0285  0.1235  0.0285  0.0000  0.0000  0.0000  0.0000  0.0000 </r>
       </set>
       <set comment="band 4">
        <r>  0.0000  0.1091  0.0000  0.1091  0.0000  0.0000  0.0000  0.0000  0.0000 </r>
        <r>  0.0000  0.1091  0.0000  0.1091  0.0000  0.0000  0.0000  0.0000  0.0000 </r>
       </set>
       <set comment="band 5">
        <r>  0.1086  0.0000  0.0995  0.0000  0.0000  0.0000  0.0000  0.0000  0.0000 </r>
        <r>  0.1086  0.0000  0.0995  0.0000  0.0000  0.0000  0.0000  0.0000  0.0000 </r>
       </set>
       <set comment="band 6">
        <r>  0.0000  0.0749  0.0000  0.0749  0.0000  0.0000  0.0000  0.0000  0.0000 </r>
        <r>  0.0000  0.0749  0.0000  0.0749  0.0000  0.0000  0.0000  0.0000  0.0000 </r>
       </set>
       <set comment="band 7">
        <r>  0.0248  0.0214  0.0868  0.0214  0.0000  0.0000  0.0000  0.0000  0.0000 </r>
        <r>  0.0248  0.0214  0.0868  0.0214  0.0000  0.0000  0.0000  0.0000  0.0000 </r>
       </set>
       <set comment="band 8">
        <r>  0.1021  0.0554  0.0054  0.0554  0.0000  0.0000  0.0000  0.0000  0.0000 </r>
        <r>  0.1021  0.0554  0.0053  0.0554  0.0000  0.0000  0.0000  0.0000  0.0000 </r>
       </set>
      </set>
      <set comment="kpoint 175">
       <set comment="band 1">
        <r>  0.2094  0.0031  0.0001  0.0031  0.0000  0.0000  0.0000  0.0000  0.0000 </r>
        <r>  0.2094  0.0031  0.0001  0.0031  0.0000  0.0000  0.0000  0.0000  0.0000 </r>
       </set>
       <set comment="band 2">
        <r>  0.1092  0.0467  0.0299  0.0467  0.0000  0.0000  0.0000  0.0000  0.0000 </r>
        <r>  0.1092  0.0467  0.0299  0.0467  0.0000  0.0000  0.0000  0.0000  0.0000 </r>
       </set>
       <set comment="band 3">
        <r>  0.0080  0.0296  0.1183  0.0296  0.0000  0.0000  0.0000  0.0000  0.0000 </r>
        <r>  0.0080  0.0296  0.1183  0.0296  0.0000  0.0000  0.0000  0.0000  0.0000 </r>
       </set>
       <set comment="band 4">
        <r>  0.0000  0.1092  0.0000  0.1092  0.0000  0.0000  0.0000  0.0000  0.0000 </r>
        <r>  0.0000  0.1092  0.0000  0.1092  0.0000  0.0000  0.0000  0.0000  0.0000 </r>
       </set>
       <set comment="band 5">
        <r>  0.1074  0.0000  0.0982  0.0000  0.0000  0.0000  0.0000  0.0000  0.0000 </r>
        <r>  0.1074  0.0000  0.0982  0.0000  0.0000  0.0000  0.0000  0.0000  0.0000 </r>
       </set>
       <set comment="band 6">
        <r>  0.0000  0.0749  0.0000  0.0749  0.0000  0.0000  0.0000  0.0000  0.0000 </r>
        <r>  0.0000  0.0749  0.0000  0.0749  0.0000  0.0000  0.0000  0.0000  0.0000 </r>
       </set>
       <set comment="band 7">
        <r>  0.0262  0.0183  0.0910  0.0183  0.0000  0.0000  0.0000  0.0000  0.0000 </r>
        <r>  0.0262  0.0183  0.0910  0.0183  0.0000  0.0000  0.0000  0.0000  0.0000 </r>
       </set>
       <set comment="band 8">
        <r>  0.0900  0.0540  0.0026  0.0540  0.0000  0.0000  0.0000  0.0000  0.0000 </r>
        <r>  0.0900  0.0540  0.0026  0.0540  0.0000  0.0000  0.0000  0.0000  0.0000 </r>
       </set>
      </set>
      <set comment="kpoint 176">
       <set comment="band 1">
        <r>  0.2091  0.0035  0.0002  0.0035  0.0000  0.0000  0.0000  0.0000  0.0000 </r>
        <r>  0.2091  0.0035  0.0002  0.0035  0.0000  0.0000  0.0000  0.0000  0.0000 </r>
       </set>
       <set comment="band 2">
        <r>  0.1141  0.0441  0.0309  0.0441  0.0000  0.0000  0.0000  0.0000  0.0000 </r>
        <r>  0.1141  0.0441  0.0309  0.0441  0.0000  0.0000  0.0000  0.0000  0.0000 </r>
       </set>
       <set comment="band 3">
        <r>  0.0090  0.0305  0.1136  0.0305  0.0000  0.0000  0.0000  0.0000  0.0000 </r>
        <r>  0.0090  0.0305  0.1136  0.0305  0.0000  0.0000  0.0000  0.0000  0.0000 </r>
       </set>
       <set comment="band 4">
        <r>  0.0000  0.1091  0.0000  0.1091  0.0000  0.0000  0.0000  0.0000  0.0000 </r>
        <r>  0.0000  0.1091  0.0000  0.1091  0.0000  0.0000  0.0000  0.0000  0.0000 </r>
       </set>
       <set comment="band 5">
        <r>  0.1054  0.0000  0.0968  0.0000  0.0000  0.0000  0.0000  0.0000  0.0000 </r>
        <r>  0.1054  0.0000  0.0968  0.0000  0.0000  0.0000  0.0000  0.0000  0.0000 </r>
       </set>
       <set comment="band 6">
        <r>  0.0000  0.0748  0.0000  0.0748  0.0000  0.0000  0.0000  0.0000  0.0000 </r>
        <r>  0.0000  0.0748  0.0000  0.0748  0.0000  0.0000  0.0000  0.0000  0.0000 </r>
       </set>
       <set comment="band 7">
        <r>  0.0275  0.0155  0.0946  0.0155  0.0000  0.0000  0.0000  0.0000  0.0000 </r>
        <r>  0.0275  0.0155  0.0946  0.0155  0.0000  0.0000  0.0000  0.0000  0.0000 </r>
       </set>
       <set comment="band 8">
        <r>  0.0808  0.0522  0.0008  0.0522  0.0000  0.0000  0.0000  0.0000  0.0000 </r>
        <r>  0.0808  0.0522  0.0008  0.0522  0.0000  0.0000  0.0000  0.0000  0.0000 </r>
       </set>
      </set>
      <set comment="kpoint 177">
       <set comment="band 1">
        <r>  0.2089  0.0040  0.0002  0.0040  0.0000  0.0000  0.0000  0.0000  0.0000 </r>
        <r>  0.2089  0.0040  0.0002  0.0040  0.0000  0.0000  0.0000  0.0000  0.0000 </r>
       </set>
       <set comment="band 2">
        <r>  0.1188  0.0416  0.0318  0.0416  0.0000  0.0000  0.0000  0.0000  0.0000 </r>
        <r>  0.1188  0.0416  0.0318  0.0416  0.0000  0.0000  0.0000  0.0000  0.0000 </r>
       </set>
       <set comment="band 3">
        <r>  0.0099  0.0313  0.1093  0.0313  0.0000  0.0000  0.0000  0.0000  0.0000 </r>
        <r>  0.0099  0.0313  0.1093  0.0313  0.0000  0.0000  0.0000  0.0000  0.0000 </r>
       </set>
       <set comment="band 4">
        <r>  0.0000  0.1090  0.0000  0.1090  0.0000  0.0000  0.0000  0.0000  0.0000 </r>
        <r>  0.0000  0.1090  0.0000  0.1090  0.0000  0.0000  0.0000  0.0000  0.0000 </r>
       </set>
       <set comment="band 5">
        <r>  0.1028  0.0001  0.0950  0.0001  0.0000  0.0000  0.0000  0.0000  0.0000 </r>
        <r>  0.1028  0.0001  0.0950  0.0001  0.0000  0.0000  0.0000  0.0000  0.0000 </r>
       </set>
       <set comment="band 6">
        <r>  0.0000  0.0748  0.0000  0.0748  0.0000  0.0000  0.0000  0.0000  0.0000 </r>
        <r>  0.0000  0.0748  0.0000  0.0748  0.0000  0.0000  0.0000  0.0000  0.0000 </r>
       </set>
       <set comment="band 7">
        <r>  0.0285  0.0131  0.0975  0.0131  0.0000  0.0000  0.0000  0.0000  0.0000 </r>
        <r>  0.0285  0.0131  0.0975  0.0131  0.0000  0.0000  0.0000  0.0000  0.0000 </r>
       </set>
       <set comment="band 8">
        <r>  0.0743  0.0504  0.0000  0.0504  0.0000  0.0000  0.0000  0.0000  0.0000 </r>
        <r>  0.0745  0.0505  0.0000  0.0504  0.0000  0.0000  0.0000  0.0000  0.0000 </r>
       </set>
      </set>
      <set comment="kpoint 178">
       <set comment="band 1">
        <r>  0.2086  0.0044  0.0003  0.0044  0.0000  0.0000  0.0000  0.0000  0.0000 </r>
        <r>  0.2086  0.0044  0.0003  0.0044  0.0000  0.0000  0.0000  0.0000  0.0000 </r>
       </set>
       <set comment="band 2">
        <r>  0.1232  0.0392  0.0326  0.0392  0.0000  0.0000  0.0000  0.0000  0.0000 </r>
        <r>  0.1232  0.0392  0.0326  0.0392  0.0000  0.0000  0.0000  0.0000  0.0000 </r>
       </set>
       <set comment="band 3">
        <r>  0.0108  0.0319  0.1053  0.0319  0.0000  0.0000  0.0000  0.0000  0.0000 </r>
        <r>  0.0108  0.0319  0.1053  0.0319  0.0000  0.0000  0.0000  0.0000  0.0000 </r>
       </set>
       <set comment="band 4">
        <r>  0.0000  0.1088  0.0000  0.1088  0.0000  0.0000  0.0000  0.0000  0.0000 </r>
        <r>  0.0000  0.1088  0.0000  0.1088  0.0000  0.0000  0.0000  0.0000  0.0000 </r>
       </set>
       <set comment="band 5">
        <r>  0.0995  0.0001  0.0928  0.0001  0.0000  0.0000  0.0000  0.0000  0.0000 </r>
        <r>  0.0995  0.0001  0.0928  0.0001  0.0000  0.0000  0.0000  0.0000  0.0000 </r>
       </set>
       <set comment="band 6">
        <r>  0.0000  0.0747  0.0000  0.0747  0.0000  0.0000  0.0000  0.0000  0.0000 </r>
        <r>  0.0000  0.0747  0.0000  0.0747  0.0000  0.0000  0.0000  0.0000  0.0000 </r>
       </set>
       <set comment="band 7">
        <r>  0.0294  0.0110  0.1000  0.0110  0.0000  0.0000  0.0000  0.0000  0.0000 </r>
        <r>  0.0294  0.0110  0.1000  0.0110  0.0000  0.0000  0.0000  0.0000  0.0000 </r>
       </set>
       <set comment="band 8">
        <r>  0.0704  0.0488  0.0002  0.0488  0.0000  0.0000  0.0000  0.0000  0.0000 </r>
        <r>  0.0706  0.0490  0.0002  0.0489  0.0000  0.0000  0.0000  0.0000  0.0000 </r>
       </set>
      </set>
      <set comment="kpoint 179">
       <set comment="band 1">
        <r>  0.2084  0.0049  0.0004  0.0049  0.0000  0.0000  0.0000  0.0000  0.0000 </r>
        <r>  0.2084  0.0049  0.0004  0.0049  0.0000  0.0000  0.0000  0.0000  0.0000 </r>
       </set>
       <set comment="band 2">
        <r>  0.1274  0.0369  0.0333  0.0369  0.0000  0.0000  0.0000  0.0000  0.0000 </r>
        <r>  0.1274  0.0369  0.0333  0.0369  0.0000  0.0000  0.0000  0.0000  0.0000 </r>
       </set>
       <set comment="band 3">
        <r>  0.0115  0.0325  0.1017  0.0325  0.0000  0.0000  0.0000  0.0000  0.0000 </r>
        <r>  0.0115  0.0325  0.1017  0.0325  0.0000  0.0000  0.0000  0.0000  0.0000 </r>
       </set>
       <set comment="band 4">
        <r>  0.0000  0.1085  0.0000  0.1085  0.0000  0.0000  0.0000  0.0000  0.0000 </r>
        <r>  0.0000  0.1085  0.0000  0.1085  0.0000  0.0000  0.0000  0.0000  0.0000 </r>
       </set>
       <set comment="band 5">
        <r>  0.0958  0.0002  0.0902  0.0002  0.0000  0.0000  0.0000  0.0000  0.0000 </r>
        <r>  0.0958  0.0002  0.0902  0.0002  0.0000  0.0000  0.0000  0.0000  0.0000 </r>
       </set>
       <set comment="band 6">
        <r>  0.0000  0.0747  0.0000  0.0747  0.0000  0.0000  0.0000  0.0000  0.0000 </r>
        <r>  0.0000  0.0747  0.0000  0.0747  0.0000  0.0000  0.0000  0.0000  0.0000 </r>
       </set>
       <set comment="band 7">
        <r>  0.0301  0.0091  0.1021  0.0091  0.0000  0.0000  0.0000  0.0000  0.0000 </r>
        <r>  0.0301  0.0091  0.1021  0.0091  0.0000  0.0000  0.0000  0.0000  0.0000 </r>
       </set>
       <set comment="band 8">
        <r>  0.0686  0.0478  0.0012  0.0478  0.0000  0.0000  0.0000  0.0000  0.0000 </r>
        <r>  0.0686  0.0478  0.0012  0.0478  0.0000  0.0000  0.0000  0.0000  0.0000 </r>
       </set>
      </set>
      <set comment="kpoint 180">
       <set comment="band 1">
        <r>  0.2082  0.0053  0.0005  0.0053  0.0000  0.0000  0.0000  0.0000  0.0000 </r>
        <r>  0.2082  0.0053  0.0005  0.0053  0.0000  0.0000  0.0000  0.0000  0.0000 </r>
       </set>
       <set comment="band 2">
        <r>  0.1315  0.0347  0.0341  0.0347  0.0000  0.0000  0.0000  0.0000  0.0000 </r>
        <r>  0.1315  0.0347  0.0341  0.0347  0.0000  0.0000  0.0000  0.0000  0.0000 </r>
       </set>
       <set comment="band 3">
        <r>  0.0122  0.0330  0.0984  0.0330  0.0000  0.0000  0.0000  0.0000  0.0000 </r>
        <r>  0.0122  0.0330  0.0984  0.0330  0.0000  0.0000  0.0000  0.0000  0.0000 </r>
       </set>
       <set comment="band 4">
        <r>  0.0000  0.1082  0.0000  0.1082  0.0000  0.0000  0.0000  0.0000  0.0000 </r>
        <r>  0.0000  0.1082  0.0000  0.1082  0.0000  0.0000  0.0000  0.0000  0.0000 </r>
       </set>
       <set comment="band 5">
        <r>  0.0917  0.0003  0.0872  0.0003  0.0000  0.0000  0.0000  0.0000  0.0000 </r>
        <r>  0.0917  0.0003  0.0872  0.0003  0.0000  0.0000  0.0000  0.0000  0.0000 </r>
       </set>
       <set comment="band 6">
        <r>  0.0000  0.0746  0.0000  0.0746  0.0000  0.0000  0.0000  0.0000  0.0000 </r>
        <r>  0.0000  0.0746  0.0000  0.0746  0.0000  0.0000  0.0000  0.0000  0.0000 </r>
       </set>
       <set comment="band 7">
        <r>  0.0307  0.0074  0.1037  0.0074  0.0000  0.0000  0.0000  0.0000  0.0000 </r>
        <r>  0.0307  0.0074  0.1037  0.0074  0.0000  0.0000  0.0000  0.0000  0.0000 </r>
       </set>
       <set comment="band 8">
        <r>  0.0680  0.0469  0.0030  0.0469  0.0000  0.0000  0.0000  0.0000  0.0000 </r>
        <r>  0.0681  0.0470  0.0030  0.0470  0.0000  0.0000  0.0000  0.0000  0.0000 </r>
       </set>
      </set>
      <set comment="kpoint 181">
       <set comment="band 1">
        <r>  0.2080  0.0058  0.0006  0.0058  0.0000  0.0000  0.0000  0.0000  0.0000 </r>
        <r>  0.2080  0.0058  0.0006  0.0058  0.0000  0.0000  0.0000  0.0000  0.0000 </r>
       </set>
       <set comment="band 2">
        <r>  0.1353  0.0326  0.0347  0.0326  0.0000  0.0000  0.0000  0.0000  0.0000 </r>
        <r>  0.1353  0.0326  0.0347  0.0326  0.0000  0.0000  0.0000  0.0000  0.0000 </r>
       </set>
       <set comment="band 3">
        <r>  0.0127  0.0334  0.0954  0.0334  0.0000  0.0000  0.0000  0.0000  0.0000 </r>
        <r>  0.0127  0.0334  0.0954  0.0334  0.0000  0.0000  0.0000  0.0000  0.0000 </r>
       </set>
       <set comment="band 4">
        <r>  0.0000  0.1078  0.0000  0.1078  0.0000  0.0000  0.0000  0.0000  0.0000 </r>
        <r>  0.0000  0.1078  0.0000  0.1078  0.0000  0.0000  0.0000  0.0000  0.0000 </r>
       </set>
       <set comment="band 5">
        <r>  0.0874  0.0004  0.0838  0.0004  0.0000  0.0000  0.0000  0.0000  0.0000 </r>
        <r>  0.0874  0.0004  0.0838  0.0004  0.0000  0.0000  0.0000  0.0000  0.0000 </r>
       </set>
       <set comment="band 6">
        <r>  0.0000  0.0746  0.0000  0.0746  0.0000  0.0000  0.0000  0.0000  0.0000 </r>
        <r>  0.0000  0.0746  0.0000  0.0746  0.0000  0.0000  0.0000  0.0000  0.0000 </r>
       </set>
       <set comment="band 7">
        <r>  0.0311  0.0060  0.1049  0.0060  0.0000  0.0000  0.0000  0.0000  0.0000 </r>
        <r>  0.0311  0.0060  0.1049  0.0060  0.0000  0.0000  0.0000  0.0000  0.0000 </r>
       </set>
       <set comment="band 8">
        <r>  0.0685  0.0465  0.0053  0.0464  0.0000  0.0000  0.0000  0.0000  0.0000 </r>
        <r>  0.0685  0.0466  0.0053  0.0465  0.0000  0.0000  0.0000  0.0000  0.0000 </r>
       </set>
      </set>
      <set comment="kpoint 182">
       <set comment="band 1">
        <r>  0.2079  0.0062  0.0008  0.0062  0.0000  0.0000  0.0000  0.0000  0.0000 </r>
        <r>  0.2079  0.0062  0.0008  0.0062  0.0000  0.0000  0.0000  0.0000  0.0000 </r>
       </set>
       <set comment="band 2">
        <r>  0.1390  0.0306  0.0354  0.0306  0.0000  0.0000  0.0000  0.0000  0.0000 </r>
        <r>  0.1390  0.0306  0.0354  0.0306  0.0000  0.0000  0.0000  0.0000  0.0000 </r>
       </set>
       <set comment="band 3">
        <r>  0.0131  0.0339  0.0925  0.0339  0.0000  0.0000  0.0000  0.0000  0.0000 </r>
        <r>  0.0131  0.0339  0.0925  0.0339  0.0000  0.0000  0.0000  0.0000  0.0000 </r>
       </set>
       <set comment="band 4">
        <r>  0.0000  0.1073  0.0000  0.1073  0.0000  0.0000  0.0000  0.0000  0.0000 </r>
        <r>  0.0000  0.1073  0.0000  0.1073  0.0000  0.0000  0.0000  0.0000  0.0000 </r>
       </set>
       <set comment="band 5">
        <r>  0.0832  0.0005  0.0802  0.0005  0.0000  0.0000  0.0000  0.0000  0.0000 </r>
        <r>  0.0832  0.0005  0.0802  0.0005  0.0000  0.0000  0.0000  0.0000  0.0000 </r>
       </set>
       <set comment="band 6">
        <r>  0.0000  0.0745  0.0000  0.0745  0.0000  0.0000  0.0000  0.0000  0.0000 </r>
        <r>  0.0000  0.0745  0.0000  0.0745  0.0000  0.0000  0.0000  0.0000  0.0000 </r>
       </set>
       <set comment="band 7">
        <r>  0.0314  0.0047  0.1058  0.0047  0.0000  0.0000  0.0000  0.0000  0.0000 </r>
        <r>  0.0314  0.0047  0.1058  0.0047  0.0000  0.0000  0.0000  0.0000  0.0000 </r>
       </set>
       <set comment="band 8">
        <r>  0.0694  0.0463  0.0081  0.0462  0.0000  0.0000  0.0000  0.0000  0.0000 </r>
        <r>  0.0694  0.0463  0.0081  0.0462  0.0000  0.0000  0.0000  0.0000  0.0000 </r>
       </set>
      </set>
      <set comment="kpoint 183">
       <set comment="band 1">
        <r>  0.2079  0.0067  0.0009  0.0067  0.0000  0.0000  0.0000  0.0000  0.0000 </r>
        <r>  0.2079  0.0067  0.0009  0.0067  0.0000  0.0000  0.0000  0.0000  0.0000 </r>
       </set>
       <set comment="band 2">
        <r>  0.1426  0.0287  0.0360  0.0287  0.0000  0.0000  0.0000  0.0000  0.0000 </r>
        <r>  0.1426  0.0287  0.0360  0.0287  0.0000  0.0000  0.0000  0.0000  0.0000 </r>
       </set>
       <set comment="band 3">
        <r>  0.0134  0.0343  0.0899  0.0343  0.0000  0.0000  0.0000  0.0000  0.0000 </r>
        <r>  0.0134  0.0343  0.0899  0.0343  0.0000  0.0000  0.0000  0.0000  0.0000 </r>
       </set>
       <set comment="band 4">
        <r>  0.0000  0.1068  0.0000  0.1068  0.0000  0.0000  0.0000  0.0000  0.0000 </r>
        <r>  0.0000  0.1068  0.0000  0.1068  0.0000  0.0000  0.0000  0.0000  0.0000 </r>
       </set>
       <set comment="band 5">
        <r>  0.0791  0.0007  0.0764  0.0007  0.0000  0.0000  0.0000  0.0000  0.0000 </r>
        <r>  0.0791  0.0007  0.0764  0.0007  0.0000  0.0000  0.0000  0.0000  0.0000 </r>
       </set>
       <set comment="band 6">
        <r>  0.0000  0.0745  0.0000  0.0745  0.0000  0.0000  0.0000  0.0000  0.0000 </r>
        <r>  0.0000  0.0745  0.0000  0.0745  0.0000  0.0000  0.0000  0.0000  0.0000 </r>
       </set>
       <set comment="band 7">
        <r>  0.0315  0.0037  0.1063  0.0037  0.0000  0.0000  0.0000  0.0000  0.0000 </r>
        <r>  0.0315  0.0037  0.1063  0.0037  0.0000  0.0000  0.0000  0.0000  0.0000 </r>
       </set>
       <set comment="band 8">
        <r>  0.0706  0.0464  0.0111  0.0460  0.0000  0.0000  0.0000  0.0000  0.0000 </r>
        <r>  0.0706  0.0465  0.0111  0.0461  0.0000  0.0000  0.0000  0.0000  0.0000 </r>
       </set>
      </set>
      <set comment="kpoint 184">
       <set comment="band 1">
        <r>  0.2079  0.0071  0.0012  0.0071  0.0000  0.0000  0.0000  0.0000  0.0000 </r>
        <r>  0.2079  0.0071  0.0012  0.0071  0.0000  0.0000  0.0000  0.0000  0.0000 </r>
       </set>
       <set comment="band 2">
        <r>  0.1460  0.0268  0.0365  0.0268  0.0000  0.0000  0.0000  0.0000  0.0000 </r>
        <r>  0.1460  0.0268  0.0365  0.0268  0.0000  0.0000  0.0000  0.0000  0.0000 </r>
       </set>
       <set comment="band 3">
        <r>  0.0135  0.0347  0.0874  0.0347  0.0000  0.0000  0.0000  0.0000  0.0000 </r>
        <r>  0.0135  0.0347  0.0874  0.0347  0.0000  0.0000  0.0000  0.0000  0.0000 </r>
       </set>
       <set comment="band 4">
        <r>  0.0000  0.1063  0.0000  0.1063  0.0000  0.0000  0.0000  0.0000  0.0000 </r>
        <r>  0.0000  0.1063  0.0000  0.1063  0.0000  0.0000  0.0000  0.0000  0.0000 </r>
       </set>
       <set comment="band 5">
        <r>  0.0752  0.0009  0.0727  0.0009  0.0000  0.0000  0.0000  0.0000  0.0000 </r>
        <r>  0.0752  0.0009  0.0727  0.0009  0.0000  0.0000  0.0000  0.0000  0.0000 </r>
       </set>
       <set comment="band 6">
        <r>  0.0000  0.0745  0.0000  0.0745  0.0000  0.0000  0.0000  0.0000  0.0000 </r>
        <r>  0.0000  0.0745  0.0000  0.0745  0.0000  0.0000  0.0000  0.0000  0.0000 </r>
       </set>
       <set comment="band 7">
        <r>  0.0315  0.0027  0.1064  0.0027  0.0000  0.0000  0.0000  0.0000  0.0000 </r>
        <r>  0.0315  0.0027  0.1064  0.0027  0.0000  0.0000  0.0000  0.0000  0.0000 </r>
       </set>
       <set comment="band 8">
        <r>  0.0716  0.0466  0.0142  0.0464  0.0000  0.0000  0.0000  0.0000  0.0000 </r>
        <r>  0.0716  0.0466  0.0142  0.0463  0.0000  0.0000  0.0000  0.0000  0.0000 </r>
       </set>
      </set>
      <set comment="kpoint 185">
       <set comment="band 1">
        <r>  0.2080  0.0075  0.0015  0.0075  0.0000  0.0000  0.0000  0.0000  0.0000 </r>
        <r>  0.2080  0.0075  0.0015  0.0075  0.0000  0.0000  0.0000  0.0000  0.0000 </r>
       </set>
       <set comment="band 2">
        <r>  0.1492  0.0250  0.0371  0.0250  0.0000  0.0000  0.0000  0.0000  0.0000 </r>
        <r>  0.1492  0.0250  0.0371  0.0250  0.0000  0.0000  0.0000  0.0000  0.0000 </r>
       </set>
       <set comment="band 3">
        <r>  0.0134  0.0351  0.0850  0.0351  0.0000  0.0000  0.0000  0.0000  0.0000 </r>
        <r>  0.0134  0.0351  0.0850  0.0351  0.0000  0.0000  0.0000  0.0000  0.0000 </r>
       </set>
       <set comment="band 4">
        <r>  0.0000  0.1057  0.0000  0.1057  0.0000  0.0000  0.0000  0.0000  0.0000 </r>
        <r>  0.0000  0.1057  0.0000  0.1057  0.0000  0.0000  0.0000  0.0000  0.0000 </r>
       </set>
       <set comment="band 5">
        <r>  0.0717  0.0010  0.0690  0.0010  0.0000  0.0000  0.0000  0.0000  0.0000 </r>
        <r>  0.0717  0.0010  0.0690  0.0010  0.0000  0.0000  0.0000  0.0000  0.0000 </r>
       </set>
       <set comment="band 6">
        <r>  0.0000  0.0745  0.0000  0.0745  0.0000  0.0000  0.0000  0.0000  0.0000 </r>
        <r>  0.0000  0.0745  0.0000  0.0745  0.0000  0.0000  0.0000  0.0000  0.0000 </r>
       </set>
       <set comment="band 7">
        <r>  0.0313  0.0019  0.1062  0.0019  0.0000  0.0000  0.0000  0.0000  0.0000 </r>
        <r>  0.0313  0.0019  0.1062  0.0019  0.0000  0.0000  0.0000  0.0000  0.0000 </r>
       </set>
       <set comment="band 8">
        <r>  0.0725  0.0467  0.0172  0.0470  0.0000  0.0000  0.0000  0.0000  0.0000 </r>
        <r>  0.0725  0.0467  0.0172  0.0470  0.0000  0.0000  0.0000  0.0000  0.0000 </r>
       </set>
      </set>
      <set comment="kpoint 186">
       <set comment="band 1">
        <r>  0.2082  0.0079  0.0018  0.0079  0.0000  0.0000  0.0000  0.0000  0.0000 </r>
        <r>  0.2082  0.0079  0.0018  0.0079  0.0000  0.0000  0.0000  0.0000  0.0000 </r>
       </set>
       <set comment="band 2">
        <r>  0.1524  0.0233  0.0376  0.0233  0.0000  0.0000  0.0000  0.0000  0.0000 </r>
        <r>  0.1524  0.0233  0.0376  0.0233  0.0000  0.0000  0.0000  0.0000  0.0000 </r>
       </set>
       <set comment="band 3">
        <r>  0.0132  0.0356  0.0827  0.0356  0.0000  0.0000  0.0000  0.0000  0.0000 </r>
        <r>  0.0132  0.0356  0.0827  0.0356  0.0000  0.0000  0.0000  0.0000  0.0000 </r>
       </set>
       <set comment="band 4">
        <r>  0.0000  0.1052  0.0000  0.1052  0.0000  0.0000  0.0000  0.0000  0.0000 </r>
        <r>  0.0000  0.1052  0.0000  0.1052  0.0000  0.0000  0.0000  0.0000  0.0000 </r>
       </set>
       <set comment="band 5">
        <r>  0.0686  0.0012  0.0656  0.0012  0.0000  0.0000  0.0000  0.0000  0.0000 </r>
        <r>  0.0686  0.0012  0.0656  0.0012  0.0000  0.0000  0.0000  0.0000  0.0000 </r>
       </set>
       <set comment="band 6">
        <r>  0.0000  0.0745  0.0000  0.0745  0.0000  0.0000  0.0000  0.0000  0.0000 </r>
        <r>  0.0000  0.0746  0.0000  0.0745  0.0000  0.0000  0.0000  0.0000  0.0000 </r>
       </set>
       <set comment="band 7">
        <r>  0.0310  0.0013  0.1056  0.0013  0.0000  0.0000  0.0000  0.0000  0.0000 </r>
        <r>  0.0309  0.0013  0.1056  0.0013  0.0000  0.0000  0.0000  0.0000  0.0000 </r>
       </set>
       <set comment="band 8">
        <r>  0.0728  0.0475  0.0204  0.0479  0.0000  0.0000  0.0000  0.0000  0.0000 </r>
        <r>  0.0734  0.0465  0.0200  0.0470  0.0000  0.0000  0.0000  0.0000  0.0000 </r>
       </set>
      </set>
      <set comment="kpoint 187">
       <set comment="band 1">
        <r>  0.2084  0.0082  0.0023  0.0082  0.0000  0.0000  0.0000  0.0000  0.0000 </r>
        <r>  0.2084  0.0082  0.0023  0.0082  0.0000  0.0000  0.0000  0.0000  0.0000 </r>
       </set>
       <set comment="band 2">
        <r>  0.1554  0.0216  0.0381  0.0216  0.0000  0.0000  0.0000  0.0000  0.0000 </r>
        <r>  0.1554  0.0216  0.0381  0.0216  0.0000  0.0000  0.0000  0.0000  0.0000 </r>
       </set>
       <set comment="band 3">
        <r>  0.0128  0.0362  0.0804  0.0362  0.0000  0.0000  0.0000  0.0000  0.0000 </r>
        <r>  0.0128  0.0362  0.0804  0.0362  0.0000  0.0000  0.0000  0.0000  0.0000 </r>
       </set>
       <set comment="band 4">
        <r>  0.0000  0.1046  0.0000  0.1046  0.0000  0.0000  0.0000  0.0000  0.0000 </r>
        <r>  0.0000  0.1046  0.0000  0.1046  0.0000  0.0000  0.0000  0.0000  0.0000 </r>
       </set>
       <set comment="band 5">
        <r>  0.0659  0.0013  0.0623  0.0013  0.0000  0.0000  0.0000  0.0000  0.0000 </r>
        <r>  0.0659  0.0013  0.0623  0.0013  0.0000  0.0000  0.0000  0.0000  0.0000 </r>
       </set>
       <set comment="band 6">
        <r>  0.0000  0.0746  0.0000  0.0746  0.0000  0.0000  0.0000  0.0000  0.0000 </r>
        <r>  0.0000  0.0746  0.0000  0.0746  0.0000  0.0000  0.0000  0.0000  0.0000 </r>
       </set>
       <set comment="band 7">
        <r>  0.0304  0.0008  0.1045  0.0008  0.0000  0.0000  0.0000  0.0000  0.0000 </r>
        <r>  0.0304  0.0008  0.1045  0.0008  0.0000  0.0000  0.0000  0.0000  0.0000 </r>
       </set>
       <set comment="band 8">
        <r>  0.0733  0.0483  0.0229  0.0478  0.0000  0.0000  0.0000  0.0000  0.0000 </r>
        <r>  0.0733  0.0483  0.0228  0.0476  0.0000  0.0000  0.0000  0.0000  0.0000 </r>
       </set>
      </set>
      <set comment="kpoint 188">
       <set comment="band 1">
        <r>  0.2088  0.0084  0.0028  0.0084  0.0000  0.0000  0.0000  0.0000  0.0000 </r>
        <r>  0.2088  0.0084  0.0028  0.0084  0.0000  0.0000  0.0000  0.0000  0.0000 </r>
       </set>
       <set comment="band 2">
        <r>  0.1582  0.0200  0.0385  0.0200  0.0000  0.0000  0.0000  0.0000  0.0000 </r>
        <r>  0.1582  0.0200  0.0385  0.0200  0.0000  0.0000  0.0000  0.0000  0.0000 </r>
       </set>
       <set comment="band 3">
        <r>  0.0123  0.0368  0.0782  0.0368  0.0000  0.0000  0.0000  0.0000  0.0000 </r>
        <r>  0.0123  0.0368  0.0782  0.0368  0.0000  0.0000  0.0000  0.0000  0.0000 </r>
       </set>
       <set comment="band 4">
        <r>  0.0000  0.1040  0.0000  0.1040  0.0000  0.0000  0.0000  0.0000  0.0000 </r>
        <r>  0.0000  0.1040  0.0000  0.1040  0.0000  0.0000  0.0000  0.0000  0.0000 </r>
       </set>
       <set comment="band 5">
        <r>  0.0635  0.0014  0.0594  0.0014  0.0000  0.0000  0.0000  0.0000  0.0000 </r>
        <r>  0.0635  0.0014  0.0594  0.0014  0.0000  0.0000  0.0000  0.0000  0.0000 </r>
       </set>
       <set comment="band 6">
        <r>  0.0000  0.0746  0.0000  0.0746  0.0000  0.0000  0.0000  0.0000  0.0000 </r>
        <r>  0.0000  0.0746  0.0000  0.0746  0.0000  0.0000  0.0000  0.0000  0.0000 </r>
       </set>
       <set comment="band 7">
        <r>  0.0297  0.0003  0.1029  0.0003  0.0000  0.0000  0.0000  0.0000  0.0000 </r>
        <r>  0.0297  0.0003  0.1029  0.0003  0.0000  0.0000  0.0000  0.0000  0.0000 </r>
       </set>
       <set comment="band 8">
        <r>  0.0733  0.0491  0.0251  0.0489  0.0000  0.0000  0.0000  0.0000  0.0000 </r>
        <r>  0.0732  0.0493  0.0253  0.0491  0.0000  0.0000  0.0000  0.0000  0.0000 </r>
       </set>
      </set>
      <set comment="kpoint 189">
       <set comment="band 1">
        <r>  0.2092  0.0086  0.0034  0.0086  0.0000  0.0000  0.0000  0.0000  0.0000 </r>
        <r>  0.2092  0.0086  0.0034  0.0086  0.0000  0.0000  0.0000  0.0000  0.0000 </r>
       </set>
       <set comment="band 2">
        <r>  0.1610  0.0185  0.0390  0.0185  0.0000  0.0000  0.0000  0.0000  0.0000 </r>
        <r>  0.1610  0.0185  0.0390  0.0185  0.0000  0.0000  0.0000  0.0000  0.0000 </r>
       </set>
       <set comment="band 3">
        <r>  0.0115  0.0375  0.0760  0.0375  0.0000  0.0000  0.0000  0.0000  0.0000 </r>
        <r>  0.0115  0.0375  0.0760  0.0375  0.0000  0.0000  0.0000  0.0000  0.0000 </r>
       </set>
       <set comment="band 4">
        <r>  0.0000  0.1035  0.0000  0.1035  0.0000  0.0000  0.0000  0.0000  0.0000 </r>
        <r>  0.0000  0.1035  0.0000  0.1035  0.0000  0.0000  0.0000  0.0000  0.0000 </r>
       </set>
       <set comment="band 5">
        <r>  0.0615  0.0014  0.0567  0.0014  0.0000  0.0000  0.0000  0.0000  0.0000 </r>
        <r>  0.0615  0.0014  0.0567  0.0014  0.0000  0.0000  0.0000  0.0000  0.0000 </r>
       </set>
       <set comment="band 6">
        <r>  0.0000  0.0747  0.0000  0.0747  0.0000  0.0000  0.0000  0.0000  0.0000 </r>
        <r>  0.0000  0.0747  0.0000  0.0747  0.0000  0.0000  0.0000  0.0000  0.0000 </r>
       </set>
       <set comment="band 7">
        <r>  0.0286  0.0001  0.1006  0.0001  0.0000  0.0000  0.0000  0.0000  0.0000 </r>
        <r>  0.0286  0.0001  0.1006  0.0001  0.0000  0.0000  0.0000  0.0000  0.0000 </r>
       </set>
       <set comment="band 8">
        <r>  0.0731  0.0498  0.0271  0.0507  0.0000  0.0000  0.0000  0.0000  0.0000 </r>
        <r>  0.0729  0.0500  0.0273  0.0513  0.0000  0.0000  0.0000  0.0000  0.0000 </r>
       </set>
      </set>
      <set comment="kpoint 190">
       <set comment="band 1">
        <r>  0.2098  0.0088  0.0041  0.0088  0.0000  0.0000  0.0000  0.0000  0.0000 </r>
        <r>  0.2098  0.0088  0.0041  0.0088  0.0000  0.0000  0.0000  0.0000  0.0000 </r>
       </set>
       <set comment="band 2">
        <r>  0.1636  0.0170  0.0394  0.0170  0.0000  0.0000  0.0000  0.0000  0.0000 </r>
        <r>  0.1636  0.0170  0.0394  0.0170  0.0000  0.0000  0.0000  0.0000  0.0000 </r>
       </set>
       <set comment="band 3">
        <r>  0.0106  0.0383  0.0737  0.0383  0.0000  0.0000  0.0000  0.0000  0.0000 </r>
        <r>  0.0106  0.0383  0.0737  0.0383  0.0000  0.0000  0.0000  0.0000  0.0000 </r>
       </set>
       <set comment="band 4">
        <r>  0.0000  0.1030  0.0000  0.1030  0.0000  0.0000  0.0000  0.0000  0.0000 </r>
        <r>  0.0000  0.1030  0.0000  0.1030  0.0000  0.0000  0.0000  0.0000  0.0000 </r>
       </set>
       <set comment="band 5">
        <r>  0.0598  0.0015  0.0543  0.0015  0.0000  0.0000  0.0000  0.0000  0.0000 </r>
        <r>  0.0598  0.0015  0.0543  0.0015  0.0000  0.0000  0.0000  0.0000  0.0000 </r>
       </set>
       <set comment="band 6">
        <r>  0.0000  0.0748  0.0000  0.0748  0.0000  0.0000  0.0000  0.0000  0.0000 </r>
        <r>  0.0000  0.0749  0.0000  0.0749  0.0000  0.0000  0.0000  0.0000  0.0000 </r>
       </set>
       <set comment="band 7">
        <r>  0.0271  0.0000  0.0973  0.0000  0.0000  0.0000  0.0000  0.0000  0.0000 </r>
        <r>  0.0271  0.0000  0.0972  0.0000  0.0000  0.0000  0.0000  0.0000  0.0000 </r>
       </set>
       <set comment="band 8">
        <r>  0.0722  0.0513  0.0292  0.0519  0.0000  0.0000  0.0000  0.0000  0.0000 </r>
        <r>  0.0722  0.0513  0.0293  0.0519  0.0000  0.0000  0.0000  0.0000  0.0000 </r>
       </set>
      </set>
      <set comment="kpoint 191">
       <set comment="band 1">
        <r>  0.2104  0.0088  0.0050  0.0088  0.0000  0.0000  0.0000  0.0000  0.0000 </r>
        <r>  0.2104  0.0088  0.0050  0.0088  0.0000  0.0000  0.0000  0.0000  0.0000 </r>
       </set>
       <set comment="band 2">
        <r>  0.1661  0.0156  0.0398  0.0156  0.0000  0.0000  0.0000  0.0000  0.0000 </r>
        <r>  0.1661  0.0156  0.0398  0.0156  0.0000  0.0000  0.0000  0.0000  0.0000 </r>
       </set>
       <set comment="band 3">
        <r>  0.0096  0.0393  0.0714  0.0393  0.0000  0.0000  0.0000  0.0000  0.0000 </r>
        <r>  0.0096  0.0393  0.0714  0.0393  0.0000  0.0000  0.0000  0.0000  0.0000 </r>
       </set>
       <set comment="band 4">
        <r>  0.0000  0.1024  0.0000  0.1024  0.0000  0.0000  0.0000  0.0000  0.0000 </r>
        <r>  0.0000  0.1024  0.0000  0.1024  0.0000  0.0000  0.0000  0.0000  0.0000 </r>
       </set>
       <set comment="band 5">
        <r>  0.0583  0.0015  0.0521  0.0015  0.0000  0.0000  0.0000  0.0000  0.0000 </r>
        <r>  0.0583  0.0015  0.0521  0.0015  0.0000  0.0000  0.0000  0.0000  0.0000 </r>
       </set>
       <set comment="band 6">
        <r>  0.0000  0.0750  0.0000  0.0751  0.0000  0.0000  0.0000  0.0000  0.0000 </r>
        <r>  0.0000  0.0750  0.0000  0.0750  0.0000  0.0000  0.0000  0.0000  0.0000 </r>
       </set>
       <set comment="band 7">
        <r>  0.0248  0.0002  0.0920  0.0002  0.0000  0.0000  0.0000  0.0000  0.0000 </r>
        <r>  0.0248  0.0002  0.0920  0.0002  0.0000  0.0000  0.0000  0.0000  0.0000 </r>
       </set>
       <set comment="band 8">
        <r>  0.0711  0.0528  0.0309  0.0532  0.0000  0.0000  0.0000  0.0000  0.0000 </r>
        <r>  0.0710  0.0528  0.0309  0.0532  0.0000  0.0000  0.0000  0.0000  0.0000 </r>
       </set>
      </set>
      <set comment="kpoint 192">
       <set comment="band 1">
        <r>  0.2111  0.0087  0.0061  0.0087  0.0000  0.0000  0.0000  0.0000  0.0000 </r>
        <r>  0.2111  0.0087  0.0061  0.0087  0.0000  0.0000  0.0000  0.0000  0.0000 </r>
       </set>
       <set comment="band 2">
        <r>  0.1685  0.0142  0.0401  0.0142  0.0000  0.0000  0.0000  0.0000  0.0000 </r>
        <r>  0.1685  0.0142  0.0401  0.0142  0.0000  0.0000  0.0000  0.0000  0.0000 </r>
       </set>
       <set comment="band 3">
        <r>  0.0084  0.0404  0.0690  0.0404  0.0000  0.0000  0.0000  0.0000  0.0000 </r>
        <r>  0.0084  0.0404  0.0690  0.0404  0.0000  0.0000  0.0000  0.0000  0.0000 </r>
       </set>
       <set comment="band 4">
        <r>  0.0000  0.1020  0.0000  0.1020  0.0000  0.0000  0.0000  0.0000  0.0000 </r>
        <r>  0.0000  0.1020  0.0000  0.1020  0.0000  0.0000  0.0000  0.0000  0.0000 </r>
       </set>
       <set comment="band 5">
        <r>  0.0571  0.0014  0.0501  0.0014  0.0000  0.0000  0.0000  0.0000  0.0000 </r>
        <r>  0.0571  0.0014  0.0501  0.0014  0.0000  0.0000  0.0000  0.0000  0.0000 </r>
       </set>
       <set comment="band 6">
        <r>  0.0000  0.0753  0.0000  0.0752  0.0000  0.0000  0.0000  0.0000  0.0000 </r>
        <r>  0.0000  0.0753  0.0000  0.0753  0.0000  0.0000  0.0000  0.0000  0.0000 </r>
       </set>
       <set comment="band 7">
        <r>  0.0210  0.0012  0.0828  0.0012  0.0000  0.0000  0.0000  0.0000  0.0000 </r>
        <r>  0.0210  0.0012  0.0828  0.0012  0.0000  0.0000  0.0000  0.0000  0.0000 </r>
       </set>
       <set comment="band 8">
        <r>  0.0698  0.0546  0.0322  0.0540  0.0000  0.0000  0.0000  0.0000  0.0000 </r>
        <r>  0.0695  0.0551  0.0324  0.0543  0.0000  0.0000  0.0000  0.0000  0.0000 </r>
       </set>
      </set>
      <set comment="kpoint 193">
       <set comment="band 1">
        <r>  0.2118  0.0086  0.0073  0.0086  0.0000  0.0000  0.0000  0.0000  0.0000 </r>
        <r>  0.2118  0.0086  0.0073  0.0086  0.0000  0.0000  0.0000  0.0000  0.0000 </r>
       </set>
       <set comment="band 2">
        <r>  0.1708  0.0129  0.0405  0.0129  0.0000  0.0000  0.0000  0.0000  0.0000 </r>
        <r>  0.1708  0.0129  0.0405  0.0129  0.0000  0.0000  0.0000  0.0000  0.0000 </r>
       </set>
       <set comment="band 3">
        <r>  0.0071  0.0417  0.0664  0.0417  0.0000  0.0000  0.0000  0.0000  0.0000 </r>
        <r>  0.0071  0.0417  0.0664  0.0417  0.0000  0.0000  0.0000  0.0000  0.0000 </r>
       </set>
       <set comment="band 4">
        <r>  0.0000  0.1015  0.0000  0.1015  0.0000  0.0000  0.0000  0.0000  0.0000 </r>
        <r>  0.0000  0.1015  0.0000  0.1015  0.0000  0.0000  0.0000  0.0000  0.0000 </r>
       </set>
       <set comment="band 5">
        <r>  0.0561  0.0014  0.0484  0.0014  0.0000  0.0000  0.0000  0.0000  0.0000 </r>
        <r>  0.0561  0.0014  0.0484  0.0014  0.0000  0.0000  0.0000  0.0000  0.0000 </r>
       </set>
       <set comment="band 6">
        <r>  0.0000  0.0754  0.0000  0.0758  0.0000  0.0000  0.0000  0.0000  0.0000 </r>
        <r>  0.0000  0.0755  0.0000  0.0756  0.0000  0.0000  0.0000  0.0000  0.0000 </r>
       </set>
       <set comment="band 7">
        <r>  0.0139  0.0046  0.0637  0.0046  0.0000  0.0000  0.0000  0.0000  0.0000 </r>
        <r>  0.0137  0.0046  0.0638  0.0046  0.0000  0.0000  0.0000  0.0000  0.0000 </r>
       </set>
       <set comment="band 8">
        <r>  0.0667  0.0568  0.0346  0.0579  0.0000  0.0000  0.0000  0.0000  0.0000 </r>
        <r>  0.0685  0.0551  0.0325  0.0552  0.0000  0.0000  0.0000  0.0000  0.0000 </r>
       </set>
      </set>
      <set comment="kpoint 194">
       <set comment="band 1">
        <r>  0.2125  0.0083  0.0088  0.0083  0.0000  0.0000  0.0000  0.0000  0.0000 </r>
        <r>  0.2125  0.0083  0.0088  0.0083  0.0000  0.0000  0.0000  0.0000  0.0000 </r>
       </set>
       <set comment="band 2">
        <r>  0.1730  0.0117  0.0408  0.0117  0.0000  0.0000  0.0000  0.0000  0.0000 </r>
        <r>  0.1730  0.0117  0.0408  0.0117  0.0000  0.0000  0.0000  0.0000  0.0000 </r>
       </set>
       <set comment="band 3">
        <r>  0.0057  0.0432  0.0636  0.0432  0.0000  0.0000  0.0000  0.0000  0.0000 </r>
        <r>  0.0057  0.0432  0.0636  0.0432  0.0000  0.0000  0.0000  0.0000  0.0000 </r>
       </set>
       <set comment="band 4">
        <r>  0.0000  0.1011  0.0000  0.1011  0.0000  0.0000  0.0000  0.0000  0.0000 </r>
        <r>  0.0000  0.1011  0.0000  0.1011  0.0000  0.0000  0.0000  0.0000  0.0000 </r>
       </set>
       <set comment="band 5">
        <r>  0.0552  0.0013  0.0468  0.0013  0.0000  0.0000  0.0000  0.0000  0.0000 </r>
        <r>  0.0552  0.0013  0.0468  0.0013  0.0000  0.0000  0.0000  0.0000  0.0000 </r>
       </set>
       <set comment="band 6">
        <r>  0.0000  0.0759  0.0000  0.0756  0.0000  0.0000  0.0000  0.0000  0.0000 </r>
        <r>  0.0000  0.0758  0.0000  0.0760  0.0000  0.0000  0.0000  0.0000  0.0000 </r>
       </set>
       <set comment="band 7">
        <r>  0.0023  0.0170  0.0243  0.0170  0.0000  0.0000  0.0000  0.0000  0.0000 </r>
        <r>  0.0022  0.0170  0.0244  0.0169  0.0000  0.0000  0.0000  0.0000  0.0000 </r>
       </set>
       <set comment="band 8">
        <r>  0.0475  0.0258  0.1029  0.0260  0.0000  0.0000  0.0000  0.0000  0.0000 </r>
        <r>  0.0451  0.0277  0.1057  0.0275  0.0000  0.0000  0.0000  0.0000  0.0000 </r>
       </set>
      </set>
      <set comment="kpoint 195">
       <set comment="band 1">
        <r>  0.2131  0.0079  0.0105  0.0079  0.0000  0.0000  0.0000  0.0000  0.0000 </r>
        <r>  0.2131  0.0079  0.0105  0.0079  0.0000  0.0000  0.0000  0.0000  0.0000 </r>
       </set>
       <set comment="band 2">
        <r>  0.1751  0.0105  0.0412  0.0105  0.0000  0.0000  0.0000  0.0000  0.0000 </r>
        <r>  0.1751  0.0105  0.0412  0.0105  0.0000  0.0000  0.0000  0.0000  0.0000 </r>
       </set>
       <set comment="band 3">
        <r>  0.0043  0.0448  0.0607  0.0448  0.0000  0.0000  0.0000  0.0000  0.0000 </r>
        <r>  0.0043  0.0448  0.0607  0.0448  0.0000  0.0000  0.0000  0.0000  0.0000 </r>
       </set>
       <set comment="band 4">
        <r>  0.0000  0.1007  0.0000  0.1007  0.0000  0.0000  0.0000  0.0000  0.0000 </r>
        <r>  0.0000  0.1007  0.0000  0.1007  0.0000  0.0000  0.0000  0.0000  0.0000 </r>
       </set>
       <set comment="band 5">
        <r>  0.0545  0.0013  0.0454  0.0013  0.0000  0.0000  0.0000  0.0000  0.0000 </r>
        <r>  0.0545  0.0013  0.0454  0.0013  0.0000  0.0000  0.0000  0.0000  0.0000 </r>
       </set>
       <set comment="band 6">
        <r>  0.0022  0.0334  0.0003  0.0334  0.0000  0.0000  0.0000  0.0000  0.0000 </r>
        <r>  0.0021  0.0336  0.0003  0.0336  0.0000  0.0000  0.0000  0.0000  0.0000 </r>
       </set>
       <set comment="band 7">
        <r>  0.0000  0.0762  0.0000  0.0762  0.0000  0.0000  0.0000  0.0000  0.0000 </r>
        <r>  0.0000  0.0763  0.0000  0.0762  0.0000  0.0000  0.0000  0.0000  0.0000 </r>
       </set>
       <set comment="band 8">
        <r>  0.0487  0.0086  0.1257  0.0086  0.0000  0.0000  0.0000  0.0000  0.0000 </r>
        <r>  0.0470  0.0093  0.1278  0.0094  0.0000  0.0000  0.0000  0.0000  0.0000 </r>
       </set>
      </set>
      <set comment="kpoint 196">
       <set comment="band 1">
        <r>  0.2135  0.0074  0.0125  0.0074  0.0000  0.0000  0.0000  0.0000  0.0000 </r>
        <r>  0.2135  0.0074  0.0125  0.0074  0.0000  0.0000  0.0000  0.0000  0.0000 </r>
       </set>
       <set comment="band 2">
        <r>  0.1770  0.0094  0.0415  0.0094  0.0000  0.0000  0.0000  0.0000  0.0000 </r>
        <r>  0.1770  0.0094  0.0415  0.0094  0.0000  0.0000  0.0000  0.0000  0.0000 </r>
       </set>
       <set comment="band 3">
        <r>  0.0031  0.0466  0.0575  0.0466  0.0000  0.0000  0.0000  0.0000  0.0000 </r>
        <r>  0.0031  0.0466  0.0575  0.0466  0.0000  0.0000  0.0000  0.0000  0.0000 </r>
       </set>
       <set comment="band 4">
        <r>  0.0000  0.1003  0.0000  0.1003  0.0000  0.0000  0.0000  0.0000  0.0000 </r>
        <r>  0.0000  0.1003  0.0000  0.1003  0.0000  0.0000  0.0000  0.0000  0.0000 </r>
       </set>
       <set comment="band 5">
        <r>  0.0538  0.0012  0.0442  0.0012  0.0000  0.0000  0.0000  0.0000  0.0000 </r>
        <r>  0.0538  0.0012  0.0442  0.0012  0.0000  0.0000  0.0000  0.0000  0.0000 </r>
       </set>
       <set comment="band 6">
        <r>  0.0091  0.0385  0.0027  0.0385  0.0000  0.0000  0.0000  0.0000  0.0000 </r>
        <r>  0.0091  0.0385  0.0027  0.0385  0.0000  0.0000  0.0000  0.0000  0.0000 </r>
       </set>
       <set comment="band 7">
        <r>  0.0000  0.0768  0.0000  0.0766  0.0000  0.0000  0.0000  0.0000  0.0000 </r>
        <r>  0.0000  0.0765  0.0000  0.0768  0.0000  0.0000  0.0000  0.0000  0.0000 </r>
       </set>
       <set comment="band 8">
        <r>  0.0421  0.0027  0.1229  0.0030  0.0000  0.0000  0.0000  0.0000  0.0000 </r>
        <r>  0.0428  0.0028  0.1224  0.0025  0.0000  0.0000  0.0000  0.0000  0.0000 </r>
       </set>
      </set>
      <set comment="kpoint 197">
       <set comment="band 1">
        <r>  0.2137  0.0068  0.0146  0.0068  0.0000  0.0000  0.0000  0.0000  0.0000 </r>
        <r>  0.2137  0.0068  0.0146  0.0068  0.0000  0.0000  0.0000  0.0000  0.0000 </r>
       </set>
       <set comment="band 2">
        <r>  0.1789  0.0083  0.0417  0.0083  0.0000  0.0000  0.0000  0.0000  0.0000 </r>
        <r>  0.1789  0.0083  0.0417  0.0083  0.0000  0.0000  0.0000  0.0000  0.0000 </r>
       </set>
       <set comment="band 3">
        <r>  0.0019  0.0487  0.0541  0.0487  0.0000  0.0000  0.0000  0.0000  0.0000 </r>
        <r>  0.0019  0.0487  0.0541  0.0487  0.0000  0.0000  0.0000  0.0000  0.0000 </r>
       </set>
       <set comment="band 4">
        <r>  0.0000  0.0999  0.0000  0.0999  0.0000  0.0000  0.0000  0.0000  0.0000 </r>
        <r>  0.0000  0.0999  0.0000  0.0999  0.0000  0.0000  0.0000  0.0000  0.0000 </r>
       </set>
       <set comment="band 5">
        <r>  0.0533  0.0011  0.0431  0.0011  0.0000  0.0000  0.0000  0.0000  0.0000 </r>
        <r>  0.0533  0.0011  0.0431  0.0011  0.0000  0.0000  0.0000  0.0000  0.0000 </r>
       </set>
       <set comment="band 6">
        <r>  0.0143  0.0391  0.0070  0.0391  0.0000  0.0000  0.0000  0.0000  0.0000 </r>
        <r>  0.0143  0.0391  0.0070  0.0391  0.0000  0.0000  0.0000  0.0000  0.0000 </r>
       </set>
       <set comment="band 7">
        <r>  0.0000  0.0774  0.0000  0.0771  0.0000  0.0000  0.0000  0.0000  0.0000 </r>
        <r>  0.0000  0.0771  0.0000  0.0773  0.0000  0.0000  0.0000  0.0000  0.0000 </r>
       </set>
       <set comment="band 8">
        <r>  0.0378  0.0011  0.1169  0.0011  0.0000  0.0000  0.0000  0.0000  0.0000 </r>
        <r>  0.0392  0.0008  0.1146  0.0008  0.0000  0.0000  0.0000  0.0000  0.0000 </r>
       </set>
      </set>
      <set comment="kpoint 198">
       <set comment="band 1">
        <r>  0.2137  0.0062  0.0170  0.0062  0.0000  0.0000  0.0000  0.0000  0.0000 </r>
        <r>  0.2137  0.0062  0.0170  0.0062  0.0000  0.0000  0.0000  0.0000  0.0000 </r>
       </set>
       <set comment="band 2">
        <r>  0.1806  0.0073  0.0420  0.0073  0.0000  0.0000  0.0000  0.0000  0.0000 </r>
        <r>  0.1806  0.0073  0.0420  0.0073  0.0000  0.0000  0.0000  0.0000  0.0000 </r>
       </set>
       <set comment="band 3">
        <r>  0.0010  0.0509  0.0504  0.0509  0.0000  0.0000  0.0000  0.0000  0.0000 </r>
        <r>  0.0010  0.0509  0.0504  0.0509  0.0000  0.0000  0.0000  0.0000  0.0000 </r>
       </set>
       <set comment="band 4">
        <r>  0.0000  0.0996  0.0000  0.0996  0.0000  0.0000  0.0000  0.0000  0.0000 </r>
        <r>  0.0000  0.0996  0.0000  0.0996  0.0000  0.0000  0.0000  0.0000  0.0000 </r>
       </set>
       <set comment="band 5">
        <r>  0.0529  0.0010  0.0421  0.0010  0.0000  0.0000  0.0000  0.0000  0.0000 </r>
        <r>  0.0529  0.0010  0.0421  0.0010  0.0000  0.0000  0.0000  0.0000  0.0000 </r>
       </set>
       <set comment="band 6">
        <r>  0.0182  0.0384  0.0103  0.0384  0.0000  0.0000  0.0000  0.0000  0.0000 </r>
        <r>  0.0182  0.0384  0.0103  0.0384  0.0000  0.0000  0.0000  0.0000  0.0000 </r>
       </set>
       <set comment="band 7">
        <r>  0.0000  0.0782  0.0000  0.0776  0.0000  0.0000  0.0000  0.0000  0.0000 </r>
        <r>  0.0000  0.0776  0.0000  0.0783  0.0000  0.0000  0.0000  0.0000  0.0000 </r>
       </set>
       <set comment="band 8">
        <r>  0.0393  0.0000  0.1073  0.0000  0.0000  0.0000  0.0000  0.0000  0.0000 </r>
        <r>  0.0327  0.0006  0.1161  0.0006  0.0000  0.0000  0.0000  0.0000  0.0000 </r>
       </set>
      </set>
      <set comment="kpoint 199">
       <set comment="band 1">
        <r>  0.2133  0.0054  0.0196  0.0054  0.0000  0.0000  0.0000  0.0000  0.0000 </r>
        <r>  0.2133  0.0054  0.0196  0.0054  0.0000  0.0000  0.0000  0.0000  0.0000 </r>
       </set>
       <set comment="band 2">
        <r>  0.1823  0.0064  0.0423  0.0064  0.0000  0.0000  0.0000  0.0000  0.0000 </r>
        <r>  0.1823  0.0064  0.0423  0.0064  0.0000  0.0000  0.0000  0.0000  0.0000 </r>
       </set>
       <set comment="band 3">
        <r>  0.0004  0.0533  0.0466  0.0533  0.0000  0.0000  0.0000  0.0000  0.0000 </r>
        <r>  0.0004  0.0533  0.0466  0.0533  0.0000  0.0000  0.0000  0.0000  0.0000 </r>
       </set>
       <set comment="band 4">
        <r>  0.0000  0.0993  0.0000  0.0993  0.0000  0.0000  0.0000  0.0000  0.0000 </r>
        <r>  0.0000  0.0993  0.0000  0.0993  0.0000  0.0000  0.0000  0.0000  0.0000 </r>
       </set>
       <set comment="band 5">
        <r>  0.0526  0.0009  0.0412  0.0009  0.0000  0.0000  0.0000  0.0000  0.0000 </r>
        <r>  0.0526  0.0009  0.0412  0.0009  0.0000  0.0000  0.0000  0.0000  0.0000 </r>
       </set>
       <set comment="band 6">
        <r>  0.0214  0.0372  0.0127  0.0372  0.0000  0.0000  0.0000  0.0000  0.0000 </r>
        <r>  0.0214  0.0372  0.0127  0.0372  0.0000  0.0000  0.0000  0.0000  0.0000 </r>
       </set>
       <set comment="band 7">
        <r>  0.0000  0.0788  0.0000  0.0786  0.0000  0.0000  0.0000  0.0000  0.0000 </r>
        <r>  0.0000  0.0786  0.0000  0.0788  0.0000  0.0000  0.0000  0.0000  0.0000 </r>
       </set>
       <set comment="band 8">
        <r>  0.0323  0.0002  0.1080  0.0001  0.0000  0.0000  0.0000  0.0000  0.0000 </r>
        <r>  0.0346  0.0001  0.1049  0.0001  0.0000  0.0000  0.0000  0.0000  0.0000 </r>
       </set>
      </set>
      <set comment="kpoint 200">
       <set comment="band 1">
        <r>  0.2124  0.0047  0.0223  0.0047  0.0000  0.0000  0.0000  0.0000  0.0000 </r>
        <r>  0.2124  0.0047  0.0223  0.0047  0.0000  0.0000  0.0000  0.0000  0.0000 </r>
       </set>
       <set comment="band 2">
        <r>  0.1838  0.0055  0.0425  0.0055  0.0000  0.0000  0.0000  0.0000  0.0000 </r>
        <r>  0.1838  0.0055  0.0425  0.0055  0.0000  0.0000  0.0000  0.0000  0.0000 </r>
       </set>
       <set comment="band 3">
        <r>  0.0000  0.0559  0.0426  0.0559  0.0000  0.0000  0.0000  0.0000  0.0000 </r>
        <r>  0.0000  0.0559  0.0426  0.0559  0.0000  0.0000  0.0000  0.0000  0.0000 </r>
       </set>
       <set comment="band 4">
        <r>  0.0000  0.0990  0.0000  0.0990  0.0000  0.0000  0.0000  0.0000  0.0000 </r>
        <r>  0.0000  0.0990  0.0000  0.0990  0.0000  0.0000  0.0000  0.0000  0.0000 </r>
       </set>
       <set comment="band 5">
        <r>  0.0523  0.0008  0.0404  0.0008  0.0000  0.0000  0.0000  0.0000  0.0000 </r>
        <r>  0.0523  0.0008  0.0404  0.0008  0.0000  0.0000  0.0000  0.0000  0.0000 </r>
       </set>
       <set comment="band 6">
        <r>  0.0243  0.0357  0.0147  0.0357  0.0000  0.0000  0.0000  0.0000  0.0000 </r>
        <r>  0.0243  0.0357  0.0147  0.0357  0.0000  0.0000  0.0000  0.0000  0.0000 </r>
       </set>
       <set comment="band 7">
        <r>  0.0000  0.0800  0.0000  0.0791  0.0000  0.0000  0.0000  0.0000  0.0000 </r>
        <r>  0.0000  0.0792  0.0000  0.0799  0.0000  0.0000  0.0000  0.0000  0.0000 </r>
       </set>
       <set comment="band 8">
        <r>  0.0346  0.0001  0.0991  0.0002  0.0000  0.0000  0.0000  0.0000  0.0000 </r>
        <r>  0.0295  0.0000  0.1072  0.0000  0.0000  0.0000  0.0000  0.0000  0.0000 </r>
       </set>
      </set>
      <set comment="kpoint 201">
       <set comment="band 1">
        <r>  0.2124  0.0047  0.0223  0.0047  0.0000  0.0000  0.0000  0.0000  0.0000 </r>
        <r>  0.2124  0.0047  0.0223  0.0047  0.0000  0.0000  0.0000  0.0000  0.0000 </r>
       </set>
       <set comment="band 2">
        <r>  0.1838  0.0055  0.0425  0.0055  0.0000  0.0000  0.0000  0.0000  0.0000 </r>
        <r>  0.1838  0.0055  0.0425  0.0055  0.0000  0.0000  0.0000  0.0000  0.0000 </r>
       </set>
       <set comment="band 3">
        <r>  0.0000  0.0559  0.0426  0.0559  0.0000  0.0000  0.0000  0.0000  0.0000 </r>
        <r>  0.0000  0.0559  0.0426  0.0559  0.0000  0.0000  0.0000  0.0000  0.0000 </r>
       </set>
       <set comment="band 4">
        <r>  0.0000  0.0990  0.0000  0.0990  0.0000  0.0000  0.0000  0.0000  0.0000 </r>
        <r>  0.0000  0.0990  0.0000  0.0990  0.0000  0.0000  0.0000  0.0000  0.0000 </r>
       </set>
       <set comment="band 5">
        <r>  0.0523  0.0008  0.0404  0.0008  0.0000  0.0000  0.0000  0.0000  0.0000 </r>
        <r>  0.0523  0.0008  0.0404  0.0008  0.0000  0.0000  0.0000  0.0000  0.0000 </r>
       </set>
       <set comment="band 6">
        <r>  0.0243  0.0357  0.0147  0.0357  0.0000  0.0000  0.0000  0.0000  0.0000 </r>
        <r>  0.0243  0.0357  0.0147  0.0357  0.0000  0.0000  0.0000  0.0000  0.0000 </r>
       </set>
       <set comment="band 7">
        <r>  0.0000  0.0788  0.0000  0.0810  0.0000  0.0000  0.0000  0.0000  0.0000 </r>
        <r>  0.0000  0.0805  0.0000  0.0784  0.0000  0.0000  0.0000  0.0000  0.0000 </r>
       </set>
       <set comment="band 8">
        <r>  0.0294  0.0000  0.1078  0.0000  0.0000  0.0000  0.0000  0.0000  0.0000 </r>
        <r>  0.0349  0.0001  0.0989  0.0002  0.0000  0.0000  0.0000  0.0000  0.0000 </r>
       </set>
      </set>
      <set comment="kpoint 202">
       <set comment="band 1">
        <r>  0.2127  0.0055  0.0214  0.0044  0.0000  0.0000  0.0000  0.0000  0.0000 </r>
        <r>  0.2127  0.0055  0.0214  0.0044  0.0000  0.0000  0.0000  0.0000  0.0000 </r>
       </set>
       <set comment="band 2">
        <r>  0.1834  0.0063  0.0424  0.0054  0.0000  0.0000  0.0000  0.0000  0.0000 </r>
        <r>  0.1834  0.0063  0.0424  0.0054  0.0000  0.0000  0.0000  0.0000  0.0000 </r>
       </set>
       <set comment="band 3">
        <r>  0.0001  0.0544  0.0439  0.0555  0.0000  0.0000  0.0000  0.0000  0.0000 </r>
        <r>  0.0001  0.0544  0.0439  0.0555  0.0000  0.0000  0.0000  0.0000  0.0000 </r>
       </set>
       <set comment="band 4">
        <r>  0.0001  0.0986  0.0003  0.0988  0.0000  0.0000  0.0000  0.0000  0.0000 </r>
        <r>  0.0001  0.0986  0.0003  0.0988  0.0000  0.0000  0.0000  0.0000  0.0000 </r>
       </set>
       <set comment="band 5">
        <r>  0.0521  0.0001  0.0404  0.0023  0.0000  0.0000  0.0000  0.0000  0.0000 </r>
        <r>  0.0521  0.0001  0.0404  0.0023  0.0000  0.0000  0.0000  0.0000  0.0000 </r>
       </set>
       <set comment="band 6">
        <r>  0.0233  0.0348  0.0140  0.0376  0.0000  0.0000  0.0000  0.0000  0.0000 </r>
        <r>  0.0233  0.0348  0.0140  0.0376  0.0000  0.0000  0.0000  0.0000  0.0000 </r>
       </set>
       <set comment="band 7">
        <r>  0.0031  0.0734  0.0070  0.0738  0.0000  0.0000  0.0000  0.0000  0.0000 </r>
        <r>  0.0030  0.0740  0.0071  0.0731  0.0000  0.0000  0.0000  0.0000  0.0000 </r>
       </set>
       <set comment="band 8">
        <r>  0.0521  0.0242  0.0542  0.0095  0.0000  0.0000  0.0000  0.0000  0.0000 </r>
        <r>  0.0134  0.0059  0.1126  0.0321  0.0000  0.0000  0.0000  0.0000  0.0000 </r>
       </set>
      </set>
      <set comment="kpoint 203">
       <set comment="band 1">
        <r>  0.2129  0.0063  0.0205  0.0042  0.0000  0.0000  0.0000  0.0000  0.0000 </r>
        <r>  0.2129  0.0063  0.0205  0.0042  0.0000  0.0000  0.0000  0.0000  0.0000 </r>
       </set>
       <set comment="band 2">
        <r>  0.1831  0.0071  0.0421  0.0052  0.0000  0.0000  0.0000  0.0000  0.0000 </r>
        <r>  0.1831  0.0071  0.0421  0.0052  0.0000  0.0000  0.0000  0.0000  0.0000 </r>
       </set>
       <set comment="band 3">
        <r>  0.0002  0.0530  0.0453  0.0553  0.0000  0.0000  0.0000  0.0000  0.0000 </r>
        <r>  0.0002  0.0530  0.0453  0.0553  0.0000  0.0000  0.0000  0.0000  0.0000 </r>
       </set>
       <set comment="band 4">
        <r>  0.0004  0.0974  0.0011  0.0980  0.0000  0.0000  0.0000  0.0000  0.0000 </r>
        <r>  0.0004  0.0974  0.0011  0.0980  0.0000  0.0000  0.0000  0.0000  0.0000 </r>
       </set>
       <set comment="band 5">
        <r>  0.0516  0.0001  0.0401  0.0046  0.0000  0.0000  0.0000  0.0000  0.0000 </r>
        <r>  0.0516  0.0001  0.0401  0.0046  0.0000  0.0000  0.0000  0.0000  0.0000 </r>
       </set>
       <set comment="band 6">
        <r>  0.0223  0.0337  0.0133  0.0399  0.0000  0.0000  0.0000  0.0000  0.0000 </r>
        <r>  0.0223  0.0337  0.0133  0.0399  0.0000  0.0000  0.0000  0.0000  0.0000 </r>
       </set>
       <set comment="band 7">
        <r>  0.0084  0.0648  0.0178  0.0639  0.0000  0.0000  0.0000  0.0000  0.0000 </r>
        <r>  0.0080  0.0665  0.0180  0.0626  0.0000  0.0000  0.0000  0.0000  0.0000 </r>
       </set>
       <set comment="band 8">
        <r>  0.0472  0.0387  0.0123  0.0533  0.0000  0.0000  0.0000  0.0000  0.0000 </r>
        <r>  0.0260  0.0230  0.0468  0.0766  0.0000  0.0000  0.0000  0.0000  0.0000 </r>
       </set>
      </set>
      <set comment="kpoint 204">
       <set comment="band 1">
        <r>  0.2131  0.0072  0.0196  0.0039  0.0000  0.0000  0.0000  0.0000  0.0000 </r>
        <r>  0.2131  0.0072  0.0196  0.0039  0.0000  0.0000  0.0000  0.0000  0.0000 </r>
       </set>
       <set comment="band 2">
        <r>  0.1830  0.0079  0.0417  0.0050  0.0000  0.0000  0.0000  0.0000  0.0000 </r>
        <r>  0.1830  0.0079  0.0417  0.0050  0.0000  0.0000  0.0000  0.0000  0.0000 </r>
       </set>
       <set comment="band 3">
        <r>  0.0004  0.0515  0.0466  0.0551  0.0000  0.0000  0.0000  0.0000  0.0000 </r>
        <r>  0.0004  0.0515  0.0466  0.0551  0.0000  0.0000  0.0000  0.0000  0.0000 </r>
       </set>
       <set comment="band 4">
        <r>  0.0008  0.0955  0.0024  0.0966  0.0000  0.0000  0.0000  0.0000  0.0000 </r>
        <r>  0.0008  0.0955  0.0024  0.0966  0.0000  0.0000  0.0000  0.0000  0.0000 </r>
       </set>
       <set comment="band 5">
        <r>  0.0507  0.0007  0.0394  0.0074  0.0000  0.0000  0.0000  0.0000  0.0000 </r>
        <r>  0.0507  0.0007  0.0394  0.0074  0.0000  0.0000  0.0000  0.0000  0.0000 </r>
       </set>
       <set comment="band 6">
        <r>  0.0210  0.0322  0.0124  0.0425  0.0000  0.0000  0.0000  0.0000  0.0000 </r>
        <r>  0.0210  0.0322  0.0124  0.0425  0.0000  0.0000  0.0000  0.0000  0.0000 </r>
       </set>
       <set comment="band 7">
        <r>  0.0131  0.0596  0.0270  0.0540  0.0000  0.0000  0.0000  0.0000  0.0000 </r>
        <r>  0.0131  0.0595  0.0270  0.0541  0.0000  0.0000  0.0000  0.0000  0.0000 </r>
       </set>
       <set comment="band 8">
        <r>  0.0369  0.0289  0.0244  0.0612  0.0000  0.0000  0.0000  0.0000  0.0000 </r>
        <r>  0.0350  0.0272  0.0276  0.0638  0.0000  0.0000  0.0000  0.0000  0.0000 </r>
       </set>
      </set>
      <set comment="kpoint 205">
       <set comment="band 1">
        <r>  0.2131  0.0081  0.0187  0.0037  0.0000  0.0000  0.0000  0.0000  0.0000 </r>
        <r>  0.2131  0.0081  0.0187  0.0037  0.0000  0.0000  0.0000  0.0000  0.0000 </r>
       </set>
       <set comment="band 2">
        <r>  0.1831  0.0089  0.0412  0.0048  0.0000  0.0000  0.0000  0.0000  0.0000 </r>
        <r>  0.1831  0.0089  0.0412  0.0048  0.0000  0.0000  0.0000  0.0000  0.0000 </r>
       </set>
       <set comment="band 3">
        <r>  0.0005  0.0500  0.0480  0.0550  0.0000  0.0000  0.0000  0.0000  0.0000 </r>
        <r>  0.0005  0.0500  0.0480  0.0550  0.0000  0.0000  0.0000  0.0000  0.0000 </r>
       </set>
       <set comment="band 4">
        <r>  0.0013  0.0931  0.0041  0.0948  0.0000  0.0000  0.0000  0.0000  0.0000 </r>
        <r>  0.0013  0.0931  0.0041  0.0948  0.0000  0.0000  0.0000  0.0000  0.0000 </r>
       </set>
       <set comment="band 5">
        <r>  0.0495  0.0017  0.0384  0.0108  0.0000  0.0000  0.0000  0.0000  0.0000 </r>
        <r>  0.0495  0.0017  0.0384  0.0108  0.0000  0.0000  0.0000  0.0000  0.0000 </r>
       </set>
       <set comment="band 6">
        <r>  0.0194  0.0301  0.0113  0.0457  0.0000  0.0000  0.0000  0.0000  0.0000 </r>
        <r>  0.0194  0.0301  0.0113  0.0457  0.0000  0.0000  0.0000  0.0000  0.0000 </r>
       </set>
       <set comment="band 7">
        <r>  0.0171  0.0572  0.0326  0.0472  0.0000  0.0000  0.0000  0.0000  0.0000 </r>
        <r>  0.0171  0.0572  0.0326  0.0472  0.0000  0.0000  0.0000  0.0000  0.0000 </r>
       </set>
       <set comment="band 8">
        <r>  0.0355  0.0257  0.0255  0.0585  0.0000  0.0000  0.0000  0.0000  0.0000 </r>
        <r>  0.0353  0.0254  0.0260  0.0589  0.0000  0.0000  0.0000  0.0000  0.0000 </r>
       </set>
      </set>
      <set comment="kpoint 206">
       <set comment="band 1">
        <r>  0.2131  0.0091  0.0178  0.0035  0.0000  0.0000  0.0000  0.0000  0.0000 </r>
        <r>  0.2131  0.0091  0.0178  0.0035  0.0000  0.0000  0.0000  0.0000  0.0000 </r>
       </set>
       <set comment="band 2">
        <r>  0.1833  0.0099  0.0406  0.0046  0.0000  0.0000  0.0000  0.0000  0.0000 </r>
        <r>  0.1833  0.0099  0.0406  0.0046  0.0000  0.0000  0.0000  0.0000  0.0000 </r>
       </set>
       <set comment="band 3">
        <r>  0.0007  0.0485  0.0494  0.0550  0.0000  0.0000  0.0000  0.0000  0.0000 </r>
        <r>  0.0007  0.0485  0.0494  0.0550  0.0000  0.0000  0.0000  0.0000  0.0000 </r>
       </set>
       <set comment="band 4">
        <r>  0.0019  0.0902  0.0061  0.0928  0.0000  0.0000  0.0000  0.0000  0.0000 </r>
        <r>  0.0019  0.0902  0.0061  0.0928  0.0000  0.0000  0.0000  0.0000  0.0000 </r>
       </set>
       <set comment="band 5">
        <r>  0.0481  0.0031  0.0372  0.0144  0.0000  0.0000  0.0000  0.0000  0.0000 </r>
        <r>  0.0481  0.0031  0.0372  0.0144  0.0000  0.0000  0.0000  0.0000  0.0000 </r>
       </set>
       <set comment="band 6">
        <r>  0.0174  0.0273  0.0097  0.0499  0.0000  0.0000  0.0000  0.0000  0.0000 </r>
        <r>  0.0174  0.0273  0.0097  0.0499  0.0000  0.0000  0.0000  0.0000  0.0000 </r>
       </set>
       <set comment="band 7">
        <r>  0.0211  0.0568  0.0370  0.0405  0.0000  0.0000  0.0000  0.0000  0.0000 </r>
        <r>  0.0211  0.0567  0.0370  0.0405  0.0000  0.0000  0.0000  0.0000  0.0000 </r>
       </set>
       <set comment="band 8">
        <r>  0.0352  0.0239  0.0259  0.0553  0.0000  0.0000  0.0000  0.0000  0.0000 </r>
        <r>  0.0353  0.0239  0.0258  0.0552  0.0000  0.0000  0.0000  0.0000  0.0000 </r>
       </set>
      </set>
      <set comment="kpoint 207">
       <set comment="band 1">
        <r>  0.2129  0.0101  0.0169  0.0033  0.0000  0.0000  0.0000  0.0000  0.0000 </r>
        <r>  0.2129  0.0101  0.0169  0.0033  0.0000  0.0000  0.0000  0.0000  0.0000 </r>
       </set>
       <set comment="band 2">
        <r>  0.1837  0.0109  0.0398  0.0044  0.0000  0.0000  0.0000  0.0000  0.0000 </r>
        <r>  0.1837  0.0109  0.0398  0.0044  0.0000  0.0000  0.0000  0.0000  0.0000 </r>
       </set>
       <set comment="band 3">
        <r>  0.0010  0.0470  0.0507  0.0550  0.0000  0.0000  0.0000  0.0000  0.0000 </r>
        <r>  0.0010  0.0470  0.0507  0.0550  0.0000  0.0000  0.0000  0.0000  0.0000 </r>
       </set>
       <set comment="band 4">
        <r>  0.0023  0.0870  0.0083  0.0907  0.0000  0.0000  0.0000  0.0000  0.0000 </r>
        <r>  0.0023  0.0870  0.0083  0.0907  0.0000  0.0000  0.0000  0.0000  0.0000 </r>
       </set>
       <set comment="band 5">
        <r>  0.0464  0.0046  0.0359  0.0182  0.0000  0.0000  0.0000  0.0000  0.0000 </r>
        <r>  0.0464  0.0046  0.0359  0.0182  0.0000  0.0000  0.0000  0.0000  0.0000 </r>
       </set>
       <set comment="band 6">
        <r>  0.0145  0.0230  0.0076  0.0557  0.0000  0.0000  0.0000  0.0000  0.0000 </r>
        <r>  0.0145  0.0230  0.0076  0.0557  0.0000  0.0000  0.0000  0.0000  0.0000 </r>
       </set>
       <set comment="band 7">
        <r>  0.0255  0.0585  0.0411  0.0330  0.0000  0.0000  0.0000  0.0000  0.0000 </r>
        <r>  0.0255  0.0585  0.0411  0.0330  0.0000  0.0000  0.0000  0.0000  0.0000 </r>
       </set>
       <set comment="band 8">
        <r>  0.0356  0.0230  0.0261  0.0522  0.0000  0.0000  0.0000  0.0000  0.0000 </r>
        <r>  0.0356  0.0230  0.0261  0.0522  0.0000  0.0000  0.0000  0.0000  0.0000 </r>
       </set>
      </set>
      <set comment="kpoint 208">
       <set comment="band 1">
        <r>  0.2127  0.0111  0.0160  0.0030  0.0000  0.0000  0.0000  0.0000  0.0000 </r>
        <r>  0.2127  0.0111  0.0160  0.0030  0.0000  0.0000  0.0000  0.0000  0.0000 </r>
       </set>
       <set comment="band 2">
        <r>  0.1842  0.0121  0.0389  0.0042  0.0000  0.0000  0.0000  0.0000  0.0000 </r>
        <r>  0.1842  0.0121  0.0389  0.0042  0.0000  0.0000  0.0000  0.0000  0.0000 </r>
       </set>
       <set comment="band 3">
        <r>  0.0012  0.0455  0.0521  0.0551  0.0000  0.0000  0.0000  0.0000  0.0000 </r>
        <r>  0.0012  0.0455  0.0521  0.0551  0.0000  0.0000  0.0000  0.0000  0.0000 </r>
       </set>
       <set comment="band 4">
        <r>  0.0027  0.0836  0.0108  0.0888  0.0000  0.0000  0.0000  0.0000  0.0000 </r>
        <r>  0.0027  0.0836  0.0108  0.0888  0.0000  0.0000  0.0000  0.0000  0.0000 </r>
       </set>
       <set comment="band 5">
        <r>  0.0446  0.0061  0.0345  0.0221  0.0000  0.0000  0.0000  0.0000  0.0000 </r>
        <r>  0.0446  0.0061  0.0345  0.0221  0.0000  0.0000  0.0000  0.0000  0.0000 </r>
       </set>
       <set comment="band 6">
        <r>  0.0103  0.0165  0.0045  0.0644  0.0000  0.0000  0.0000  0.0000  0.0000 </r>
        <r>  0.0103  0.0165  0.0045  0.0643  0.0000  0.0000  0.0000  0.0000  0.0000 </r>
       </set>
       <set comment="band 7">
        <r>  0.0312  0.0630  0.0455  0.0233  0.0000  0.0000  0.0000  0.0000  0.0000 </r>
        <r>  0.0311  0.0630  0.0456  0.0232  0.0000  0.0000  0.0000  0.0000  0.0000 </r>
       </set>
       <set comment="band 8">
        <r>  0.0362  0.0225  0.0264  0.0493  0.0000  0.0000  0.0000  0.0000  0.0000 </r>
        <r>  0.0361  0.0224  0.0266  0.0495  0.0000  0.0000  0.0000  0.0000  0.0000 </r>
       </set>
      </set>
      <set comment="kpoint 209">
       <set comment="band 1">
        <r>  0.2125  0.0122  0.0151  0.0028  0.0000  0.0000  0.0000  0.0000  0.0000 </r>
        <r>  0.2125  0.0122  0.0151  0.0028  0.0000  0.0000  0.0000  0.0000  0.0000 </r>
       </set>
       <set comment="band 2">
        <r>  0.1848  0.0133  0.0379  0.0040  0.0000  0.0000  0.0000  0.0000  0.0000 </r>
        <r>  0.1848  0.0133  0.0379  0.0040  0.0000  0.0000  0.0000  0.0000  0.0000 </r>
       </set>
       <set comment="band 3">
        <r>  0.0015  0.0440  0.0534  0.0553  0.0000  0.0000  0.0000  0.0000  0.0000 </r>
        <r>  0.0015  0.0440  0.0534  0.0553  0.0000  0.0000  0.0000  0.0000  0.0000 </r>
       </set>
       <set comment="band 4">
        <r>  0.0029  0.0801  0.0134  0.0869  0.0000  0.0000  0.0000  0.0000  0.0000 </r>
        <r>  0.0029  0.0801  0.0134  0.0869  0.0000  0.0000  0.0000  0.0000  0.0000 </r>
       </set>
       <set comment="band 5">
        <r>  0.0427  0.0076  0.0330  0.0260  0.0000  0.0000  0.0000  0.0000  0.0000 </r>
        <r>  0.0427  0.0076  0.0330  0.0260  0.0000  0.0000  0.0000  0.0000  0.0000 </r>
       </set>
       <set comment="band 6">
        <r>  0.0043  0.0070  0.0008  0.0766  0.0000  0.0000  0.0000  0.0000  0.0000 </r>
        <r>  0.0043  0.0070  0.0008  0.0766  0.0000  0.0000  0.0000  0.0000  0.0000 </r>
       </set>
       <set comment="band 7">
        <r>  0.0384  0.0708  0.0500  0.0102  0.0000  0.0000  0.0000  0.0000  0.0000 </r>
        <r>  0.0384  0.0708  0.0500  0.0102  0.0000  0.0000  0.0000  0.0000  0.0000 </r>
       </set>
       <set comment="band 8">
        <r>  0.0370  0.0223  0.0269  0.0468  0.0000  0.0000  0.0000  0.0000  0.0000 </r>
        <r>  0.0370  0.0224  0.0269  0.0467  0.0000  0.0000  0.0000  0.0000  0.0000 </r>
       </set>
      </set>
      <set comment="kpoint 210">
       <set comment="band 1">
        <r>  0.2121  0.0133  0.0143  0.0026  0.0000  0.0000  0.0000  0.0000  0.0000 </r>
        <r>  0.2121  0.0133  0.0143  0.0026  0.0000  0.0000  0.0000  0.0000  0.0000 </r>
       </set>
       <set comment="band 2">
        <r>  0.1855  0.0147  0.0367  0.0038  0.0000  0.0000  0.0000  0.0000  0.0000 </r>
        <r>  0.1855  0.0147  0.0367  0.0038  0.0000  0.0000  0.0000  0.0000  0.0000 </r>
       </set>
       <set comment="band 3">
        <r>  0.0018  0.0424  0.0548  0.0555  0.0000  0.0000  0.0000  0.0000  0.0000 </r>
        <r>  0.0018  0.0424  0.0548  0.0555  0.0000  0.0000  0.0000  0.0000  0.0000 </r>
       </set>
       <set comment="band 4">
        <r>  0.0030  0.0766  0.0161  0.0852  0.0000  0.0000  0.0000  0.0000  0.0000 </r>
        <r>  0.0030  0.0766  0.0161  0.0852  0.0000  0.0000  0.0000  0.0000  0.0000 </r>
       </set>
       <set comment="band 5">
        <r>  0.0406  0.0090  0.0315  0.0300  0.0000  0.0000  0.0000  0.0000  0.0000 </r>
        <r>  0.0406  0.0090  0.0315  0.0300  0.0000  0.0000  0.0000  0.0000  0.0000 </r>
       </set>
       <set comment="band 6">
        <r>  0.0000  0.0001  0.0011  0.0860  0.0000  0.0000  0.0000  0.0000  0.0000 </r>
        <r>  0.0000  0.0001  0.0011  0.0860  0.0000  0.0000  0.0000  0.0000  0.0000 </r>
       </set>
       <set comment="band 7">
        <r>  0.0438  0.0763  0.0503  0.0003  0.0000  0.0000  0.0000  0.0000  0.0000 </r>
        <r>  0.0438  0.0764  0.0503  0.0003  0.0000  0.0000  0.0000  0.0000  0.0000 </r>
       </set>
       <set comment="band 8">
        <r>  0.0381  0.0224  0.0275  0.0440  0.0000  0.0000  0.0000  0.0000  0.0000 </r>
        <r>  0.0381  0.0224  0.0275  0.0440  0.0000  0.0000  0.0000  0.0000  0.0000 </r>
       </set>
      </set>
      <set comment="kpoint 211">
       <set comment="band 1">
        <r>  0.2117  0.0144  0.0134  0.0024  0.0000  0.0000  0.0000  0.0000  0.0000 </r>
        <r>  0.2117  0.0144  0.0134  0.0024  0.0000  0.0000  0.0000  0.0000  0.0000 </r>
       </set>
       <set comment="band 2">
        <r>  0.1864  0.0161  0.0354  0.0035  0.0000  0.0000  0.0000  0.0000  0.0000 </r>
        <r>  0.1864  0.0161  0.0354  0.0035  0.0000  0.0000  0.0000  0.0000  0.0000 </r>
       </set>
       <set comment="band 3">
        <r>  0.0021  0.0409  0.0561  0.0558  0.0000  0.0000  0.0000  0.0000  0.0000 </r>
        <r>  0.0021  0.0409  0.0561  0.0558  0.0000  0.0000  0.0000  0.0000  0.0000 </r>
       </set>
       <set comment="band 4">
        <r>  0.0030  0.0730  0.0190  0.0838  0.0000  0.0000  0.0000  0.0000  0.0000 </r>
        <r>  0.0030  0.0730  0.0190  0.0838  0.0000  0.0000  0.0000  0.0000  0.0000 </r>
       </set>
       <set comment="band 5">
        <r>  0.0382  0.0101  0.0299  0.0340  0.0000  0.0000  0.0000  0.0000  0.0000 </r>
        <r>  0.0382  0.0101  0.0299  0.0340  0.0000  0.0000  0.0000  0.0000  0.0000 </r>
       </set>
       <set comment="band 6">
        <r>  0.0032  0.0041  0.0085  0.0812  0.0000  0.0000  0.0000  0.0000  0.0000 </r>
        <r>  0.0032  0.0041  0.0085  0.0812  0.0000  0.0000  0.0000  0.0000  0.0000 </r>
       </set>
       <set comment="band 7">
        <r>  0.0394  0.0228  0.0282  0.0412  0.0000  0.0000  0.0000  0.0000  0.0000 </r>
        <r>  0.0394  0.0228  0.0282  0.0412  0.0000  0.0000  0.0000  0.0000  0.0000 </r>
       </set>
       <set comment="band 8">
        <r>  0.0416  0.0710  0.0433  0.0046  0.0000  0.0000  0.0000  0.0000  0.0000 </r>
        <r>  0.0416  0.0710  0.0433  0.0046  0.0000  0.0000  0.0000  0.0000  0.0000 </r>
       </set>
      </set>
      <set comment="kpoint 212">
       <set comment="band 1">
        <r>  0.2112  0.0156  0.0126  0.0022  0.0000  0.0000  0.0000  0.0000  0.0000 </r>
        <r>  0.2112  0.0156  0.0126  0.0022  0.0000  0.0000  0.0000  0.0000  0.0000 </r>
       </set>
       <set comment="band 2">
        <r>  0.1873  0.0176  0.0339  0.0032  0.0000  0.0000  0.0000  0.0000  0.0000 </r>
        <r>  0.1873  0.0176  0.0339  0.0032  0.0000  0.0000  0.0000  0.0000  0.0000 </r>
       </set>
       <set comment="band 3">
        <r>  0.0024  0.0393  0.0574  0.0562  0.0000  0.0000  0.0000  0.0000  0.0000 </r>
        <r>  0.0024  0.0393  0.0574  0.0562  0.0000  0.0000  0.0000  0.0000  0.0000 </r>
       </set>
       <set comment="band 4">
        <r>  0.0029  0.0694  0.0219  0.0825  0.0000  0.0000  0.0000  0.0000  0.0000 </r>
        <r>  0.0029  0.0694  0.0219  0.0825  0.0000  0.0000  0.0000  0.0000  0.0000 </r>
       </set>
       <set comment="band 5">
        <r>  0.0356  0.0110  0.0282  0.0383  0.0000  0.0000  0.0000  0.0000  0.0000 </r>
        <r>  0.0356  0.0110  0.0282  0.0383  0.0000  0.0000  0.0000  0.0000  0.0000 </r>
       </set>
       <set comment="band 6">
        <r>  0.0088  0.0111  0.0154  0.0718  0.0000  0.0000  0.0000  0.0000  0.0000 </r>
        <r>  0.0088  0.0111  0.0154  0.0718  0.0000  0.0000  0.0000  0.0000  0.0000 </r>
       </set>
       <set comment="band 7">
        <r>  0.0411  0.0234  0.0290  0.0381  0.0000  0.0000  0.0000  0.0000  0.0000 </r>
        <r>  0.0411  0.0234  0.0290  0.0381  0.0000  0.0000  0.0000  0.0000  0.0000 </r>
       </set>
       <set comment="band 8">
        <r>  0.0370  0.0629  0.0366  0.0137  0.0000  0.0000  0.0000  0.0000  0.0000 </r>
        <r>  0.0371  0.0629  0.0366  0.0137  0.0000  0.0000  0.0000  0.0000  0.0000 </r>
       </set>
      </set>
      <set comment="kpoint 213">
       <set comment="band 1">
        <r>  0.2107  0.0167  0.0118  0.0021  0.0000  0.0000  0.0000  0.0000  0.0000 </r>
        <r>  0.2107  0.0167  0.0118  0.0021  0.0000  0.0000  0.0000  0.0000  0.0000 </r>
       </set>
       <set comment="band 2">
        <r>  0.1883  0.0192  0.0324  0.0029  0.0000  0.0000  0.0000  0.0000  0.0000 </r>
        <r>  0.1883  0.0192  0.0324  0.0029  0.0000  0.0000  0.0000  0.0000  0.0000 </r>
       </set>
       <set comment="band 3">
        <r>  0.0027  0.0377  0.0588  0.0567  0.0000  0.0000  0.0000  0.0000  0.0000 </r>
        <r>  0.0027  0.0377  0.0588  0.0567  0.0000  0.0000  0.0000  0.0000  0.0000 </r>
       </set>
       <set comment="band 4">
        <r>  0.0026  0.0657  0.0249  0.0815  0.0000  0.0000  0.0000  0.0000  0.0000 </r>
        <r>  0.0026  0.0657  0.0249  0.0815  0.0000  0.0000  0.0000  0.0000  0.0000 </r>
       </set>
       <set comment="band 5">
        <r>  0.0324  0.0114  0.0261  0.0430  0.0000  0.0000  0.0000  0.0000  0.0000 </r>
        <r>  0.0324  0.0114  0.0261  0.0430  0.0000  0.0000  0.0000  0.0000  0.0000 </r>
       </set>
       <set comment="band 6">
        <r>  0.0133  0.0160  0.0196  0.0643  0.0000  0.0000  0.0000  0.0000  0.0000 </r>
        <r>  0.0133  0.0160  0.0196  0.0643  0.0000  0.0000  0.0000  0.0000  0.0000 </r>
       </set>
       <set comment="band 7">
        <r>  0.0433  0.0244  0.0303  0.0344  0.0000  0.0000  0.0000  0.0000  0.0000 </r>
        <r>  0.0433  0.0244  0.0303  0.0344  0.0000  0.0000  0.0000  0.0000  0.0000 </r>
       </set>
       <set comment="band 8">
        <r>  0.0335  0.0569  0.0326  0.0210  0.0000  0.0000  0.0000  0.0000  0.0000 </r>
        <r>  0.0335  0.0570  0.0326  0.0210  0.0000  0.0000  0.0000  0.0000  0.0000 </r>
       </set>
      </set>
      <set comment="kpoint 214">
       <set comment="band 1">
        <r>  0.2102  0.0179  0.0110  0.0019  0.0000  0.0000  0.0000  0.0000  0.0000 </r>
        <r>  0.2102  0.0179  0.0110  0.0019  0.0000  0.0000  0.0000  0.0000  0.0000 </r>
       </set>
       <set comment="band 2">
        <r>  0.1893  0.0209  0.0307  0.0026  0.0000  0.0000  0.0000  0.0000  0.0000 </r>
        <r>  0.1893  0.0209  0.0307  0.0026  0.0000  0.0000  0.0000  0.0000  0.0000 </r>
       </set>
       <set comment="band 3">
        <r>  0.0030  0.0362  0.0601  0.0573  0.0000  0.0000  0.0000  0.0000  0.0000 </r>
        <r>  0.0030  0.0362  0.0601  0.0573  0.0000  0.0000  0.0000  0.0000  0.0000 </r>
       </set>
       <set comment="band 4">
        <r>  0.0023  0.0621  0.0281  0.0806  0.0000  0.0000  0.0000  0.0000  0.0000 </r>
        <r>  0.0023  0.0621  0.0281  0.0806  0.0000  0.0000  0.0000  0.0000  0.0000 </r>
       </set>
       <set comment="band 5">
        <r>  0.0283  0.0112  0.0234  0.0486  0.0000  0.0000  0.0000  0.0000  0.0000 </r>
        <r>  0.0283  0.0112  0.0234  0.0486  0.0000  0.0000  0.0000  0.0000  0.0000 </r>
       </set>
       <set comment="band 6">
        <r>  0.0168  0.0191  0.0220  0.0589  0.0000  0.0000  0.0000  0.0000  0.0000 </r>
        <r>  0.0168  0.0191  0.0220  0.0589  0.0000  0.0000  0.0000  0.0000  0.0000 </r>
       </set>
       <set comment="band 7">
        <r>  0.0466  0.0261  0.0322  0.0297  0.0000  0.0000  0.0000  0.0000  0.0000 </r>
        <r>  0.0466  0.0261  0.0322  0.0297  0.0000  0.0000  0.0000  0.0000  0.0000 </r>
       </set>
       <set comment="band 8">
        <r>  0.0310  0.0528  0.0304  0.0264  0.0000  0.0000  0.0000  0.0000  0.0000 </r>
        <r>  0.0310  0.0528  0.0304  0.0264  0.0000  0.0000  0.0000  0.0000  0.0000 </r>
       </set>
      </set>
      <set comment="kpoint 215">
       <set comment="band 1">
        <r>  0.2095  0.0191  0.0103  0.0017  0.0000  0.0000  0.0000  0.0000  0.0000 </r>
        <r>  0.2095  0.0191  0.0103  0.0017  0.0000  0.0000  0.0000  0.0000  0.0000 </r>
       </set>
       <set comment="band 2">
        <r>  0.1903  0.0227  0.0288  0.0023  0.0000  0.0000  0.0000  0.0000  0.0000 </r>
        <r>  0.1903  0.0227  0.0288  0.0023  0.0000  0.0000  0.0000  0.0000  0.0000 </r>
       </set>
       <set comment="band 3">
        <r>  0.0033  0.0346  0.0615  0.0579  0.0000  0.0000  0.0000  0.0000  0.0000 </r>
        <r>  0.0033  0.0346  0.0615  0.0579  0.0000  0.0000  0.0000  0.0000  0.0000 </r>
       </set>
       <set comment="band 4">
        <r>  0.0019  0.0584  0.0313  0.0800  0.0000  0.0000  0.0000  0.0000  0.0000 </r>
        <r>  0.0019  0.0584  0.0313  0.0800  0.0000  0.0000  0.0000  0.0000  0.0000 </r>
       </set>
       <set comment="band 5">
        <r>  0.0222  0.0097  0.0193  0.0562  0.0000  0.0000  0.0000  0.0000  0.0000 </r>
        <r>  0.0222  0.0097  0.0193  0.0562  0.0000  0.0000  0.0000  0.0000  0.0000 </r>
       </set>
       <set comment="band 6">
        <r>  0.0195  0.0211  0.0234  0.0547  0.0000  0.0000  0.0000  0.0000  0.0000 </r>
        <r>  0.0195  0.0211  0.0234  0.0547  0.0000  0.0000  0.0000  0.0000  0.0000 </r>
       </set>
       <set comment="band 7">
        <r>  0.0518  0.0289  0.0357  0.0229  0.0000  0.0000  0.0000  0.0000  0.0000 </r>
        <r>  0.0518  0.0289  0.0357  0.0229  0.0000  0.0000  0.0000  0.0000  0.0000 </r>
       </set>
       <set comment="band 8">
        <r>  0.0291  0.0498  0.0291  0.0305  0.0000  0.0000  0.0000  0.0000  0.0000 </r>
        <r>  0.0291  0.0497  0.0291  0.0305  0.0000  0.0000  0.0000  0.0000  0.0000 </r>
       </set>
      </set>
      <set comment="kpoint 216">
       <set comment="band 1">
        <r>  0.2089  0.0203  0.0096  0.0016  0.0000  0.0000  0.0000  0.0000  0.0000 </r>
        <r>  0.2089  0.0203  0.0096  0.0016  0.0000  0.0000  0.0000  0.0000  0.0000 </r>
       </set>
       <set comment="band 2">
        <r>  0.1913  0.0245  0.0269  0.0020  0.0000  0.0000  0.0000  0.0000  0.0000 </r>
        <r>  0.1913  0.0245  0.0269  0.0020  0.0000  0.0000  0.0000  0.0000  0.0000 </r>
       </set>
       <set comment="band 3">
        <r>  0.0036  0.0330  0.0629  0.0586  0.0000  0.0000  0.0000  0.0000  0.0000 </r>
        <r>  0.0036  0.0330  0.0629  0.0586  0.0000  0.0000  0.0000  0.0000  0.0000 </r>
       </set>
       <set comment="band 4">
        <r>  0.0015  0.0548  0.0346  0.0795  0.0000  0.0000  0.0000  0.0000  0.0000 </r>
        <r>  0.0015  0.0548  0.0346  0.0795  0.0000  0.0000  0.0000  0.0000  0.0000 </r>
       </set>
       <set comment="band 5">
        <r>  0.0121  0.0057  0.0117  0.0681  0.0000  0.0000  0.0000  0.0000  0.0000 </r>
        <r>  0.0121  0.0057  0.0117  0.0681  0.0000  0.0000  0.0000  0.0000  0.0000 </r>
       </set>
       <set comment="band 6">
        <r>  0.0219  0.0225  0.0241  0.0512  0.0000  0.0000  0.0000  0.0000  0.0000 </r>
        <r>  0.0219  0.0225  0.0241  0.0512  0.0000  0.0000  0.0000  0.0000  0.0000 </r>
       </set>
       <set comment="band 7">
        <r>  0.0611  0.0342  0.0425  0.0118  0.0000  0.0000  0.0000  0.0000  0.0000 </r>
        <r>  0.0611  0.0342  0.0425  0.0118  0.0000  0.0000  0.0000  0.0000  0.0000 </r>
       </set>
       <set comment="band 8">
        <r>  0.0276  0.0474  0.0285  0.0340  0.0000  0.0000  0.0000  0.0000  0.0000 </r>
        <r>  0.0276  0.0473  0.0285  0.0340  0.0000  0.0000  0.0000  0.0000  0.0000 </r>
       </set>
      </set>
      <set comment="kpoint 217">
       <set comment="band 1">
        <r>  0.2082  0.0215  0.0088  0.0014  0.0000  0.0000  0.0000  0.0000  0.0000 </r>
        <r>  0.2082  0.0215  0.0088  0.0014  0.0000  0.0000  0.0000  0.0000  0.0000 </r>
       </set>
       <set comment="band 2">
        <r>  0.1922  0.0264  0.0249  0.0017  0.0000  0.0000  0.0000  0.0000  0.0000 </r>
        <r>  0.1922  0.0264  0.0249  0.0017  0.0000  0.0000  0.0000  0.0000  0.0000 </r>
       </set>
       <set comment="band 3">
        <r>  0.0039  0.0314  0.0642  0.0594  0.0000  0.0000  0.0000  0.0000  0.0000 </r>
        <r>  0.0039  0.0314  0.0642  0.0594  0.0000  0.0000  0.0000  0.0000  0.0000 </r>
       </set>
       <set comment="band 4">
        <r>  0.0011  0.0511  0.0379  0.0793  0.0000  0.0000  0.0000  0.0000  0.0000 </r>
        <r>  0.0011  0.0511  0.0379  0.0793  0.0000  0.0000  0.0000  0.0000  0.0000 </r>
       </set>
       <set comment="band 5">
        <r>  0.0239  0.0236  0.0244  0.0483  0.0000  0.0000  0.0000  0.0000  0.0000 </r>
        <r>  0.0239  0.0236  0.0244  0.0483  0.0000  0.0000  0.0000  0.0000  0.0000 </r>
       </set>
       <set comment="band 6">
        <r>  0.0002  0.0001  0.0010  0.0805  0.0000  0.0000  0.0000  0.0000  0.0000 </r>
        <r>  0.0002  0.0001  0.0010  0.0805  0.0000  0.0000  0.0000  0.0000  0.0000 </r>
       </set>
       <set comment="band 7">
        <r>  0.0721  0.0411  0.0526  0.0000  0.0000  0.0000  0.0000  0.0000  0.0000 </r>
        <r>  0.0721  0.0411  0.0526  0.0000  0.0000  0.0000  0.0000  0.0000  0.0000 </r>
       </set>
       <set comment="band 8">
        <r>  0.0264  0.0454  0.0282  0.0371  0.0000  0.0000  0.0000  0.0000  0.0000 </r>
        <r>  0.0264  0.0454  0.0283  0.0371  0.0000  0.0000  0.0000  0.0000  0.0000 </r>
       </set>
      </set>
      <set comment="kpoint 218">
       <set comment="band 1">
        <r>  0.2075  0.0226  0.0082  0.0013  0.0000  0.0000  0.0000  0.0000  0.0000 </r>
        <r>  0.2075  0.0226  0.0082  0.0013  0.0000  0.0000  0.0000  0.0000  0.0000 </r>
       </set>
       <set comment="band 2">
        <r>  0.1931  0.0283  0.0229  0.0015  0.0000  0.0000  0.0000  0.0000  0.0000 </r>
        <r>  0.1931  0.0283  0.0229  0.0015  0.0000  0.0000  0.0000  0.0000  0.0000 </r>
       </set>
       <set comment="band 3">
        <r>  0.0042  0.0298  0.0656  0.0603  0.0000  0.0000  0.0000  0.0000  0.0000 </r>
        <r>  0.0042  0.0298  0.0656  0.0603  0.0000  0.0000  0.0000  0.0000  0.0000 </r>
       </set>
       <set comment="band 4">
        <r>  0.0007  0.0475  0.0413  0.0791  0.0000  0.0000  0.0000  0.0000  0.0000 </r>
        <r>  0.0007  0.0475  0.0413  0.0791  0.0000  0.0000  0.0000  0.0000  0.0000 </r>
       </set>
       <set comment="band 5">
        <r>  0.0258  0.0244  0.0244  0.0456  0.0000  0.0000  0.0000  0.0000  0.0000 </r>
        <r>  0.0258  0.0244  0.0244  0.0456  0.0000  0.0000  0.0000  0.0000  0.0000 </r>
       </set>
       <set comment="band 6">
        <r>  0.0086  0.0048  0.0035  0.0690  0.0000  0.0000  0.0000  0.0000  0.0000 </r>
        <r>  0.0086  0.0048  0.0035  0.0690  0.0000  0.0000  0.0000  0.0000  0.0000 </r>
       </set>
       <set comment="band 7">
        <r>  0.0630  0.0376  0.0494  0.0121  0.0000  0.0000  0.0000  0.0000  0.0000 </r>
        <r>  0.0629  0.0376  0.0494  0.0121  0.0000  0.0000  0.0000  0.0000  0.0000 </r>
       </set>
       <set comment="band 8">
        <r>  0.0253  0.0435  0.0285  0.0399  0.0000  0.0000  0.0000  0.0000  0.0000 </r>
        <r>  0.0253  0.0436  0.0284  0.0400  0.0000  0.0000  0.0000  0.0000  0.0000 </r>
       </set>
      </set>
      <set comment="kpoint 219">
       <set comment="band 1">
        <r>  0.2067  0.0238  0.0075  0.0011  0.0000  0.0000  0.0000  0.0000  0.0000 </r>
        <r>  0.2067  0.0238  0.0075  0.0011  0.0000  0.0000  0.0000  0.0000  0.0000 </r>
       </set>
       <set comment="band 2">
        <r>  0.1938  0.0302  0.0209  0.0012  0.0000  0.0000  0.0000  0.0000  0.0000 </r>
        <r>  0.1938  0.0302  0.0209  0.0012  0.0000  0.0000  0.0000  0.0000  0.0000 </r>
       </set>
       <set comment="band 3">
        <r>  0.0044  0.0283  0.0671  0.0613  0.0000  0.0000  0.0000  0.0000  0.0000 </r>
        <r>  0.0044  0.0283  0.0671  0.0613  0.0000  0.0000  0.0000  0.0000  0.0000 </r>
       </set>
       <set comment="band 4">
        <r>  0.0004  0.0439  0.0447  0.0792  0.0000  0.0000  0.0000  0.0000  0.0000 </r>
        <r>  0.0004  0.0439  0.0447  0.0792  0.0000  0.0000  0.0000  0.0000  0.0000 </r>
       </set>
       <set comment="band 5">
        <r>  0.0275  0.0251  0.0242  0.0432  0.0000  0.0000  0.0000  0.0000  0.0000 </r>
        <r>  0.0275  0.0251  0.0242  0.0432  0.0000  0.0000  0.0000  0.0000  0.0000 </r>
       </set>
       <set comment="band 6">
        <r>  0.0194  0.0108  0.0095  0.0554  0.0000  0.0000  0.0000  0.0000  0.0000 </r>
        <r>  0.0194  0.0108  0.0095  0.0554  0.0000  0.0000  0.0000  0.0000  0.0000 </r>
       </set>
       <set comment="band 7">
        <r>  0.0514  0.0327  0.0429  0.0261  0.0000  0.0000  0.0000  0.0000  0.0000 </r>
        <r>  0.0514  0.0327  0.0429  0.0261  0.0000  0.0000  0.0000  0.0000  0.0000 </r>
       </set>
       <set comment="band 8">
        <r>  0.0244  0.0419  0.0290  0.0427  0.0000  0.0000  0.0000  0.0000  0.0000 </r>
        <r>  0.0244  0.0419  0.0290  0.0427  0.0000  0.0000  0.0000  0.0000  0.0000 </r>
       </set>
      </set>
      <set comment="kpoint 220">
       <set comment="band 1">
        <r>  0.2060  0.0250  0.0069  0.0010  0.0000  0.0000  0.0000  0.0000  0.0000 </r>
        <r>  0.2060  0.0250  0.0069  0.0010  0.0000  0.0000  0.0000  0.0000  0.0000 </r>
       </set>
       <set comment="band 2">
        <r>  0.1944  0.0321  0.0188  0.0010  0.0000  0.0000  0.0000  0.0000  0.0000 </r>
        <r>  0.1944  0.0321  0.0188  0.0010  0.0000  0.0000  0.0000  0.0000  0.0000 </r>
       </set>
       <set comment="band 3">
        <r>  0.0046  0.0267  0.0685  0.0624  0.0000  0.0000  0.0000  0.0000  0.0000 </r>
        <r>  0.0046  0.0267  0.0685  0.0624  0.0000  0.0000  0.0000  0.0000  0.0000 </r>
       </set>
       <set comment="band 4">
        <r>  0.0002  0.0404  0.0481  0.0793  0.0000  0.0000  0.0000  0.0000  0.0000 </r>
        <r>  0.0002  0.0404  0.0481  0.0793  0.0000  0.0000  0.0000  0.0000  0.0000 </r>
       </set>
       <set comment="band 5">
        <r>  0.0292  0.0257  0.0238  0.0408  0.0000  0.0000  0.0000  0.0000  0.0000 </r>
        <r>  0.0292  0.0257  0.0238  0.0408  0.0000  0.0000  0.0000  0.0000  0.0000 </r>
       </set>
       <set comment="band 6">
        <r>  0.0254  0.0142  0.0126  0.0475  0.0000  0.0000  0.0000  0.0000  0.0000 </r>
        <r>  0.0254  0.0142  0.0126  0.0475  0.0000  0.0000  0.0000  0.0000  0.0000 </r>
       </set>
       <set comment="band 7">
        <r>  0.0445  0.0303  0.0391  0.0344  0.0000  0.0000  0.0000  0.0000  0.0000 </r>
        <r>  0.0445  0.0303  0.0391  0.0344  0.0000  0.0000  0.0000  0.0000  0.0000 </r>
       </set>
       <set comment="band 8">
        <r>  0.0234  0.0404  0.0296  0.0454  0.0000  0.0000  0.0000  0.0000  0.0000 </r>
        <r>  0.0235  0.0403  0.0296  0.0454  0.0000  0.0000  0.0000  0.0000  0.0000 </r>
       </set>
      </set>
      <set comment="kpoint 221">
       <set comment="band 1">
        <r>  0.2052  0.0262  0.0063  0.0009  0.0000  0.0000  0.0000  0.0000  0.0000 </r>
        <r>  0.2052  0.0262  0.0063  0.0009  0.0000  0.0000  0.0000  0.0000  0.0000 </r>
       </set>
       <set comment="band 2">
        <r>  0.1948  0.0339  0.0168  0.0008  0.0000  0.0000  0.0000  0.0000  0.0000 </r>
        <r>  0.1948  0.0339  0.0168  0.0008  0.0000  0.0000  0.0000  0.0000  0.0000 </r>
       </set>
       <set comment="band 3">
        <r>  0.0047  0.0251  0.0700  0.0636  0.0000  0.0000  0.0000  0.0000  0.0000 </r>
        <r>  0.0047  0.0251  0.0700  0.0636  0.0000  0.0000  0.0000  0.0000  0.0000 </r>
       </set>
       <set comment="band 4">
        <r>  0.0000  0.0370  0.0515  0.0796  0.0000  0.0000  0.0000  0.0000  0.0000 </r>
        <r>  0.0000  0.0370  0.0515  0.0796  0.0000  0.0000  0.0000  0.0000  0.0000 </r>
       </set>
       <set comment="band 5">
        <r>  0.0307  0.0262  0.0232  0.0386  0.0000  0.0000  0.0000  0.0000  0.0000 </r>
        <r>  0.0307  0.0262  0.0232  0.0386  0.0000  0.0000  0.0000  0.0000  0.0000 </r>
       </set>
       <set comment="band 6">
        <r>  0.0291  0.0164  0.0141  0.0422  0.0000  0.0000  0.0000  0.0000  0.0000 </r>
        <r>  0.0291  0.0164  0.0141  0.0422  0.0000  0.0000  0.0000  0.0000  0.0000 </r>
       </set>
       <set comment="band 7">
        <r>  0.0400  0.0291  0.0370  0.0400  0.0000  0.0000  0.0000  0.0000  0.0000 </r>
        <r>  0.0400  0.0291  0.0370  0.0400  0.0000  0.0000  0.0000  0.0000  0.0000 </r>
       </set>
       <set comment="band 8">
        <r>  0.0226  0.0388  0.0307  0.0482  0.0000  0.0000  0.0000  0.0000  0.0000 </r>
        <r>  0.0226  0.0388  0.0307  0.0482  0.0000  0.0000  0.0000  0.0000  0.0000 </r>
       </set>
      </set>
      <set comment="kpoint 222">
       <set comment="band 1">
        <r>  0.2044  0.0273  0.0057  0.0008  0.0000  0.0000  0.0000  0.0000  0.0000 </r>
        <r>  0.2044  0.0273  0.0057  0.0008  0.0000  0.0000  0.0000  0.0000  0.0000 </r>
       </set>
       <set comment="band 2">
        <r>  0.1952  0.0357  0.0148  0.0006  0.0000  0.0000  0.0000  0.0000  0.0000 </r>
        <r>  0.1952  0.0357  0.0148  0.0006  0.0000  0.0000  0.0000  0.0000  0.0000 </r>
       </set>
       <set comment="band 3">
        <r>  0.0049  0.0235  0.0715  0.0649  0.0000  0.0000  0.0000  0.0000  0.0000 </r>
        <r>  0.0049  0.0235  0.0715  0.0649  0.0000  0.0000  0.0000  0.0000  0.0000 </r>
       </set>
       <set comment="band 4">
        <r>  0.0000  0.0336  0.0549  0.0800  0.0000  0.0000  0.0000  0.0000  0.0000 </r>
        <r>  0.0000  0.0336  0.0549  0.0800  0.0000  0.0000  0.0000  0.0000  0.0000 </r>
       </set>
       <set comment="band 5">
        <r>  0.0322  0.0268  0.0225  0.0364  0.0000  0.0000  0.0000  0.0000  0.0000 </r>
        <r>  0.0322  0.0268  0.0225  0.0364  0.0000  0.0000  0.0000  0.0000  0.0000 </r>
       </set>
       <set comment="band 6">
        <r>  0.0318  0.0181  0.0149  0.0383  0.0000  0.0000  0.0000  0.0000  0.0000 </r>
        <r>  0.0318  0.0181  0.0149  0.0383  0.0000  0.0000  0.0000  0.0000  0.0000 </r>
       </set>
       <set comment="band 7">
        <r>  0.0367  0.0284  0.0358  0.0443  0.0000  0.0000  0.0000  0.0000  0.0000 </r>
        <r>  0.0367  0.0284  0.0358  0.0443  0.0000  0.0000  0.0000  0.0000  0.0000 </r>
       </set>
       <set comment="band 8">
        <r>  0.0217  0.0371  0.0322  0.0512  0.0000  0.0000  0.0000  0.0000  0.0000 </r>
        <r>  0.0217  0.0371  0.0322  0.0513  0.0000  0.0000  0.0000  0.0000  0.0000 </r>
       </set>
      </set>
      <set comment="kpoint 223">
       <set comment="band 1">
        <r>  0.2036  0.0285  0.0051  0.0007  0.0000  0.0000  0.0000  0.0000  0.0000 </r>
        <r>  0.2036  0.0285  0.0051  0.0007  0.0000  0.0000  0.0000  0.0000  0.0000 </r>
       </set>
       <set comment="band 2">
        <r>  0.1953  0.0373  0.0130  0.0004  0.0000  0.0000  0.0000  0.0000  0.0000 </r>
        <r>  0.1953  0.0373  0.0130  0.0004  0.0000  0.0000  0.0000  0.0000  0.0000 </r>
       </set>
       <set comment="band 3">
        <r>  0.0049  0.0219  0.0730  0.0663  0.0000  0.0000  0.0000  0.0000  0.0000 </r>
        <r>  0.0049  0.0219  0.0730  0.0663  0.0000  0.0000  0.0000  0.0000  0.0000 </r>
       </set>
       <set comment="band 4">
        <r>  0.0000  0.0304  0.0582  0.0805  0.0000  0.0000  0.0000  0.0000  0.0000 </r>
        <r>  0.0000  0.0304  0.0582  0.0805  0.0000  0.0000  0.0000  0.0000  0.0000 </r>
       </set>
       <set comment="band 5">
        <r>  0.0337  0.0273  0.0216  0.0341  0.0000  0.0000  0.0000  0.0000  0.0000 </r>
        <r>  0.0337  0.0273  0.0216  0.0341  0.0000  0.0000  0.0000  0.0000  0.0000 </r>
       </set>
       <set comment="band 6">
        <r>  0.0338  0.0194  0.0151  0.0350  0.0000  0.0000  0.0000  0.0000  0.0000 </r>
        <r>  0.0338  0.0194  0.0151  0.0350  0.0000  0.0000  0.0000  0.0000  0.0000 </r>
       </set>
       <set comment="band 7">
        <r>  0.0339  0.0279  0.0351  0.0478  0.0000  0.0000  0.0000  0.0000  0.0000 </r>
        <r>  0.0339  0.0279  0.0351  0.0478  0.0000  0.0000  0.0000  0.0000  0.0000 </r>
       </set>
       <set comment="band 8">
        <r>  0.0209  0.0354  0.0341  0.0545  0.0000  0.0000  0.0000  0.0000  0.0000 </r>
        <r>  0.0209  0.0354  0.0341  0.0545  0.0000  0.0000  0.0000  0.0000  0.0000 </r>
       </set>
      </set>
      <set comment="kpoint 224">
       <set comment="band 1">
        <r>  0.2028  0.0296  0.0046  0.0006  0.0000  0.0000  0.0000  0.0000  0.0000 </r>
        <r>  0.2028  0.0296  0.0046  0.0006  0.0000  0.0000  0.0000  0.0000  0.0000 </r>
       </set>
       <set comment="band 2">
        <r>  0.1954  0.0389  0.0112  0.0003  0.0000  0.0000  0.0000  0.0000  0.0000 </r>
        <r>  0.1954  0.0389  0.0112  0.0003  0.0000  0.0000  0.0000  0.0000  0.0000 </r>
       </set>
       <set comment="band 3">
        <r>  0.0049  0.0203  0.0746  0.0679  0.0000  0.0000  0.0000  0.0000  0.0000 </r>
        <r>  0.0049  0.0203  0.0746  0.0679  0.0000  0.0000  0.0000  0.0000  0.0000 </r>
       </set>
       <set comment="band 4">
        <r>  0.0002  0.0273  0.0614  0.0812  0.0000  0.0000  0.0000  0.0000  0.0000 </r>
        <r>  0.0002  0.0273  0.0614  0.0812  0.0000  0.0000  0.0000  0.0000  0.0000 </r>
       </set>
       <set comment="band 5">
        <r>  0.0351  0.0278  0.0207  0.0319  0.0000  0.0000  0.0000  0.0000  0.0000 </r>
        <r>  0.0351  0.0278  0.0207  0.0319  0.0000  0.0000  0.0000  0.0000  0.0000 </r>
       </set>
       <set comment="band 6">
        <r>  0.0355  0.0207  0.0150  0.0320  0.0000  0.0000  0.0000  0.0000  0.0000 </r>
        <r>  0.0355  0.0207  0.0150  0.0320  0.0000  0.0000  0.0000  0.0000  0.0000 </r>
       </set>
       <set comment="band 7">
        <r>  0.0314  0.0274  0.0348  0.0510  0.0000  0.0000  0.0000  0.0000  0.0000 </r>
        <r>  0.0314  0.0274  0.0348  0.0510  0.0000  0.0000  0.0000  0.0000  0.0000 </r>
       </set>
       <set comment="band 8">
        <r>  0.0200  0.0336  0.0362  0.0578  0.0000  0.0000  0.0000  0.0000  0.0000 </r>
        <r>  0.0200  0.0336  0.0362  0.0578  0.0000  0.0000  0.0000  0.0000  0.0000 </r>
       </set>
      </set>
      <set comment="kpoint 225">
       <set comment="band 1">
        <r>  0.2020  0.0307  0.0041  0.0005  0.0000  0.0000  0.0000  0.0000  0.0000 </r>
        <r>  0.2020  0.0307  0.0041  0.0005  0.0000  0.0000  0.0000  0.0000  0.0000 </r>
       </set>
       <set comment="band 2">
        <r>  0.1953  0.0402  0.0096  0.0002  0.0000  0.0000  0.0000  0.0000  0.0000 </r>
        <r>  0.1953  0.0402  0.0096  0.0002  0.0000  0.0000  0.0000  0.0000  0.0000 </r>
       </set>
       <set comment="band 3">
        <r>  0.0049  0.0187  0.0762  0.0695  0.0000  0.0000  0.0000  0.0000  0.0000 </r>
        <r>  0.0049  0.0187  0.0762  0.0695  0.0000  0.0000  0.0000  0.0000  0.0000 </r>
       </set>
       <set comment="band 4">
        <r>  0.0003  0.0244  0.0645  0.0819  0.0000  0.0000  0.0000  0.0000  0.0000 </r>
        <r>  0.0003  0.0244  0.0645  0.0819  0.0000  0.0000  0.0000  0.0000  0.0000 </r>
       </set>
       <set comment="band 5">
        <r>  0.0365  0.0284  0.0196  0.0296  0.0000  0.0000  0.0000  0.0000  0.0000 </r>
        <r>  0.0365  0.0284  0.0196  0.0296  0.0000  0.0000  0.0000  0.0000  0.0000 </r>
       </set>
       <set comment="band 6">
        <r>  0.0369  0.0218  0.0146  0.0293  0.0000  0.0000  0.0000  0.0000  0.0000 </r>
        <r>  0.0369  0.0218  0.0146  0.0293  0.0000  0.0000  0.0000  0.0000  0.0000 </r>
       </set>
       <set comment="band 7">
        <r>  0.0292  0.0270  0.0348  0.0540  0.0000  0.0000  0.0000  0.0000  0.0000 </r>
        <r>  0.0292  0.0270  0.0348  0.0540  0.0000  0.0000  0.0000  0.0000  0.0000 </r>
       </set>
       <set comment="band 8">
        <r>  0.0191  0.0316  0.0392  0.0617  0.0000  0.0000  0.0000  0.0000  0.0000 </r>
        <r>  0.0191  0.0316  0.0392  0.0618  0.0000  0.0000  0.0000  0.0000  0.0000 </r>
       </set>
      </set>
      <set comment="kpoint 226">
       <set comment="band 1">
        <r>  0.2012  0.0318  0.0036  0.0004  0.0000  0.0000  0.0000  0.0000  0.0000 </r>
        <r>  0.2012  0.0318  0.0036  0.0004  0.0000  0.0000  0.0000  0.0000  0.0000 </r>
       </set>
       <set comment="band 2">
        <r>  0.1951  0.0415  0.0081  0.0001  0.0000  0.0000  0.0000  0.0000  0.0000 </r>
        <r>  0.1951  0.0415  0.0081  0.0001  0.0000  0.0000  0.0000  0.0000  0.0000 </r>
       </set>
       <set comment="band 3">
        <r>  0.0048  0.0170  0.0779  0.0713  0.0000  0.0000  0.0000  0.0000  0.0000 </r>
        <r>  0.0048  0.0170  0.0779  0.0713  0.0000  0.0000  0.0000  0.0000  0.0000 </r>
       </set>
       <set comment="band 4">
        <r>  0.0006  0.0216  0.0676  0.0828  0.0000  0.0000  0.0000  0.0000  0.0000 </r>
        <r>  0.0006  0.0216  0.0676  0.0828  0.0000  0.0000  0.0000  0.0000  0.0000 </r>
       </set>
       <set comment="band 5">
        <r>  0.0379  0.0289  0.0184  0.0273  0.0000  0.0000  0.0000  0.0000  0.0000 </r>
        <r>  0.0379  0.0289  0.0184  0.0273  0.0000  0.0000  0.0000  0.0000  0.0000 </r>
       </set>
       <set comment="band 6">
        <r>  0.0383  0.0229  0.0140  0.0267  0.0000  0.0000  0.0000  0.0000  0.0000 </r>
        <r>  0.0383  0.0229  0.0140  0.0267  0.0000  0.0000  0.0000  0.0000  0.0000 </r>
       </set>
       <set comment="band 7">
        <r>  0.0271  0.0265  0.0350  0.0569  0.0000  0.0000  0.0000  0.0000  0.0000 </r>
        <r>  0.0271  0.0265  0.0350  0.0569  0.0000  0.0000  0.0000  0.0000  0.0000 </r>
       </set>
       <set comment="band 8">
        <r>  0.0181  0.0294  0.0426  0.0658  0.0000  0.0000  0.0000  0.0000  0.0000 </r>
        <r>  0.0181  0.0295  0.0425  0.0658  0.0000  0.0000  0.0000  0.0000  0.0000 </r>
       </set>
      </set>
      <set comment="kpoint 227">
       <set comment="band 1">
        <r>  0.2004  0.0329  0.0032  0.0003  0.0000  0.0000  0.0000  0.0000  0.0000 </r>
        <r>  0.2004  0.0329  0.0032  0.0003  0.0000  0.0000  0.0000  0.0000  0.0000 </r>
       </set>
       <set comment="band 2">
        <r>  0.1949  0.0425  0.0068  0.0001  0.0000  0.0000  0.0000  0.0000  0.0000 </r>
        <r>  0.1949  0.0425  0.0068  0.0001  0.0000  0.0000  0.0000  0.0000  0.0000 </r>
       </set>
       <set comment="band 3">
        <r>  0.0046  0.0154  0.0796  0.0731  0.0000  0.0000  0.0000  0.0000  0.0000 </r>
        <r>  0.0046  0.0154  0.0796  0.0731  0.0000  0.0000  0.0000  0.0000  0.0000 </r>
       </set>
       <set comment="band 4">
        <r>  0.0008  0.0189  0.0706  0.0838  0.0000  0.0000  0.0000  0.0000  0.0000 </r>
        <r>  0.0008  0.0189  0.0706  0.0838  0.0000  0.0000  0.0000  0.0000  0.0000 </r>
       </set>
       <set comment="band 5">
        <r>  0.0393  0.0295  0.0171  0.0250  0.0000  0.0000  0.0000  0.0000  0.0000 </r>
        <r>  0.0393  0.0295  0.0171  0.0250  0.0000  0.0000  0.0000  0.0000  0.0000 </r>
       </set>
       <set comment="band 6">
        <r>  0.0395  0.0240  0.0133  0.0242  0.0000  0.0000  0.0000  0.0000  0.0000 </r>
        <r>  0.0395  0.0240  0.0133  0.0242  0.0000  0.0000  0.0000  0.0000  0.0000 </r>
       </set>
       <set comment="band 7">
        <r>  0.0250  0.0259  0.0356  0.0598  0.0000  0.0000  0.0000  0.0000  0.0000 </r>
        <r>  0.0250  0.0259  0.0356  0.0598  0.0000  0.0000  0.0000  0.0000  0.0000 </r>
       </set>
       <set comment="band 8">
        <r>  0.0171  0.0273  0.0467  0.0703  0.0000  0.0000  0.0000  0.0000  0.0000 </r>
        <r>  0.0170  0.0273  0.0467  0.0704  0.0000  0.0000  0.0000  0.0000  0.0000 </r>
       </set>
      </set>
      <set comment="kpoint 228">
       <set comment="band 1">
        <r>  0.1997  0.0340  0.0027  0.0003  0.0000  0.0000  0.0000  0.0000  0.0000 </r>
        <r>  0.1997  0.0340  0.0027  0.0003  0.0000  0.0000  0.0000  0.0000  0.0000 </r>
       </set>
       <set comment="band 2">
        <r>  0.1946  0.0434  0.0056  0.0000  0.0000  0.0000  0.0000  0.0000  0.0000 </r>
        <r>  0.1946  0.0434  0.0056  0.0000  0.0000  0.0000  0.0000  0.0000  0.0000 </r>
       </set>
       <set comment="band 3">
        <r>  0.0044  0.0138  0.0814  0.0751  0.0000  0.0000  0.0000  0.0000  0.0000 </r>
        <r>  0.0044  0.0138  0.0814  0.0751  0.0000  0.0000  0.0000  0.0000  0.0000 </r>
       </set>
       <set comment="band 4">
        <r>  0.0010  0.0164  0.0735  0.0849  0.0000  0.0000  0.0000  0.0000  0.0000 </r>
        <r>  0.0010  0.0164  0.0735  0.0849  0.0000  0.0000  0.0000  0.0000  0.0000 </r>
       </set>
       <set comment="band 5">
        <r>  0.0407  0.0302  0.0157  0.0226  0.0000  0.0000  0.0000  0.0000  0.0000 </r>
        <r>  0.0407  0.0302  0.0157  0.0226  0.0000  0.0000  0.0000  0.0000  0.0000 </r>
       </set>
       <set comment="band 6">
        <r>  0.0407  0.0250  0.0124  0.0217  0.0000  0.0000  0.0000  0.0000  0.0000 </r>
        <r>  0.0407  0.0250  0.0124  0.0217  0.0000  0.0000  0.0000  0.0000  0.0000 </r>
       </set>
       <set comment="band 7">
        <r>  0.0230  0.0251  0.0365  0.0628  0.0000  0.0000  0.0000  0.0000  0.0000 </r>
        <r>  0.0230  0.0251  0.0365  0.0628  0.0000  0.0000  0.0000  0.0000  0.0000 </r>
       </set>
       <set comment="band 8">
        <r>  0.0158  0.0241  0.0528  0.0761  0.0000  0.0000  0.0000  0.0000  0.0000 </r>
        <r>  0.0157  0.0243  0.0528  0.0762  0.0000  0.0000  0.0000  0.0000  0.0000 </r>
       </set>
      </set>
      <set comment="kpoint 229">
       <set comment="band 1">
        <r>  0.1990  0.0350  0.0023  0.0002  0.0000  0.0000  0.0000  0.0000  0.0000 </r>
        <r>  0.1990  0.0350  0.0023  0.0002  0.0000  0.0000  0.0000  0.0000  0.0000 </r>
       </set>
       <set comment="band 2">
        <r>  0.1943  0.0442  0.0045  0.0000  0.0000  0.0000  0.0000  0.0000  0.0000 </r>
        <r>  0.1943  0.0442  0.0045  0.0000  0.0000  0.0000  0.0000  0.0000  0.0000 </r>
       </set>
       <set comment="band 3">
        <r>  0.0041  0.0122  0.0832  0.0772  0.0000  0.0000  0.0000  0.0000  0.0000 </r>
        <r>  0.0041  0.0122  0.0832  0.0772  0.0000  0.0000  0.0000  0.0000  0.0000 </r>
       </set>
       <set comment="band 4">
        <r>  0.0012  0.0141  0.0763  0.0861  0.0000  0.0000  0.0000  0.0000  0.0000 </r>
        <r>  0.0012  0.0141  0.0763  0.0861  0.0000  0.0000  0.0000  0.0000  0.0000 </r>
       </set>
       <set comment="band 5">
        <r>  0.0420  0.0309  0.0142  0.0202  0.0000  0.0000  0.0000  0.0000  0.0000 </r>
        <r>  0.0420  0.0309  0.0142  0.0202  0.0000  0.0000  0.0000  0.0000  0.0000 </r>
       </set>
       <set comment="band 6">
        <r>  0.0419  0.0261  0.0114  0.0192  0.0000  0.0000  0.0000  0.0000  0.0000 </r>
        <r>  0.0419  0.0261  0.0114  0.0192  0.0000  0.0000  0.0000  0.0000  0.0000 </r>
       </set>
       <set comment="band 7">
        <r>  0.0210  0.0241  0.0378  0.0661  0.0000  0.0000  0.0000  0.0000  0.0000 </r>
        <r>  0.0210  0.0241  0.0378  0.0660  0.0000  0.0000  0.0000  0.0000  0.0000 </r>
       </set>
       <set comment="band 8">
        <r>  0.0144  0.0214  0.0591  0.0815  0.0000  0.0000  0.0000  0.0000  0.0000 </r>
        <r>  0.0143  0.0215  0.0589  0.0817  0.0000  0.0000  0.0000  0.0000  0.0000 </r>
       </set>
      </set>
      <set comment="kpoint 230">
       <set comment="band 1">
        <r>  0.1982  0.0360  0.0020  0.0002  0.0000  0.0000  0.0000  0.0000  0.0000 </r>
        <r>  0.1982  0.0360  0.0020  0.0002  0.0000  0.0000  0.0000  0.0000  0.0000 </r>
       </set>
       <set comment="band 2">
        <r>  0.1940  0.0448  0.0036  0.0000  0.0000  0.0000  0.0000  0.0000  0.0000 </r>
        <r>  0.1940  0.0448  0.0036  0.0000  0.0000  0.0000  0.0000  0.0000  0.0000 </r>
       </set>
       <set comment="band 3">
        <r>  0.0037  0.0106  0.0851  0.0794  0.0000  0.0000  0.0000  0.0000  0.0000 </r>
        <r>  0.0037  0.0106  0.0851  0.0794  0.0000  0.0000  0.0000  0.0000  0.0000 </r>
       </set>
       <set comment="band 4">
        <r>  0.0013  0.0119  0.0790  0.0874  0.0000  0.0000  0.0000  0.0000  0.0000 </r>
        <r>  0.0013  0.0119  0.0790  0.0874  0.0000  0.0000  0.0000  0.0000  0.0000 </r>
       </set>
       <set comment="band 5">
        <r>  0.0433  0.0316  0.0126  0.0177  0.0000  0.0000  0.0000  0.0000  0.0000 </r>
        <r>  0.0433  0.0316  0.0126  0.0177  0.0000  0.0000  0.0000  0.0000  0.0000 </r>
       </set>
       <set comment="band 6">
        <r>  0.0430  0.0272  0.0103  0.0168  0.0000  0.0000  0.0000  0.0000  0.0000 </r>
        <r>  0.0430  0.0272  0.0103  0.0168  0.0000  0.0000  0.0000  0.0000  0.0000 </r>
       </set>
       <set comment="band 7">
        <r>  0.0190  0.0230  0.0395  0.0696  0.0000  0.0000  0.0000  0.0000  0.0000 </r>
        <r>  0.0190  0.0230  0.0395  0.0696  0.0000  0.0000  0.0000  0.0000  0.0000 </r>
       </set>
       <set comment="band 8">
        <r>  0.0127  0.0179  0.0674  0.0879  0.0000  0.0000  0.0000  0.0000  0.0000 </r>
        <r>  0.0127  0.0180  0.0670  0.0881  0.0000  0.0000  0.0000  0.0000  0.0000 </r>
       </set>
      </set>
      <set comment="kpoint 231">
       <set comment="band 1">
        <r>  0.1976  0.0370  0.0016  0.0001  0.0000  0.0000  0.0000  0.0000  0.0000 </r>
        <r>  0.1976  0.0370  0.0016  0.0001  0.0000  0.0000  0.0000  0.0000  0.0000 </r>
       </set>
       <set comment="band 2">
        <r>  0.1937  0.0452  0.0028  0.0000  0.0000  0.0000  0.0000  0.0000  0.0000 </r>
        <r>  0.1937  0.0452  0.0028  0.0000  0.0000  0.0000  0.0000  0.0000  0.0000 </r>
       </set>
       <set comment="band 3">
        <r>  0.0033  0.0090  0.0870  0.0817  0.0000  0.0000  0.0000  0.0000  0.0000 </r>
        <r>  0.0033  0.0090  0.0870  0.0817  0.0000  0.0000  0.0000  0.0000  0.0000 </r>
       </set>
       <set comment="band 4">
        <r>  0.0014  0.0099  0.0816  0.0887  0.0000  0.0000  0.0000  0.0000  0.0000 </r>
        <r>  0.0014  0.0099  0.0816  0.0887  0.0000  0.0000  0.0000  0.0000  0.0000 </r>
       </set>
       <set comment="band 5">
        <r>  0.0446  0.0323  0.0109  0.0152  0.0000  0.0000  0.0000  0.0000  0.0000 </r>
        <r>  0.0446  0.0323  0.0109  0.0152  0.0000  0.0000  0.0000  0.0000  0.0000 </r>
       </set>
       <set comment="band 6">
        <r>  0.0441  0.0284  0.0091  0.0144  0.0000  0.0000  0.0000  0.0000  0.0000 </r>
        <r>  0.0441  0.0284  0.0091  0.0144  0.0000  0.0000  0.0000  0.0000  0.0000 </r>
       </set>
       <set comment="band 7">
        <r>  0.0169  0.0215  0.0419  0.0736  0.0000  0.0000  0.0000  0.0000  0.0000 </r>
        <r>  0.0169  0.0215  0.0419  0.0735  0.0000  0.0000  0.0000  0.0000  0.0000 </r>
       </set>
       <set comment="band 8">
        <r>  0.0110  0.0148  0.0755  0.0937  0.0000  0.0000  0.0000  0.0000  0.0000 </r>
        <r>  0.0110  0.0148  0.0751  0.0939  0.0000  0.0000  0.0000  0.0000  0.0000 </r>
       </set>
      </set>
      <set comment="kpoint 232">
       <set comment="band 1">
        <r>  0.1969  0.0379  0.0013  0.0001  0.0000  0.0000  0.0000  0.0000  0.0000 </r>
        <r>  0.1969  0.0379  0.0013  0.0001  0.0000  0.0000  0.0000  0.0000  0.0000 </r>
       </set>
       <set comment="band 2">
        <r>  0.1934  0.0455  0.0021  0.0000  0.0000  0.0000  0.0000  0.0000  0.0000 </r>
        <r>  0.1934  0.0455  0.0021  0.0000  0.0000  0.0000  0.0000  0.0000  0.0000 </r>
       </set>
       <set comment="band 3">
        <r>  0.0028  0.0075  0.0888  0.0840  0.0000  0.0000  0.0000  0.0000  0.0000 </r>
        <r>  0.0028  0.0075  0.0888  0.0840  0.0000  0.0000  0.0000  0.0000  0.0000 </r>
       </set>
       <set comment="band 4">
        <r>  0.0013  0.0080  0.0841  0.0902  0.0000  0.0000  0.0000  0.0000  0.0000 </r>
        <r>  0.0013  0.0080  0.0841  0.0902  0.0000  0.0000  0.0000  0.0000  0.0000 </r>
       </set>
       <set comment="band 5">
        <r>  0.0458  0.0330  0.0092  0.0127  0.0000  0.0000  0.0000  0.0000  0.0000 </r>
        <r>  0.0458  0.0330  0.0092  0.0127  0.0000  0.0000  0.0000  0.0000  0.0000 </r>
       </set>
       <set comment="band 6">
        <r>  0.0452  0.0295  0.0078  0.0120  0.0000  0.0000  0.0000  0.0000  0.0000 </r>
        <r>  0.0452  0.0295  0.0078  0.0120  0.0000  0.0000  0.0000  0.0000  0.0000 </r>
       </set>
       <set comment="band 7">
        <r>  0.0148  0.0197  0.0451  0.0782  0.0000  0.0000  0.0000  0.0000  0.0000 </r>
        <r>  0.0148  0.0197  0.0451  0.0782  0.0000  0.0000  0.0000  0.0000  0.0000 </r>
       </set>
       <set comment="band 8">
        <r>  0.0089  0.0117  0.0849  0.1002  0.0000  0.0000  0.0000  0.0000  0.0000 </r>
        <r>  0.0092  0.0111  0.0857  0.0991  0.0000  0.0000  0.0000  0.0000  0.0000 </r>
       </set>
      </set>
      <set comment="kpoint 233">
       <set comment="band 1">
        <r>  0.1963  0.0388  0.0010  0.0001  0.0000  0.0000  0.0000  0.0000  0.0000 </r>
        <r>  0.1963  0.0388  0.0010  0.0001  0.0000  0.0000  0.0000  0.0000  0.0000 </r>
       </set>
       <set comment="band 2">
        <r>  0.1932  0.0457  0.0016  0.0000  0.0000  0.0000  0.0000  0.0000  0.0000 </r>
        <r>  0.1932  0.0457  0.0016  0.0000  0.0000  0.0000  0.0000  0.0000  0.0000 </r>
       </set>
       <set comment="band 3">
        <r>  0.0023  0.0060  0.0907  0.0864  0.0000  0.0000  0.0000  0.0000  0.0000 </r>
        <r>  0.0023  0.0060  0.0907  0.0864  0.0000  0.0000  0.0000  0.0000  0.0000 </r>
       </set>
       <set comment="band 4">
        <r>  0.0012  0.0063  0.0866  0.0916  0.0000  0.0000  0.0000  0.0000  0.0000 </r>
        <r>  0.0012  0.0063  0.0866  0.0916  0.0000  0.0000  0.0000  0.0000  0.0000 </r>
       </set>
       <set comment="band 5">
        <r>  0.0469  0.0338  0.0075  0.0103  0.0000  0.0000  0.0000  0.0000  0.0000 </r>
        <r>  0.0469  0.0338  0.0075  0.0103  0.0000  0.0000  0.0000  0.0000  0.0000 </r>
       </set>
       <set comment="band 6">
        <r>  0.0463  0.0306  0.0064  0.0097  0.0000  0.0000  0.0000  0.0000  0.0000 </r>
        <r>  0.0463  0.0306  0.0064  0.0097  0.0000  0.0000  0.0000  0.0000  0.0000 </r>
       </set>
       <set comment="band 7">
        <r>  0.0126  0.0174  0.0494  0.0836  0.0000  0.0000  0.0000  0.0000  0.0000 </r>
        <r>  0.0126  0.0176  0.0493  0.0838  0.0000  0.0000  0.0000  0.0000  0.0000 </r>
       </set>
       <set comment="band 8">
        <r>  0.0071  0.0083  0.0949  0.1041  0.0000  0.0000  0.0000  0.0000  0.0000 </r>
        <r>  0.0071  0.0082  0.0949  0.1041  0.0000  0.0000  0.0000  0.0000  0.0000 </r>
       </set>
      </set>
      <set comment="kpoint 234">
       <set comment="band 1">
        <r>  0.1957  0.0397  0.0008  0.0000  0.0000  0.0000  0.0000  0.0000  0.0000 </r>
        <r>  0.1957  0.0397  0.0008  0.0000  0.0000  0.0000  0.0000  0.0000  0.0000 </r>
       </set>
       <set comment="band 2">
        <r>  0.1930  0.0457  0.0011  0.0000  0.0000  0.0000  0.0000  0.0000  0.0000 </r>
        <r>  0.1930  0.0457  0.0011  0.0000  0.0000  0.0000  0.0000  0.0000  0.0000 </r>
       </set>
       <set comment="band 3">
        <r>  0.0018  0.0046  0.0924  0.0887  0.0000  0.0000  0.0000  0.0000  0.0000 </r>
        <r>  0.0018  0.0046  0.0924  0.0887  0.0000  0.0000  0.0000  0.0000  0.0000 </r>
       </set>
       <set comment="band 4">
        <r>  0.0011  0.0048  0.0889  0.0930  0.0000  0.0000  0.0000  0.0000  0.0000 </r>
        <r>  0.0011  0.0048  0.0889  0.0930  0.0000  0.0000  0.0000  0.0000  0.0000 </r>
       </set>
       <set comment="band 5">
        <r>  0.0480  0.0345  0.0058  0.0079  0.0000  0.0000  0.0000  0.0000  0.0000 </r>
        <r>  0.0480  0.0345  0.0058  0.0079  0.0000  0.0000  0.0000  0.0000  0.0000 </r>
       </set>
       <set comment="band 6">
        <r>  0.0473  0.0317  0.0051  0.0075  0.0000  0.0000  0.0000  0.0000  0.0000 </r>
        <r>  0.0473  0.0317  0.0051  0.0075  0.0000  0.0000  0.0000  0.0000  0.0000 </r>
       </set>
       <set comment="band 7">
        <r>  0.0103  0.0147  0.0555  0.0907  0.0000  0.0000  0.0000  0.0000  0.0000 </r>
        <r>  0.0101  0.0148  0.0556  0.0908  0.0000  0.0000  0.0000  0.0000  0.0000 </r>
       </set>
       <set comment="band 8">
        <r>  0.0054  0.0061  0.1011  0.1071  0.0000  0.0000  0.0000  0.0000  0.0000 </r>
        <r>  0.0054  0.0061  0.1027  0.1069  0.0000  0.0000  0.0000  0.0000  0.0000 </r>
       </set>
      </set>
      <set comment="kpoint 235">
       <set comment="band 1">
        <r>  0.1952  0.0405  0.0006  0.0000  0.0000  0.0000  0.0000  0.0000  0.0000 </r>
        <r>  0.1952  0.0405  0.0006  0.0000  0.0000  0.0000  0.0000  0.0000  0.0000 </r>
       </set>
       <set comment="band 2">
        <r>  0.1929  0.0456  0.0007  0.0000  0.0000  0.0000  0.0000  0.0000  0.0000 </r>
        <r>  0.1929  0.0456  0.0007  0.0000  0.0000  0.0000  0.0000  0.0000  0.0000 </r>
       </set>
       <set comment="band 3">
        <r>  0.0013  0.0033  0.0940  0.0908  0.0000  0.0000  0.0000  0.0000  0.0000 </r>
        <r>  0.0013  0.0033  0.0940  0.0908  0.0000  0.0000  0.0000  0.0000  0.0000 </r>
       </set>
       <set comment="band 4">
        <r>  0.0009  0.0034  0.0910  0.0944  0.0000  0.0000  0.0000  0.0000  0.0000 </r>
        <r>  0.0009  0.0034  0.0910  0.0944  0.0000  0.0000  0.0000  0.0000  0.0000 </r>
       </set>
       <set comment="band 5">
        <r>  0.0490  0.0351  0.0042  0.0058  0.0000  0.0000  0.0000  0.0000  0.0000 </r>
        <r>  0.0490  0.0351  0.0042  0.0058  0.0000  0.0000  0.0000  0.0000  0.0000 </r>
       </set>
       <set comment="band 6">
        <r>  0.0483  0.0328  0.0038  0.0055  0.0000  0.0000  0.0000  0.0000  0.0000 </r>
        <r>  0.0483  0.0328  0.0038  0.0055  0.0000  0.0000  0.0000  0.0000  0.0000 </r>
       </set>
       <set comment="band 7">
        <r>  0.0078  0.0114  0.0640  0.0985  0.0000  0.0000  0.0000  0.0000  0.0000 </r>
        <r>  0.0078  0.0115  0.0639  0.0985  0.0000  0.0000  0.0000  0.0000  0.0000 </r>
       </set>
       <set comment="band 8">
        <r>  0.0036  0.0037  0.1106  0.1091  0.0000  0.0000  0.0000  0.0000  0.0000 </r>
        <r>  0.0037  0.0037  0.1105  0.1090  0.0000  0.0000  0.0000  0.0000  0.0000 </r>
       </set>
      </set>
      <set comment="kpoint 236">
       <set comment="band 1">
        <r>  0.1947  0.0413  0.0004  0.0000  0.0000  0.0000  0.0000  0.0000  0.0000 </r>
        <r>  0.1947  0.0413  0.0004  0.0000  0.0000  0.0000  0.0000  0.0000  0.0000 </r>
       </set>
       <set comment="band 2">
        <r>  0.1928  0.0455  0.0005  0.0000  0.0000  0.0000  0.0000  0.0000  0.0000 </r>
        <r>  0.1928  0.0455  0.0005  0.0000  0.0000  0.0000  0.0000  0.0000  0.0000 </r>
       </set>
       <set comment="band 3">
        <r>  0.0009  0.0022  0.0954  0.0928  0.0000  0.0000  0.0000  0.0000  0.0000 </r>
        <r>  0.0009  0.0022  0.0954  0.0928  0.0000  0.0000  0.0000  0.0000  0.0000 </r>
       </set>
       <set comment="band 4">
        <r>  0.0006  0.0022  0.0930  0.0956  0.0000  0.0000  0.0000  0.0000  0.0000 </r>
        <r>  0.0006  0.0022  0.0930  0.0956  0.0000  0.0000  0.0000  0.0000  0.0000 </r>
       </set>
       <set comment="band 5">
        <r>  0.0498  0.0356  0.0028  0.0038  0.0000  0.0000  0.0000  0.0000  0.0000 </r>
        <r>  0.0498  0.0356  0.0028  0.0038  0.0000  0.0000  0.0000  0.0000  0.0000 </r>
       </set>
       <set comment="band 6">
        <r>  0.0491  0.0337  0.0026  0.0037  0.0000  0.0000  0.0000  0.0000  0.0000 </r>
        <r>  0.0491  0.0337  0.0026  0.0037  0.0000  0.0000  0.0000  0.0000  0.0000 </r>
       </set>
       <set comment="band 7">
        <r>  0.0053  0.0081  0.0748  0.1082  0.0000  0.0000  0.0000  0.0000  0.0000 </r>
        <r>  0.0054  0.0079  0.0754  0.1068  0.0000  0.0000  0.0000  0.0000  0.0000 </r>
       </set>
       <set comment="band 8">
        <r>  0.0023  0.0023  0.1154  0.1096  0.0000  0.0000  0.0000  0.0000  0.0000 </r>
        <r>  0.0024  0.0023  0.1165  0.1098  0.0000  0.0000  0.0000  0.0000  0.0000 </r>
       </set>
      </set>
      <set comment="kpoint 237">
       <set comment="band 1">
        <r>  0.1942  0.0420  0.0002  0.0000  0.0000  0.0000  0.0000  0.0000  0.0000 </r>
        <r>  0.1942  0.0420  0.0002  0.0000  0.0000  0.0000  0.0000  0.0000  0.0000 </r>
       </set>
       <set comment="band 2">
        <r>  0.1929  0.0452  0.0003  0.0000  0.0000  0.0000  0.0000  0.0000  0.0000 </r>
        <r>  0.1929  0.0452  0.0003  0.0000  0.0000  0.0000  0.0000  0.0000  0.0000 </r>
       </set>
       <set comment="band 3">
        <r>  0.0005  0.0013  0.0965  0.0946  0.0000  0.0000  0.0000  0.0000  0.0000 </r>
        <r>  0.0005  0.0013  0.0965  0.0946  0.0000  0.0000  0.0000  0.0000  0.0000 </r>
       </set>
       <set comment="band 4">
        <r>  0.0004  0.0013  0.0946  0.0966  0.0000  0.0000  0.0000  0.0000  0.0000 </r>
        <r>  0.0004  0.0013  0.0946  0.0966  0.0000  0.0000  0.0000  0.0000  0.0000 </r>
       </set>
       <set comment="band 5">
        <r>  0.0505  0.0360  0.0016  0.0022  0.0000  0.0000  0.0000  0.0000  0.0000 </r>
        <r>  0.0505  0.0360  0.0016  0.0022  0.0000  0.0000  0.0000  0.0000  0.0000 </r>
       </set>
       <set comment="band 6">
        <r>  0.0499  0.0346  0.0015  0.0021  0.0000  0.0000  0.0000  0.0000  0.0000 </r>
        <r>  0.0499  0.0346  0.0015  0.0021  0.0000  0.0000  0.0000  0.0000  0.0000 </r>
       </set>
       <set comment="band 7">
        <r>  0.0030  0.0044  0.0892  0.1166  0.0000  0.0000  0.0000  0.0000  0.0000 </r>
        <r>  0.0031  0.0044  0.0890  0.1161  0.0000  0.0000  0.0000  0.0000  0.0000 </r>
       </set>
       <set comment="band 8">
        <r>  0.0014  0.0014  0.1196  0.1116  0.0000  0.0000  0.0000  0.0000  0.0000 </r>
        <r>  0.0014  0.0013  0.1196  0.1110  0.0000  0.0000  0.0000  0.0000  0.0000 </r>
       </set>
      </set>
      <set comment="kpoint 238">
       <set comment="band 1">
        <r>  0.1939  0.0427  0.0001  0.0000  0.0000  0.0000  0.0000  0.0000  0.0000 </r>
        <r>  0.1939  0.0427  0.0001  0.0000  0.0000  0.0000  0.0000  0.0000  0.0000 </r>
       </set>
       <set comment="band 2">
        <r>  0.1929  0.0448  0.0001  0.0000  0.0000  0.0000  0.0000  0.0000  0.0000 </r>
        <r>  0.1929  0.0448  0.0001  0.0000  0.0000  0.0000  0.0000  0.0000  0.0000 </r>
       </set>
       <set comment="band 3">
        <r>  0.0002  0.0006  0.0972  0.0959  0.0000  0.0000  0.0000  0.0000  0.0000 </r>
        <r>  0.0002  0.0006  0.0972  0.0959  0.0000  0.0000  0.0000  0.0000  0.0000 </r>
       </set>
       <set comment="band 4">
        <r>  0.0002  0.0006  0.0960  0.0972  0.0000  0.0000  0.0000  0.0000  0.0000 </r>
        <r>  0.0002  0.0006  0.0960  0.0972  0.0000  0.0000  0.0000  0.0000  0.0000 </r>
       </set>
       <set comment="band 5">
        <r>  0.0509  0.0363  0.0007  0.0010  0.0000  0.0000  0.0000  0.0000  0.0000 </r>
        <r>  0.0509  0.0363  0.0007  0.0010  0.0000  0.0000  0.0000  0.0000  0.0000 </r>
       </set>
       <set comment="band 6">
        <r>  0.0505  0.0353  0.0007  0.0010  0.0000  0.0000  0.0000  0.0000  0.0000 </r>
        <r>  0.0505  0.0353  0.0007  0.0010  0.0000  0.0000  0.0000  0.0000  0.0000 </r>
       </set>
       <set comment="band 7">
        <r>  0.0013  0.0018  0.1048  0.1214  0.0000  0.0000  0.0000  0.0000  0.0000 </r>
        <r>  0.0013  0.0018  0.1016  0.1227  0.0000  0.0000  0.0000  0.0000  0.0000 </r>
       </set>
       <set comment="band 8">
        <r>  0.0007  0.0007  0.1198  0.1152  0.0000  0.0000  0.0000  0.0000  0.0000 </r>
        <r>  0.0007  0.0007  0.1214  0.1130  0.0000  0.0000  0.0000  0.0000  0.0000 </r>
       </set>
      </set>
      <set comment="kpoint 239">
       <set comment="band 1">
        <r>  0.1935  0.0433  0.0000  0.0000  0.0000  0.0000  0.0000  0.0000  0.0000 </r>
        <r>  0.1935  0.0433  0.0000  0.0000  0.0000  0.0000  0.0000  0.0000  0.0000 </r>
       </set>
       <set comment="band 2">
        <r>  0.1931  0.0444  0.0000  0.0000  0.0000  0.0000  0.0000  0.0000  0.0000 </r>
        <r>  0.1931  0.0444  0.0000  0.0000  0.0000  0.0000  0.0000  0.0000  0.0000 </r>
       </set>
       <set comment="band 3">
        <r>  0.0001  0.0001  0.0976  0.0969  0.0000  0.0000  0.0000  0.0000  0.0000 </r>
        <r>  0.0001  0.0001  0.0976  0.0969  0.0000  0.0000  0.0000  0.0000  0.0000 </r>
       </set>
       <set comment="band 4">
        <r>  0.0001  0.0001  0.0969  0.0976  0.0000  0.0000  0.0000  0.0000  0.0000 </r>
        <r>  0.0001  0.0001  0.0969  0.0976  0.0000  0.0000  0.0000  0.0000  0.0000 </r>
       </set>
       <set comment="band 5">
        <r>  0.0511  0.0364  0.0002  0.0003  0.0000  0.0000  0.0000  0.0000  0.0000 </r>
        <r>  0.0511  0.0364  0.0002  0.0003  0.0000  0.0000  0.0000  0.0000  0.0000 </r>
       </set>
       <set comment="band 6">
        <r>  0.0509  0.0359  0.0002  0.0003  0.0000  0.0000  0.0000  0.0000  0.0000 </r>
        <r>  0.0509  0.0359  0.0002  0.0003  0.0000  0.0000  0.0000  0.0000  0.0000 </r>
       </set>
       <set comment="band 7">
        <r>  0.0003  0.0003  0.0879  0.1490  0.0000  0.0000  0.0000  0.0000  0.0000 </r>
        <r>  0.0002  0.0004  0.1421  0.0944  0.0000  0.0000  0.0000  0.0000  0.0000 </r>
       </set>
       <set comment="band 8">
        <r>  0.0002  0.0003  0.1489  0.0917  0.0000  0.0000  0.0000  0.0000  0.0000 </r>
        <r>  0.0003  0.0002  0.0904  0.1444  0.0000  0.0000  0.0000  0.0000  0.0000 </r>
       </set>
      </set>
      <set comment="kpoint 240">
       <set comment="band 1">
        <r>  0.1933  0.0439  0.0000  0.0000  0.0000  0.0000  0.0000  0.0000  0.0000 </r>
        <r>  0.1933  0.0439  0.0000  0.0000  0.0000  0.0000  0.0000  0.0000  0.0000 </r>
       </set>
       <set comment="band 2">
        <r>  0.1933  0.0439  0.0000  0.0000  0.0000  0.0000  0.0000  0.0000  0.0000 </r>
        <r>  0.1933  0.0439  0.0000  0.0000  0.0000  0.0000  0.0000  0.0000  0.0000 </r>
       </set>
       <set comment="band 3">
        <r>  0.0000  0.0000  0.0975  0.0975  0.0000  0.0000  0.0000  0.0000  0.0000 </r>
        <r>  0.0000  0.0000  0.0975  0.0975  0.0000  0.0000  0.0000  0.0000  0.0000 </r>
       </set>
       <set comment="band 4">
        <r>  0.0000  0.0000  0.0975  0.0975  0.0000  0.0000  0.0000  0.0000  0.0000 </r>
        <r>  0.0000  0.0000  0.0975  0.0975  0.0000  0.0000  0.0000  0.0000  0.0000 </r>
       </set>
       <set comment="band 5">
        <r>  0.0511  0.0362  0.0000  0.0000  0.0000  0.0000  0.0000  0.0000  0.0000 </r>
        <r>  0.0511  0.0362  0.0000  0.0000  0.0000  0.0000  0.0000  0.0000  0.0000 </r>
       </set>
       <set comment="band 6">
        <r>  0.0511  0.0362  0.0000  0.0000  0.0000  0.0000  0.0000  0.0000  0.0000 </r>
        <r>  0.0511  0.0362  0.0000  0.0000  0.0000  0.0000  0.0000  0.0000  0.0000 </r>
       </set>
       <set comment="band 7">
        <r>  0.0000  0.0000  0.0729  0.1663  0.0000  0.0000  0.0000  0.0000  0.0000 </r>
        <r>  0.0000  0.0000  0.1674  0.0736  0.0000  0.0000  0.0000  0.0000  0.0000 </r>
       </set>
       <set comment="band 8">
        <r>  0.0000  0.0000  0.1667  0.0733  0.0000  0.0000  0.0000  0.0000  0.0000 </r>
        <r>  0.0000  0.0000  0.0730  0.1669  0.0000  0.0000  0.0000  0.0000  0.0000 </r>
       </set>
      </set>
     </set>
    </set>
   </array>
  </projected>
 </calculation>
 <structure name="finalpos" >
  <crystal>
   <varray name="basis" >
    <v>       0.00000000       2.73461054       2.73461054 </v>
    <v>       2.73461054      -0.00000000       2.73461054 </v>
    <v>       2.73461054       2.73461054       0.00000000 </v>
   </varray>
   <i name="volume">     40.89935362 </i>
   <varray name="rec_basis" >
    <v>      -0.18284139       0.18284139       0.18284139 </v>
    <v>       0.18284139      -0.18284139       0.18284139 </v>
    <v>       0.18284139       0.18284139      -0.18284139 </v>
   </varray>
  </crystal>
  <varray name="positions" >
   <v>       0.00000000       0.00000000       0.00000000 </v>
   <v>       0.25000000       0.25000000       0.25000000 </v>
  </varray>
 </structure>
</modeling>
