   2   2   0   0
  0.2044968E+02  0.3867323E-09  0.3867323E-09  0.3867323E-09  0.5000000E-15
   1.0000000000000000E-004
  CAR 
 unknown system                          
     18.68419683     -9.15333479  301      5.42077291      1.00000000
     -9.153  0.0000E+00  0.0000E+00
     -9.061  0.0000E+00  0.0000E+00
     -8.968  0.0000E+00  0.0000E+00
     -8.875  0.0000E+00  0.0000E+00
     -8.782  0.0000E+00  0.0000E+00
     -8.689  0.0000E+00  0.0000E+00
     -8.597  0.0000E+00  0.0000E+00
     -8.504  0.0000E+00  0.0000E+00
     -8.411  0.0000E+00  0.0000E+00
     -8.318  0.0000E+00  0.0000E+00
     -8.225  0.0000E+00  0.0000E+00
     -8.133  0.9556E-13  0.8867E-14
     -8.040  0.3682E-06  0.3416E-07
     -7.947  0.1997E-02  0.1853E-03
     -7.854  0.3295E-01  0.3242E-02
     -7.761  0.8675E-02  0.4047E-02
     -7.669  0.1737E+00  0.2017E-01
     -7.576  0.3392E+00  0.5164E-01
     -7.483  0.7477E-01  0.5858E-01
     -7.390  0.3996E-02  0.5895E-01
     -7.297  0.2876E+00  0.8563E-01
     -7.205  0.2129E+00  0.1054E+00
     -7.112  0.2201E+00  0.1258E+00
     -7.019  0.9221E+00  0.2114E+00
     -6.926  0.2041E+00  0.2303E+00
     -6.834  0.1653E-02  0.2305E+00
     -6.741  0.4760E-01  0.2349E+00
     -6.648  0.1950E+00  0.2530E+00
     -6.555  0.2422E+00  0.2755E+00
     -6.462  0.1042E+01  0.3722E+00
     -6.370  0.7268E+00  0.4396E+00
     -6.277  0.2934E-01  0.4424E+00
     -6.184  0.6146E+00  0.4994E+00
     -6.091  0.4131E+00  0.5377E+00
     -5.998  0.3110E+00  0.5666E+00
     -5.906  0.8022E+00  0.6410E+00
     -5.813  0.2060E+00  0.6601E+00
     -5.720  0.2641E-01  0.6626E+00
     -5.627  0.4002E+00  0.6997E+00
     -5.534  0.5525E+00  0.7510E+00
     -5.442  0.2187E+01  0.9539E+00
     -5.349  0.4813E+00  0.9986E+00
     -5.256  0.7873E+00  0.1072E+01
     -5.163  0.5317E+00  0.1121E+01
     -5.070  0.3941E+00  0.1158E+01
     -4.978  0.6836E+00  0.1221E+01
     -4.885  0.8253E+00  0.1298E+01
     -4.792  0.3255E+00  0.1328E+01
     -4.699  0.1265E+01  0.1445E+01
     -4.607  0.5449E+00  0.1496E+01
     -4.514  0.2298E+00  0.1517E+01
     -4.421  0.7534E+00  0.1587E+01
     -4.328  0.1943E+00  0.1605E+01
     -4.235  0.7961E+00  0.1679E+01
     -4.143  0.3369E+00  0.1710E+01
     -4.050  0.1613E+01  0.1860E+01
     -3.957  0.1223E+00  0.1871E+01
     -3.864  0.4366E-01  0.1875E+01
     -3.771  0.4092E+00  0.1913E+01
     -3.679  0.5230E-01  0.1918E+01
     -3.586  0.2575E-04  0.1918E+01
     -3.493  0.1064E-04  0.1918E+01
     -3.400  0.2423E-01  0.1920E+01
     -3.307  0.3496E+00  0.1953E+01
     -3.215  0.9255E+00  0.2039E+01
     -3.122  0.4485E+00  0.2080E+01
     -3.029  0.2022E-01  0.2082E+01
     -2.936  0.3064E-05  0.2082E+01
     -2.843  0.5212E-05  0.2082E+01
     -2.751  0.2586E-01  0.2084E+01
     -2.658  0.3981E+00  0.2121E+01
     -2.565  0.8115E-01  0.2129E+01
     -2.472  0.5817E-02  0.2129E+01
     -2.380  0.9315E+00  0.2216E+01
     -2.287  0.1478E+01  0.2353E+01
     -2.194  0.1163E+01  0.2461E+01
     -2.101  0.1398E+01  0.2591E+01
     -2.008  0.1187E+01  0.2701E+01
     -1.916  0.1021E+01  0.2796E+01
     -1.823  0.8381E-01  0.2803E+01
     -1.730  0.1102E+01  0.2906E+01
     -1.637  0.8801E+00  0.2987E+01
     -1.544  0.1156E-01  0.2988E+01
     -1.452  0.1695E-04  0.2988E+01
     -1.359  0.6382E-01  0.2994E+01
     -1.266  0.8802E+00  0.3076E+01
     -1.173  0.8656E+00  0.3156E+01
     -1.080  0.1562E+01  0.3301E+01
     -0.988  0.2417E+00  0.3324E+01
     -0.895  0.6696E-02  0.3324E+01
     -0.802  0.6529E-01  0.3330E+01
     -0.709  0.4058E+00  0.3368E+01
     -0.616  0.3618E-01  0.3371E+01
     -0.524  0.4074E+00  0.3409E+01
     -0.431  0.5922E+00  0.3464E+01
     -0.338  0.8631E-02  0.3465E+01
     -0.245  0.1050E-01  0.3466E+01
     -0.153  0.6187E+00  0.3523E+01
     -0.060  0.3794E+00  0.3558E+01
      0.033  0.1672E-02  0.3559E+01
      0.126  0.8431E-02  0.3559E+01
      0.219  0.5890E+00  0.3614E+01
      0.311  0.4107E+00  0.3652E+01
      0.404  0.2172E-02  0.3652E+01
      0.497  0.2632E-01  0.3655E+01
      0.590  0.7526E+00  0.3725E+01
      0.683  0.7183E+00  0.3791E+01
      0.775  0.9198E+00  0.3877E+01
      0.868  0.2812E+00  0.3903E+01
      0.961  0.1971E+01  0.4086E+01
      1.054  0.1187E+01  0.4196E+01
      1.147  0.2449E+00  0.4219E+01
      1.239  0.4163E+00  0.4257E+01
      1.332  0.3780E+00  0.4292E+01
      1.425  0.2256E+00  0.4313E+01
      1.518  0.9237E+00  0.4399E+01
      1.611  0.2111E+01  0.4595E+01
      1.703  0.2431E+01  0.4820E+01
      1.796  0.2415E+01  0.5044E+01
      1.889  0.2377E+00  0.5066E+01
      1.982  0.4083E-03  0.5066E+01
      2.074  0.2366E+00  0.5088E+01
      2.167  0.1792E+01  0.5255E+01
      2.260  0.2915E+00  0.5282E+01
      2.353  0.1730E+01  0.5442E+01
      2.446  0.2724E+01  0.5695E+01
      2.538  0.1228E+01  0.5809E+01
      2.631  0.8781E+00  0.5890E+01
      2.724  0.9331E+00  0.5977E+01
      2.817  0.6569E+00  0.6038E+01
      2.910  0.3180E+01  0.6333E+01
      3.002  0.9729E+00  0.6423E+01
      3.095  0.2795E+00  0.6449E+01
      3.188  0.6736E+00  0.6512E+01
      3.281  0.2714E+01  0.6764E+01
      3.374  0.9437E+00  0.6851E+01
      3.466  0.2356E+00  0.6873E+01
      3.559  0.1309E+01  0.6994E+01
      3.652  0.1489E+01  0.7133E+01
      3.745  0.3287E+00  0.7163E+01
      3.838  0.1728E+01  0.7323E+01
      3.930  0.1941E+01  0.7504E+01
      4.023  0.1180E+01  0.7613E+01
      4.116  0.6551E+00  0.7674E+01
      4.209  0.2064E-01  0.7676E+01
      4.301  0.2420E-02  0.7676E+01
      4.394  0.7052E+00  0.7741E+01
      4.487  0.1446E+01  0.7876E+01
      4.580  0.3563E-01  0.7879E+01
      4.673  0.2443E-05  0.7879E+01
      4.765  0.2664E-05  0.7879E+01
      4.858  0.2927E-01  0.7882E+01
      4.951  0.8494E+00  0.7960E+01
      5.044  0.2994E+00  0.7988E+01
      5.137  0.3225E-02  0.7989E+01
      5.229  0.8845E-01  0.7997E+01
      5.322  0.3514E-01  0.8000E+01
      5.415  0.8363E-04  0.8000E+01
      5.508  0.3393E-09  0.8000E+01
      5.601  0.0000E+00  0.8000E+01
      5.693  0.0000E+00  0.8000E+01
      5.786  0.0000E+00  0.8000E+01
      5.879  0.0000E+00  0.8000E+01
      5.972  0.0000E+00  0.8000E+01
      6.065  0.0000E+00  0.8000E+01
      6.157  0.0000E+00  0.8000E+01
      6.250  0.3075E-13  0.8000E+01
      6.343  0.3319E-06  0.8000E+01
      6.436  0.4816E-02  0.8000E+01
      6.528  0.1751E+00  0.8017E+01
      6.621  0.1872E+00  0.8034E+01
      6.714  0.1398E+00  0.8047E+01
      6.807  0.4624E+00  0.8090E+01
      6.900  0.5403E+00  0.8140E+01
      6.992  0.1417E-01  0.8141E+01
      7.085  0.2227E+00  0.8162E+01
      7.178  0.4648E+00  0.8205E+01
      7.271  0.5847E+00  0.8259E+01
      7.364  0.4855E+00  0.8304E+01
      7.456  0.4238E+00  0.8344E+01
      7.549  0.1000E+01  0.8437E+01
      7.642  0.3121E+00  0.8466E+01
      7.735  0.4360E-01  0.8470E+01
      7.828  0.8037E+00  0.8544E+01
      7.920  0.2664E+01  0.8791E+01
      8.013  0.9796E+00  0.8882E+01
      8.106  0.7200E+00  0.8949E+01
      8.199  0.1748E+01  0.9111E+01
      8.292  0.1056E+01  0.9209E+01
      8.384  0.2813E+01  0.9470E+01
      8.477  0.1298E+01  0.9591E+01
      8.570  0.5430E+00  0.9641E+01
      8.663  0.1036E+01  0.9737E+01
      8.755  0.9484E+00  0.9825E+01
      8.848  0.1486E+01  0.9963E+01
      8.941  0.2512E+01  0.1020E+02
      9.034  0.8516E+00  0.1028E+02
      9.127  0.1859E+01  0.1045E+02
      9.219  0.1282E+01  0.1057E+02
      9.312  0.2613E+00  0.1059E+02
      9.405  0.4481E+00  0.1063E+02
      9.498  0.4772E+00  0.1068E+02
      9.591  0.3122E+01  0.1097E+02
      9.683  0.2357E+01  0.1119E+02
      9.776  0.2448E+01  0.1141E+02
      9.869  0.9974E+00  0.1150E+02
      9.962  0.1796E+01  0.1167E+02
     10.055  0.1006E+01  0.1176E+02
     10.147  0.1564E+00  0.1178E+02
     10.240  0.1613E+01  0.1193E+02
     10.333  0.1905E+01  0.1211E+02
     10.426  0.1469E+01  0.1224E+02
     10.519  0.7406E+00  0.1231E+02
     10.611  0.2448E+01  0.1254E+02
     10.704  0.1048E+01  0.1264E+02
     10.797  0.3712E+00  0.1267E+02
     10.890  0.8332E+00  0.1275E+02
     10.982  0.3827E+00  0.1278E+02
     11.075  0.2686E+00  0.1281E+02
     11.168  0.1685E+01  0.1296E+02
     11.261  0.1302E+01  0.1308E+02
     11.354  0.5020E+00  0.1313E+02
     11.446  0.1592E+01  0.1328E+02
     11.539  0.1174E+01  0.1339E+02
     11.632  0.1752E+01  0.1355E+02
     11.725  0.2339E+01  0.1377E+02
     11.818  0.2377E+00  0.1379E+02
     11.910  0.8295E+00  0.1387E+02
     12.003  0.1629E+01  0.1402E+02
     12.096  0.7820E+00  0.1409E+02
     12.189  0.3609E+01  0.1443E+02
     12.282  0.7617E+00  0.1450E+02
     12.374  0.4179E+00  0.1453E+02
     12.467  0.7450E+00  0.1460E+02
     12.560  0.1632E+01  0.1476E+02
     12.653  0.6560E+00  0.1482E+02
     12.746  0.1220E+01  0.1493E+02
     12.838  0.8982E-01  0.1494E+02
     12.931  0.4476E-04  0.1494E+02
     13.024  0.2202E-01  0.1494E+02
     13.117  0.2726E+00  0.1496E+02
     13.209  0.4984E+00  0.1501E+02
     13.302  0.1355E+01  0.1514E+02
     13.395  0.1107E+01  0.1524E+02
     13.488  0.3722E+00  0.1527E+02
     13.581  0.1870E+00  0.1529E+02
     13.673  0.1609E+01  0.1544E+02
     13.766  0.3447E+01  0.1576E+02
     13.859  0.7584E+00  0.1583E+02
     13.952  0.1423E+00  0.1584E+02
     14.045  0.4797E+00  0.1589E+02
     14.137  0.1520E+01  0.1603E+02
     14.230  0.2290E+01  0.1624E+02
     14.323  0.1948E+01  0.1642E+02
     14.416  0.1993E+01  0.1661E+02
     14.509  0.5067E+00  0.1665E+02
     14.601  0.8113E+00  0.1673E+02
     14.694  0.1488E+01  0.1687E+02
     14.787  0.2041E+01  0.1706E+02
     14.880  0.2270E+00  0.1708E+02
     14.973  0.2683E+00  0.1710E+02
     15.065  0.1983E-01  0.1711E+02
     15.158  0.4717E-01  0.1711E+02
     15.251  0.7920E+00  0.1718E+02
     15.344  0.8684E+00  0.1726E+02
     15.436  0.1297E+01  0.1738E+02
     15.529  0.6163E-01  0.1739E+02
     15.622  0.7646E+00  0.1746E+02
     15.715  0.2101E+00  0.1748E+02
     15.808  0.2970E-03  0.1748E+02
     15.900  0.6806E-09  0.1748E+02
     15.993  0.0000E+00  0.1748E+02
     16.086  0.0000E+00  0.1748E+02
     16.179  0.0000E+00  0.1748E+02
     16.272  0.2389E-11  0.1748E+02
     16.364  0.9074E-05  0.1748E+02
     16.457  0.4953E-01  0.1749E+02
     16.550  0.1204E+01  0.1760E+02
     16.643  0.1801E+01  0.1776E+02
     16.736  0.2292E+00  0.1779E+02
     16.828  0.2137E-02  0.1779E+02
     16.921  0.1446E+00  0.1780E+02
     17.014  0.4494E+00  0.1784E+02
     17.107  0.5787E+00  0.1789E+02
     17.200  0.5705E+00  0.1795E+02
     17.292  0.4412E+00  0.1799E+02
     17.385  0.2421E-01  0.1799E+02
     17.478  0.9884E-01  0.1800E+02
     17.571  0.5991E-02  0.1800E+02
     17.663  0.1105E-05  0.1800E+02
     17.756  0.2867E-12  0.1800E+02
     17.849  0.0000E+00  0.1800E+02
     17.942  0.0000E+00  0.1800E+02
     18.035  0.0000E+00  0.1800E+02
     18.127  0.0000E+00  0.1800E+02
     18.220  0.0000E+00  0.1800E+02
     18.313  0.0000E+00  0.1800E+02
     18.406  0.0000E+00  0.1800E+02
     18.499  0.0000E+00  0.1800E+02
     18.591  0.0000E+00  0.1800E+02
     18.684  0.0000E+00  0.1800E+02
