    2    2    1    1
  0.2044968E+02  0.3867323E-09  0.3867323E-09  0.3867323E-09  0.5000000E-15
   1.0000000000000000E-004
  CAR 
 unknown system                          
      8     29      9

  0.3742002E-15  0.3742002E-15  0.3742002E-15  0.1953125E-02
    1       -7.887992   1.000000
    2        5.208640   1.000000
    3        5.208661   1.000000
    4        5.208705   1.000000
    5        8.596261   0.000000
    6        8.596307   0.000000
    7        8.596331   0.000000
    8        9.352172   0.000000
    9       13.991254   0.000000

  0.1250000E+00  0.3816392E-15  0.3816392E-15  0.1562500E-01
    1       -7.669203   1.000000
    2        3.593178   1.000000
    3        4.928652   1.000000
    4        4.928663   1.000000
    5        8.510590   0.000000
    6        9.017078   0.000000
    7        9.017114   0.000000
    8       10.737009   0.000000
    9       13.702245   0.000000

  0.2500000E+00  0.3885781E-15  0.3885781E-15  0.1562500E-01
    1       -7.018088   1.000000
    2        0.995818   1.000000
    3        4.418264   1.000000
    4        4.418297   1.000000
    5        7.978842   0.000000
    6        9.586600   0.000000
    7        9.586629   0.000000
    8       13.077315   0.000000
    9       13.461594   0.000000

  0.3750000E+00  0.3885781E-15  0.3885781E-15  0.1562500E-01
    1       -6.043150   1.000000
    2       -1.237641   1.000000
    3        4.049615   1.000000
    4        4.049644   1.000000
    5        7.596944   0.000000
    6        9.537815   0.000000
    7        9.537836   0.000000
    8       14.051371   0.000000
    9       14.917217   0.000000

  0.5000000E+00  0.3885781E-15  0.3885781E-15  0.7812500E-02
    1       -5.357666   1.000000
    2       -2.356945   1.000000
    3        3.926705   1.000000
    4        3.926733   1.000000
    5        7.453651   0.000000
    6        9.426878   0.000000
    7        9.426896   0.000000
    8       13.875586   0.000000
    9       17.014623   0.000000

  0.1250000E+00  0.1250000E+00  0.3742002E-15  0.1171875E-01
    1       -7.595313   1.000000
    2        3.859438   1.000000
    3        4.407379   1.000000
    4        4.407404   1.000000
    5        8.010969   0.000000
    6        9.745784   0.000000
    7        9.745791   0.000000
    8       10.434795   0.000000
    9       12.707770   0.000000

  0.2500000E+00  0.1250000E+00  0.3816392E-15  0.4687500E-01
    1       -7.084097   1.000000
    2        1.766531   1.000000
    3        3.845949   1.000000
    4        3.986770   1.000000
    5        8.108613   0.000000
    6        9.756965   0.000000
    7       10.561553   0.000000
    8       10.847803   0.000000
    9       13.721676   0.000000

  0.3750000E+00  0.1250000E+00  0.3885781E-15  0.4687500E-01
    1       -6.194652   1.000000
    2       -0.515225   1.000000
    3        3.345350   1.000000
    4        3.541157   1.000000
    5        8.207581   0.000000
    6        9.686056   0.000000
    7       10.573082   0.000000
    8       11.614581   0.000000
    9       15.593340   0.000000

  0.5000000E+00  0.1250000E+00  0.3885781E-15  0.4687500E-01
    1       -5.260508   1.000000
    2       -2.123438   1.000000
    3        2.854921   1.000000
    4        3.561370   1.000000
    5        8.158120   0.000000
    6        9.542241   0.000000
    7       10.193868   0.000000
    8       13.624768   0.000000
    9       15.217428   0.000000

 -0.3750000E+00  0.1250000E+00  0.3885781E-15  0.4687500E-01
    1       -5.523723   1.000000
    2       -1.718247   1.000000
    3        2.660835   1.000000
    4        3.874726   1.000000
    5        8.329728   0.000000
    6        9.654431   0.000000
    7        9.959514   0.000000
    8       14.165404   0.000000
    9       14.405907   0.000000

 -0.2500000E+00  0.1250000E+00  0.3885781E-15  0.4687500E-01
    1       -6.528943   1.000000
    2        0.210464   1.000000
    3        2.838524   1.000000
    4        4.407213   1.000000
    5        8.706178   0.000000
    6        9.764623   0.000000
    7        9.897253   0.000000
    8       12.467107   0.000000
    9       12.687998   0.000000

 -0.1250000E+00  0.1250000E+00  0.3885781E-15  0.2343750E-01
    1       -7.304352   1.000000
    2        2.367290   1.000000
    3        3.591330   1.000000
    4        4.926317   1.000000
    5        9.093338   0.000000
    6        9.170526   0.000000
    7        9.326282   0.000000
    8       11.654882   0.000000
    9       12.541590   0.000000

  0.2500000E+00  0.2500000E+00  0.3742002E-15  0.1171875E-01
    1       -6.709536   1.000000
    2        1.404055   1.000000
    3        3.220087   1.000000
    4        3.220143   1.000000
    5        7.057534   0.000000
    6        9.179783   0.000000
    7       11.949227   0.000000
    8       11.949262   0.000000
    9       14.271513   0.000000

  0.3750000E+00  0.2500000E+00  0.3747003E-15  0.4687500E-01
    1       -5.934853   1.000000
    2       -0.163594   1.000000
    3        2.432056   1.000000
    4        2.860301   1.000000
    5        7.269262   0.000000
    6        8.896390   0.000000
    7       12.187985   0.000000
    8       12.499491   0.000000
    9       16.516039   0.000000

  0.5000000E+00  0.2500000E+00  0.3747003E-15  0.4687500E-01
    1       -4.926784   1.000000
    2       -1.753578   1.000000
    3        1.489249   1.000000
    4        2.863307   1.000000
    5        7.474735   0.000000
    6       10.527978   0.000000
    7       11.908897   0.000000
    8       12.137787   0.000000
    9       16.568193   0.000000

 -0.3750000E+00  0.2500000E+00  0.2775558E-15  0.4687500E-01
    1       -4.698774   1.000000
    2       -2.036121   1.000000
    3        0.981754   1.000000
    4        3.203225   1.000000
    5        7.818070   0.000000
    6       11.567683   0.000000
    7       11.685152   0.000000
    8       13.215714   0.000000
    9       14.305203   0.000000

 -0.2500000E+00  0.2500000E+00  0.3608225E-15  0.2343750E-01
    1       -5.662468   1.000000
    2       -0.762140   1.000000
    3        1.263905   1.000000
    4        3.809039   1.000000
    5        8.460593   0.000000
    6       10.980107   0.000000
    7       11.191779   0.000000
    8       12.330040   0.000000
    9       12.647375   0.000000

  0.3750000E+00  0.3750000E+00  0.3742002E-15  0.1171875E-01
    1       -5.273740   1.000000
    2       -1.056175   1.000000
    3        2.419300   1.000000
    4        2.419323   1.000000
    5        6.508988   0.000000
    6        7.500125   0.000000
    7       14.379472   0.000000
    8       14.379787   0.000000
    9       16.914637   0.000000

  0.5000000E+00  0.3750000E+00  0.3747003E-15  0.4687500E-01
    1       -4.293182   1.000000
    2       -2.261670   1.000000
    3        1.597962   1.000000
    4        2.335763   1.000000
    5        6.810454   0.000000
    6        7.898127   0.000000
    7       14.610504   0.000000
    8       14.684515   0.000000
    9       17.194140   0.000000

 -0.3750000E+00  0.3750000E+00  0.2775558E-15  0.2343750E-01
    1       -3.816008   1.000000
    2       -2.692955   1.000000
    3        0.652993   1.000000
    4        2.614730   1.000000
    5        7.138583   0.000000
    6       10.192106   0.000000
    7       13.799351   0.000000
    8       14.292611   0.000000
    9       14.565404   0.000000

  0.5000000E+00  0.5000000E+00  0.3742002E-15  0.5859375E-02
    1       -3.354026   1.000000
    2       -3.354009   1.000000
    3        2.154115   1.000000
    4        2.154180   1.000000
    5        6.625343   0.000000
    6        6.625354   0.000000
    7       16.570694   0.000000
    8       16.570775   0.000000
    9       17.418854   0.000000

  0.3750000E+00  0.2500000E+00  0.1250000E+00  0.4687500E-01
    1       -6.442970   1.000000
    2        0.565682   1.000000
    3        2.397327   1.000000
    4        3.767198   1.000000
    5        8.397985   0.000000
    6        9.961308   0.000000
    7       10.251943   0.000000
    8       11.676555   0.000000
    9       14.063426   0.000000

  0.5000000E+00  0.2500000E+00  0.1250000E+00  0.9375000E-01
    1       -5.474161   1.000000
    2       -1.147653   1.000000
    3        1.720900   1.000000
    4        3.229198   1.000000
    5        8.858864   0.000000
    6        9.573505   0.000000
    7       11.152389   0.000000
    8       12.135989   0.000000
    9       15.357781   0.000000

 -0.3750000E+00  0.2500000E+00  0.1250000E+00  0.4687500E-01
    1       -4.762394   1.000000
    2       -2.183122   1.000000
    3        1.568416   1.000000
    4        2.981339   1.000000
    5        9.058062   0.000000
    6        9.131624   0.000000
    7       12.111378   0.000000
    8       13.353645   0.000000
    9       13.679057   0.000000

  0.5000000E+00  0.3750000E+00  0.1250000E+00  0.4687500E-01
    1       -5.060495   1.000000
    2       -1.304753   1.000000
    3        1.681856   1.000000
    4        2.326620   1.000000
    5        7.864035   0.000000
    6        8.620491   0.000000
    7       11.935212   0.000000
    8       14.328363   0.000000
    9       16.613569   0.000000

 -0.3750000E+00  0.3750000E+00  0.1250000E+00  0.9375000E-01
    1       -4.104597   1.000000
    2       -2.374364   1.000000
    3        0.916690   1.000000
    4        2.116789   1.000000
    5        8.338565   0.000000
    6       10.342455   0.000000
    7       11.443642   0.000000
    8       13.719409   0.000000
    9       14.738962   0.000000

 -0.2500000E+00  0.3750000E+00  0.1250000E+00  0.4687500E-01
    1       -4.486833   1.000000
    2       -1.971785   1.000000
    3        0.731567   1.000000
    4        2.523444   1.000000
    5        8.844049   0.000000
    6       10.638967   0.000000
    7       11.356157   0.000000
    8       13.280961   0.000000
    9       14.193394   0.000000

 -0.3750000E+00  0.5000000E+00  0.1250000E+00  0.2343750E-01
    1       -3.269800   1.000000
    2       -3.269777   1.000000
    3        1.617319   1.000000
    4        1.617375   1.000000
    5        7.896871   0.000000
    6        7.896892   0.000000
    7       14.150179   0.000000
    8       14.150229   0.000000
    9       17.026037   0.000000

 -0.2500000E+00  0.5000000E+00  0.2500000E+00  0.1171875E-01
    1       -3.183772   1.000000
    2       -3.183757   1.000000
    3        1.154500   1.000000
    4        1.154516   1.000000
    5       10.313983   0.000000
    6       10.314044   0.000000
    7       11.171820   0.000000
    8       11.171859   0.000000
    9       17.032395   0.000000
