       N       E                     dE             d eps       ncg     rms          ort
SDA:   1     0.405799639243E+02    0.40580E+02    0.00000E+00   261   0.368E+02 0.000E+00
CGA:   2     0.232030474716E+02   -0.17377E+02   -0.28883E+01   261   0.111E+03-0.137E+02
CGA:   3     0.311734259018E+02    0.79704E+01   -0.11745E+02   261   0.113E+03-0.499E+01
CGA:   4     0.236918466959E+02   -0.74816E+01   -0.20913E+02   261   0.776E+02 0.277E+02
CGA:   5     0.145651525844E+02   -0.91267E+01   -0.18825E+02   261   0.319E+02 0.235E+02
CGA:   6     0.689127315079E+01   -0.76739E+01   -0.97799E+01   261   0.181E+02 0.849E+01
CGA:   7     0.142030347894E+01   -0.54710E+01   -0.57711E+01   261   0.712E+01 0.395E+01
CGA:   8    -0.356905500789E+01   -0.49894E+01   -0.35936E+01   261   0.447E+01 0.880E+00
CGA:   9    -0.849109123243E+01   -0.49220E+01    0.17967E+01   261   0.424E+01 0.168E+01
CGA:  10    -0.910102463696E+01   -0.60993E+00   -0.57237E+00   261   0.413E+01 0.157E+01
CGA:  11    -0.843303868754E+01    0.66799E+00   -0.27878E+00   261   0.600E+01 0.314E+01
CGA:  12    -0.107961025632E+02   -0.23631E+01   -0.25614E+01   261   0.309E+01-0.483E+00
CGA:  13    -0.115808701622E+02   -0.78477E+00   -0.79615E+00   261   0.131E+01 0.827E-01
CGA:  14    -0.121376069929E+02   -0.55674E+00   -0.59487E+00   261   0.589E+00-0.298E+00
CGA:  15    -0.123240900109E+02   -0.18648E+00   -0.21249E+00   261   0.398E+00-0.145E+00
CGA:  16    -0.124072679384E+02   -0.83178E-01   -0.80932E-01   261   0.236E+00-0.725E-02
CGA:  17    -0.124638105750E+02   -0.56543E-01   -0.55471E-01   261   0.134E+00 0.667E-02
CGA:  18    -0.124964160394E+02   -0.32605E-01   -0.32272E-01   261   0.102E+00 0.624E-02
CGA:  19    -0.125204590204E+02   -0.24043E-01   -0.24210E-01   261   0.884E-01 0.617E-02
CGA:  20    -0.125407181769E+02   -0.20259E-01   -0.20663E-01   261   0.686E-01 0.530E-02
CGA:  21    -0.125543994910E+02   -0.13681E-01   -0.14178E-01   261   0.437E-01 0.284E-02
CGA:  22    -0.125628676431E+02   -0.84682E-02   -0.89746E-02   261   0.272E-01 0.157E-02
CGA:  23    -0.125691503454E+02   -0.62827E-02   -0.64593E-02   261   0.179E-01 0.118E-02
CGA:  24    -0.125740784087E+02   -0.49281E-02   -0.49556E-02   261   0.120E-01 0.556E-03
CGA:  25    -0.125775581744E+02   -0.34798E-02   -0.34828E-02   261   0.774E-02 0.111E-03
CGA:  26    -0.125798003921E+02   -0.22422E-02   -0.22422E-02   261   0.490E-02-0.747E-04
CGA:  27    -0.125812108965E+02   -0.14105E-02   -0.14105E-02   261   0.319E-02-0.110E-03
CGA:  28    -0.125821059118E+02   -0.89502E-03   -0.89478E-03   261   0.203E-02-0.718E-04
CGA:  29    -0.125826487158E+02   -0.54280E-03   -0.54218E-03   261   0.119E-02-0.272E-04
CGA:  30    -0.125829606910E+02   -0.31198E-03   -0.31194E-03   261   0.723E-03 0.568E-05
CGA:  31    -0.125831557601E+02   -0.19507E-03   -0.19541E-03   261   0.490E-03 0.215E-04
CGA:  32    -0.125832909141E+02   -0.13515E-03   -0.13563E-03   261   0.349E-03 0.270E-04
CGA:  33    -0.125833862904E+02   -0.95376E-04   -0.96001E-04   261   0.231E-03 0.249E-04
CGA:  34    -0.125834462161E+02   -0.59926E-04   -0.60576E-04   261   0.129E-03 0.163E-04
CGA:  35    -0.125834793614E+02   -0.33145E-04   -0.33426E-04   261   0.676E-04 0.685E-05
CGA:  36    -0.125834986318E+02   -0.19270E-04   -0.19276E-04   261   0.405E-04 0.523E-06
CGA:  37    -0.125835119118E+02   -0.13280E-04   -0.13479E-04   261   0.300E-04-0.406E-05
CGA:  38    -0.125835212627E+02   -0.93509E-05   -0.10009E-04   261   0.245E-04-0.753E-05
   1 F= -.12583521E+02 E0= -.12583521E+02  d E =-.930049E-12
