 running on    6 total cores
 distrk:  each k-point on    3 cores,    2 groups
 distr:  one band on    1 cores,    3 groups
 using from now: INCAR     
 vasp.5.4.4.18Apr17-6-g9f103f2a35 (build Jul 17 2026 20:05:20) complex           
 POSCAR found type information on POSCAR  Si
 POSCAR found :  1 types and       2 ions
 scaLAPACK will be used

 ----------------------------------------------------------------------------- 
|                                                                             |
|           W    W    AA    RRRRR   N    N  II  N    N   GGGG   !!!           |
|           W    W   A  A   R    R  NN   N  II  NN   N  G    G  !!!           |
|           W    W  A    A  R    R  N N  N  II  N N  N  G       !!!           |
|           W WW W  AAAAAA  RRRRR   N  N N  II  N  N N  G  GGG   !            |
|           WW  WW  A    A  R   R   N   NN  II  N   NN  G    G                |
|           W    W  A    A  R    R  N    N  II  N    N   GGGG   !!!           |
|                                                                             |
|      For optimal performance we recommend to set                            |
|        NCORE= 4 - approx SQRT( number of cores)                             |
|      NCORE specifies how many cores store one orbital (NPAR=cpu/NCORE).     |
|      This setting can  greatly improve the performance of VASP for DFT.     |
|      The default,   NCORE=1            might be grossly inefficient         |
|      on modern multi-core architectures or massively parallel machines.     |
|      Do your own testing !!!!                                               |
|      Unfortunately you need to use the default for GW and RPA calculations. |
|      (for HF NCORE is supported but not extensively tested yet)             |
|                                                                             |
 ----------------------------------------------------------------------------- 


 ----------------------------------------------------------------------------- 
|                                                                             |
|           W    W    AA    RRRRR   N    N  II  N    N   GGGG   !!!           |
|           W    W   A  A   R    R  NN   N  II  NN   N  G    G  !!!           |
|           W    W  A    A  R    R  N N  N  II  N N  N  G       !!!           |
|           W WW W  AAAAAA  RRRRR   N  N N  II  N  N N  G  GGG   !            |
|           WW  WW  A    A  R   R   N   NN  II  N   NN  G    G                |
|           W    W  A    A  R    R  N    N  II  N    N   GGGG   !!!           |
|                                                                             |
|      You have enabled k-point parallelism (KPAR>1).                         |
|      This developmental code was originally  written by Paul Kent at ORNL,  |
|      and carefully double checked in Vienna.                                |
|      GW as well as linear response parallelism added by Martijn Marsman     |
|      and Georg Kresse.                                                      |
|      Carefully verify results versus KPAR=1.                                |
|      Report problems to Paul Kent and Vienna.                               |
|                                                                             |
 ----------------------------------------------------------------------------- 

 LDA part: xc-table for Pade appr. of Perdew
 found WAVECAR, reading the header
  number of bands has changed, file:     8 present:     9
  trying to continue reading WAVECAR, but it might fail
  number of k-points has changed, file:    60 present:    29
  trying to continue reading WAVECAR, but it might fail
 WAVECAR: different cutoff or change in lattice found
 POSCAR, INCAR and KPOINTS ok, starting setup
 FFT: planning ...
 reading WAVECAR
 random initialization beyond band            9
 the WAVECAR file was read successfully
 charge-density read from file: unknown                                 
 initial charge from wavefunction
 entering main loop
       N       E                     dE             d eps       ncg     rms          ort
 gam= 0.000 g(H,U,f)=  0.139E+02 0.229E+02 0.299E-22 ort(H,U,f) = 0.000E+00 0.000E+00 0.000E+00
SDA:   1     0.405799639243E+02    0.40580E+02    0.00000E+00   261   0.368E+02 0.000E+00
 gam= 0.000 trial= 0.400  step= 3.241 mean= 0.400
 gam= 0.000 trial= 2.600  step= 2.600 mean= 0.631
 gam= 3.002 g(H,U,f)=  0.956E+02 0.150E+02 0.126E-05 ort(H,U,f) =-0.107E+02-0.293E+01-0.403E-06
CGA:   2     0.232030474716E+02   -0.17377E+02   -0.28883E+01   261   0.111E+03-0.137E+02
 gam= 3.002 trial= 0.730  step= 0.338 mean= 0.730
 gam= 1.022 g(H,U,f)=  0.826E+02 0.266E+02 0.381E+01 ort(H,U,f) =-0.469E+00-0.267E+01-0.185E+01
CGA:   3     0.311734259018E+02    0.79704E+01   -0.11745E+02   261   0.113E+03-0.499E+01
 gam= 1.022 trial= 0.710  step= 0.387 mean= 0.710
 gam= 0.686 g(H,U,f)=  0.373E+02 0.242E+02 0.161E+02 ort(H,U,f) = 0.180E+02 0.940E+01 0.255E+00
CGA:   4     0.236918466959E+02   -0.74816E+01   -0.20913E+02   261   0.776E+02 0.277E+02
 gam= 0.686 trial= 0.694  step= 0.390 mean= 0.694
 gam= 0.411 g(H,U,f)=  0.219E+02 0.100E+02 0.627E-11 ort(H,U,f) = 0.159E+02 0.754E+01 0.568E-11
CGA:   5     0.145651525844E+02   -0.91267E+01   -0.18825E+02   261   0.319E+02 0.235E+02
 gam= 0.411 trial= 0.679  step= 0.471 mean= 0.679
 gam= 0.568 g(H,U,f)=  0.135E+02 0.328E+01 0.129E+01 ort(H,U,f) = 0.467E+01 0.176E+01 0.205E+01
CGA:   6     0.689127315079E+01   -0.76739E+01   -0.97799E+01   261   0.181E+02 0.849E+01
 gam= 0.568 trial= 0.668  step= 0.504 mean= 0.668
 gam= 0.393 g(H,U,f)=  0.395E+01 0.145E+01 0.171E+01 ort(H,U,f) =-0.268E+01 0.288E+01 0.376E+01
CGA:   7     0.142030347894E+01   -0.54710E+01   -0.57711E+01   261   0.712E+01 0.395E+01
 gam= 0.393 trial= 0.660  step= 0.829 mean= 0.660
 gam= 0.628 g(H,U,f)=  0.356E+01 0.903E+00 0.580E-02 ort(H,U,f) =-0.149E+01 0.232E+01 0.459E-01
CGA:   8    -0.356905500789E+01   -0.49894E+01   -0.35936E+01   261   0.447E+01 0.880E+00
 gam= 0.628 trial= 0.668  step=-0.716 mean= 0.668
 BOPT < 0, no correction made
 gam= 0.949 g(H,U,f)=  0.338E+01 0.859E+00 0.724E-03 ort(H,U,f) = 0.769E+00 0.906E+00 0.616E-02
CGA:   9    -0.849109123243E+01   -0.49220E+01    0.17967E+01   261   0.424E+01 0.168E+01
 gam= 0.949 trial= 0.668  step= 0.196 mean= 0.668
 gam= 0.975 g(H,U,f)=  0.318E+01 0.951E+00 0.158E-05 ort(H,U,f) = 0.337E+01-0.179E+01-0.133E-04
CGA:  10    -0.910102463696E+01   -0.60993E+00   -0.57237E+00   261   0.413E+01 0.157E+01
 gam= 0.975 trial= 0.645  step= 0.098 mean= 0.645
 gam= 0.000 g(H,U,f)=  0.458E+01 0.137E+01 0.458E-01 ort(H,U,f) = 0.715E+01-0.366E+01-0.345E+00
CGA:  11    -0.843303868754E+01    0.66799E+00   -0.27878E+00   261   0.600E+01 0.314E+01
 gam= 0.000 trial= 0.618  step= 0.854 mean= 0.618
 gam= 0.515 g(H,U,f)=  0.260E+01 0.483E+00 0.624E-08 ort(H,U,f) =-0.111E+01 0.625E+00 0.735E-08
CGA:  12    -0.107961025632E+02   -0.23631E+01   -0.25614E+01   261   0.309E+01-0.483E+00
 gam= 0.515 trial= 0.629  step= 0.561 mean= 0.629
 gam= 0.424 g(H,U,f)=  0.107E+01 0.239E+00 0.823E-22 ort(H,U,f) =-0.420E+00 0.502E+00 0.273E-21
CGA:  13    -0.115808701622E+02   -0.78477E+00   -0.79615E+00   261   0.131E+01 0.827E-01
 gam= 0.424 trial= 0.626  step= 0.886 mean= 0.626
 gam= 0.451 g(H,U,f)=  0.497E+00 0.926E-01 0.283E-19 ort(H,U,f) =-0.494E+00 0.196E+00-0.407E-18
CGA:  14    -0.121376069929E+02   -0.55674E+00   -0.59487E+00   261   0.589E+00-0.298E+00
 gam= 0.451 trial= 0.639  step= 0.934 mean= 0.639
 gam= 0.675 g(H,U,f)=  0.364E+00 0.339E-01 0.326E-18 ort(H,U,f) =-0.930E-01-0.522E-01-0.409E-18
CGA:  15    -0.123240900109E+02   -0.18648E+00   -0.21249E+00   261   0.398E+00-0.145E+00
 gam= 0.675 trial= 0.654  step= 0.540 mean= 0.654
 gam= 0.594 g(H,U,f)=  0.175E+00 0.613E-01 0.123E-13 ort(H,U,f) = 0.921E-01-0.993E-01 0.127E-13
CGA:  16    -0.124072679384E+02   -0.83178E-01   -0.80932E-01   261   0.236E+00-0.725E-02
 gam= 0.594 trial= 0.648  step= 0.478 mean= 0.648
 gam= 0.568 g(H,U,f)=  0.640E-01 0.703E-01 0.211E-18 ort(H,U,f) = 0.354E-01-0.287E-01 0.231E-18
CGA:  17    -0.124638105750E+02   -0.56543E-01   -0.55471E-01   261   0.134E+00 0.667E-02
 gam= 0.568 trial= 0.639  step= 0.467 mean= 0.639
 gam= 0.757 g(H,U,f)=  0.471E-01 0.545E-01 0.334E-13 ort(H,U,f) =-0.177E-01 0.239E-01 0.764E-13
CGA:  18    -0.124964160394E+02   -0.32605E-01   -0.32272E-01   261   0.102E+00 0.624E-02
 gam= 0.757 trial= 0.631  step= 0.455 mean= 0.631
 gam= 0.870 g(H,U,f)=  0.501E-01 0.383E-01 0.216E-17 ort(H,U,f) =-0.246E-01 0.308E-01 0.129E-16
CGA:  19    -0.125204590204E+02   -0.24043E-01   -0.24210E-01   261   0.884E-01 0.617E-02
 gam= 0.870 trial= 0.622  step= 0.441 mean= 0.622
 gam= 0.776 g(H,U,f)=  0.434E-01 0.252E-01 0.334E-18 ort(H,U,f) =-0.163E-01 0.216E-01-0.695E-17
CGA:  20    -0.125407181769E+02   -0.20259E-01   -0.20663E-01   261   0.686E-01 0.530E-02
 gam= 0.776 trial= 0.613  step= 0.390 mean= 0.613
 gam= 0.637 g(H,U,f)=  0.303E-01 0.134E-01 0.125E-18 ort(H,U,f) =-0.415E-02 0.699E-02-0.518E-18
CGA:  21    -0.125543994910E+02   -0.13681E-01   -0.14178E-01   261   0.437E-01 0.284E-02
 gam= 0.637 trial= 0.602  step= 0.394 mean= 0.602
 gam= 0.622 g(H,U,f)=  0.191E-01 0.811E-02 0.221E-16 ort(H,U,f) = 0.245E-02-0.884E-03-0.274E-16
CGA:  22    -0.125628676431E+02   -0.84682E-02   -0.89746E-02   261   0.272E-01 0.157E-02
 gam= 0.622 trial= 0.591  step= 0.458 mean= 0.591
 gam= 0.656 g(H,U,f)=  0.118E-01 0.601E-02 0.890E-18 ort(H,U,f) = 0.133E-02-0.154E-03 0.210E-18
CGA:  23    -0.125691503454E+02   -0.62827E-02   -0.64593E-02   261   0.179E-01 0.118E-02
 gam= 0.656 trial= 0.585  step= 0.532 mean= 0.585
 gam= 0.673 g(H,U,f)=  0.780E-02 0.421E-02 0.156E-16 ort(H,U,f) =-0.143E-02 0.199E-02 0.210E-16
CGA:  24    -0.125740784087E+02   -0.49281E-02   -0.49556E-02   261   0.120E-01 0.556E-03
 gam= 0.673 trial= 0.582  step= 0.562 mean= 0.582
 gam= 0.645 g(H,U,f)=  0.530E-02 0.244E-02 0.449E-14 ort(H,U,f) =-0.244E-02 0.255E-02 0.123E-13
CGA:  25    -0.125775581744E+02   -0.34798E-02   -0.34828E-02   261   0.774E-02 0.111E-03
 gam= 0.645 trial= 0.581  step= 0.574 mean= 0.581
 gam= 0.633 g(H,U,f)=  0.374E-02 0.116E-02 0.112E-17 ort(H,U,f) =-0.175E-02 0.167E-02 0.681E-17
CGA:  26    -0.125798003921E+02   -0.22422E-02   -0.22422E-02   261   0.490E-02-0.747E-04
 gam= 0.633 trial= 0.581  step= 0.581 mean= 0.581
 gam= 0.650 g(H,U,f)=  0.266E-02 0.524E-03 0.535E-16 ort(H,U,f) =-0.602E-03 0.492E-03-0.826E-15
CGA:  27    -0.125812108965E+02   -0.14105E-02   -0.14105E-02   261   0.319E-02-0.110E-03
 gam= 0.650 trial= 0.581  step= 0.575 mean= 0.581
 gam= 0.637 g(H,U,f)=  0.166E-02 0.370E-03 0.145E-16 ort(H,U,f) = 0.864E-04-0.158E-03-0.421E-16
CGA:  28    -0.125821059118E+02   -0.89502E-03   -0.89478E-03   261   0.203E-02-0.718E-04
 gam= 0.637 trial= 0.581  step= 0.546 mean= 0.581
 gam= 0.588 g(H,U,f)=  0.839E-03 0.355E-03 0.302E-15 ort(H,U,f) = 0.129E-03-0.157E-03 0.184E-15
CGA:  29    -0.125826487158E+02   -0.54280E-03   -0.54218E-03   261   0.119E-02-0.272E-04
 gam= 0.588 trial= 0.579  step= 0.530 mean= 0.579
 gam= 0.605 g(H,U,f)=  0.435E-03 0.287E-03 0.412E-14 ort(H,U,f) =-0.762E-04 0.819E-04 0.638E-14
CGA:  30    -0.125829606910E+02   -0.31198E-03   -0.31194E-03   261   0.723E-03 0.568E-05
 gam= 0.605 trial= 0.576  step= 0.538 mean= 0.576
 gam= 0.679 g(H,U,f)=  0.313E-03 0.178E-03 0.184E-15 ort(H,U,f) =-0.162E-03 0.184E-03 0.459E-15
CGA:  31    -0.125831557601E+02   -0.19507E-03   -0.19541E-03   261   0.490E-03 0.215E-04
 gam= 0.679 trial= 0.574  step= 0.537 mean= 0.574
 gam= 0.712 g(H,U,f)=  0.265E-03 0.841E-04 0.406E-16 ort(H,U,f) =-0.111E-03 0.138E-03 0.153E-15
CGA:  32    -0.125832909141E+02   -0.13515E-03   -0.13563E-03   261   0.349E-03 0.270E-04
 gam= 0.712 trial= 0.573  step= 0.521 mean= 0.573
 gam= 0.661 g(H,U,f)=  0.193E-03 0.376E-04 0.683E-20 ort(H,U,f) =-0.175E-04 0.423E-04 0.762E-19
CGA:  33    -0.125833862904E+02   -0.95376E-04   -0.96001E-04   261   0.231E-03 0.249E-04
 gam= 0.661 trial= 0.570  step= 0.490 mean= 0.570
 gam= 0.558 g(H,U,f)=  0.102E-03 0.269E-04 0.145E-15 ort(H,U,f) = 0.265E-04-0.102E-04-0.191E-15
CGA:  34    -0.125834462161E+02   -0.59926E-04   -0.60576E-04   261   0.129E-03 0.163E-04
 gam= 0.558 trial= 0.566  step= 0.484 mean= 0.566
 gam= 0.524 g(H,U,f)=  0.437E-04 0.239E-04 0.873E-17 ort(H,U,f) = 0.119E-04-0.504E-05 0.427E-18
CGA:  35    -0.125834793614E+02   -0.33145E-04   -0.33426E-04   261   0.676E-04 0.685E-05
 gam= 0.524 trial= 0.562  step= 0.542 mean= 0.562
 gam= 0.600 g(H,U,f)=  0.232E-04 0.173E-04 0.650E-16 ort(H,U,f) =-0.862E-05 0.914E-05-0.202E-16
CGA:  36    -0.125834986318E+02   -0.19270E-04   -0.19276E-04   261   0.405E-04 0.523E-06
 gam= 0.600 trial= 0.561  step= 0.660 mean= 0.561
 gam= 0.740 g(H,U,f)=  0.213E-04 0.874E-05 0.601E-16 ort(H,U,f) =-0.143E-04 0.102E-04 0.544E-16
CGA:  37    -0.125835119118E+02   -0.13280E-04   -0.13479E-04   261   0.300E-04-0.406E-05
 gam= 0.740 trial= 0.566  step= 0.742 mean= 0.566
 gam= 0.817 g(H,U,f)=  0.210E-04 0.348E-05 0.626E-18 ort(H,U,f) =-0.929E-05 0.175E-05 0.383E-19
CGA:  38    -0.125835212627E+02   -0.93509E-05   -0.10009E-04   261   0.245E-04-0.753E-05
 gam= 0.817 trial= 0.575  step= 0.643 mean= 0.575
 final diagonalization
   1 F= -.12583521E+02 E0= -.12583521E+02  d E =-.930049E-12
 writing wavefunctions
