 vasp.5.4.4.18Apr17-6-g9f103f2a35 (build Jul 17 2026 20:05:20) complex           
 executed on             LinuxGNU date 2026.08.15  09:12:30
 running on    6 total cores
 distrk:  each k-point on    3 cores,    2 groups
 distr:  one band on NCORES_PER_BAND=   1 cores,    3 groups


--------------------------------------------------------------------------------------------------------


 INCAR:
 POTCAR:    PAW_PBE Si 05Jan2001                  

 ----------------------------------------------------------------------------- 
|                                                                             |
|           W    W    AA    RRRRR   N    N  II  N    N   GGGG   !!!           |
|           W    W   A  A   R    R  NN   N  II  NN   N  G    G  !!!           |
|           W    W  A    A  R    R  N N  N  II  N N  N  G       !!!           |
|           W WW W  AAAAAA  RRRRR   N  N N  II  N  N N  G  GGG   !            |
|           WW  WW  A    A  R   R   N   NN  II  N   NN  G    G                |
|           W    W  A    A  R    R  N    N  II  N    N   GGGG   !!!           |
|                                                                             |
|      For optimal performance we recommend to set                            |
|        NCORE= 4 - approx SQRT( number of cores)                             |
|      NCORE specifies how many cores store one orbital (NPAR=cpu/NCORE).     |
|      This setting can  greatly improve the performance of VASP for DFT.     |
|      The default,   NCORE=1            might be grossly inefficient         |
|      on modern multi-core architectures or massively parallel machines.     |
|      Do your own testing !!!!                                               |
|      Unfortunately you need to use the default for GW and RPA calculations. |
|      (for HF NCORE is supported but not extensively tested yet)             |
|                                                                             |
 ----------------------------------------------------------------------------- 


 ----------------------------------------------------------------------------- 
|                                                                             |
|           W    W    AA    RRRRR   N    N  II  N    N   GGGG   !!!           |
|           W    W   A  A   R    R  NN   N  II  NN   N  G    G  !!!           |
|           W    W  A    A  R    R  N N  N  II  N N  N  G       !!!           |
|           W WW W  AAAAAA  RRRRR   N  N N  II  N  N N  G  GGG   !            |
|           WW  WW  A    A  R   R   N   NN  II  N   NN  G    G                |
|           W    W  A    A  R    R  N    N  II  N    N   GGGG   !!!           |
|                                                                             |
|      You have enabled k-point parallelism (KPAR>1).                         |
|      This developmental code was originally  written by Paul Kent at ORNL,  |
|      and carefully double checked in Vienna.                                |
|      GW as well as linear response parallelism added by Martijn Marsman     |
|      and Georg Kresse.                                                      |
|      Carefully verify results versus KPAR=1.                                |
|      Report problems to Paul Kent and Vienna.                               |
|                                                                             |
 ----------------------------------------------------------------------------- 

 POTCAR:    PAW_PBE Si 05Jan2001                  
   VRHFIN =Si: s2p2                                                             
   LEXCH  = PE                                                                  
   EATOM  =   103.0669 eV,    7.5752 Ry                                         
                                                                                
   TITEL  = PAW_PBE Si 05Jan2001                                                
   LULTRA =        F    use ultrasoft PP ?                                      
   IUNSCR =        1    unscreen: 0-lin 1-nonlin 2-no                           
   RPACOR =    1.500    partial core radius                                     
   POMASS =   28.085; ZVAL   =    4.000    mass and valenz                      
   RCORE  =    1.900    outmost cutoff radius                                   
   RWIGS  =    2.480; RWIGS  =    1.312    wigner-seitz radius (au A)           
   ENMAX  =  245.345; ENMIN  =  184.009 eV                                      
   ICORE  =        2    local potential                                         
   LCOR   =        T    correct aug charges                                     
   LPAW   =        T    paw PP                                                  
   EAUG   =  322.069                                                            
   DEXC   =    0.000                                                            
   RMAX   =    1.950    core radius for proj-oper                               
   RAUG   =    1.300    factor for augmentation sphere                          
   RDEP   =    1.993    radius for radial grids                                 
   RDEPT  =    1.837    core radius for aug-charge                              
                                                                                
   Atomic configuration                                                         
    6 entries                                                                   
     n  l   j            E        occ.                                          
     1  0  0.50     -1785.8828   2.0000                                         
     2  0  0.50      -139.4969   2.0000                                         
     2  1  1.50       -95.5546   6.0000                                         
     3  0  0.50       -10.8127   2.0000                                         
     3  1  0.50        -4.0811   2.0000                                         
     3  2  1.50        -4.0817   0.0000                                         
   Description                                                                  
     l       E           TYP  RCUT    TYP  RCUT                                 
     0    -10.8127223     23  1.900                                             
     0     -7.6451159     23  1.900                                             
     1     -4.0811372     23  1.900                                             
     1      2.4879257     23  1.900                                             
     2     -4.0817478      7  1.900                                             
  local pseudopotential read in
  partial core-charges read in
  partial kinetic energy density read in
  atomic valenz-charges read in
  non local Contribution for L=           0  read in
    real space projection operators read in
  non local Contribution for L=           0  read in
    real space projection operators read in
  non local Contribution for L=           1  read in
    real space projection operators read in
  non local Contribution for L=           1  read in
    real space projection operators read in
    PAW grid and wavefunctions read in

   number of l-projection  operators is LMAX  =           4
   number of lm-projection operators is LMMAX =           8

  PAW_PBE Si 05Jan2001                  :
 energy of atom  1       EATOM= -103.0669
 kinetic energy error for atom=    0.0012 (will be added to EATOM!!)


 POSCAR: Si diamond cubic                        
  positions in direct lattice
  velocities in cartesian coordinates
 exchange correlation table for  LEXCH =        8
   RHO(1)=    0.500       N(1)  =     2000
   RHO(2)=  100.500       N(2)  =     4000



--------------------------------------------------------------------------------------------------------


 ion  position               nearest neighbor table
   1  0.000  0.000  0.000-   2 2.37   2 2.37   2 2.37   2 2.37
   2  0.250  0.250  0.250-   1 2.37   1 2.37   1 2.37   1 2.37

  LATTYP: Found a face centered cubic cell.
 ALAT       =     5.4692210743
  
  Lattice vectors:
  
 A1 = (   0.0000000000,   2.7346105372,   2.7346105372)
 A2 = (   2.7346105372,  -0.0000000000,   2.7346105372)
 A3 = (   2.7346105372,   2.7346105372,   0.0000000000)


Analysis of symmetry for initial positions (statically):
=====================================================================
 Subroutine PRICEL returns:
 Original cell was already a primitive cell.
 

 Routine SETGRP: Setting up the symmetry group for a 
 face centered cubic supercell.


 Subroutine GETGRP returns: Found 48 space group operations
 (whereof 24 operations were pure point group operations)
 out of a pool of 48 trial point group operations.


The static configuration has the point symmetry T_d .
 The point group associated with its full space group is O_h .


Analysis of symmetry for dynamics (positions and initial velocities):
=====================================================================
 Subroutine PRICEL returns:
 Original cell was already a primitive cell.
 

 Routine SETGRP: Setting up the symmetry group for a 
 face centered cubic supercell.


 Subroutine GETGRP returns: Found 48 space group operations
 (whereof 24 operations were pure point group operations)
 out of a pool of 48 trial point group operations.


The dynamic configuration has the point symmetry T_d .
 The point group associated with its full space group is O_h .


 Subroutine INISYM returns: Found 48 space group operations
 (whereof 24 operations are pure point group operations),
 and found     1 'primitive' translations



 KPOINTS: K-Mesh for HSE SCF (same as Relaxation) 

Automatic generation of k-mesh.
Space group operators:
 irot       det(A)        alpha          n_x          n_y          n_z        tau_x        tau_y        tau_z
    1     1.000000     0.000001     1.000000     0.000000     0.000000     0.000000     0.000000     0.000000
    2     1.000000   120.000000    -0.577350    -0.577350    -0.577350     0.000000     0.000000     0.000000
    3     1.000000   120.000000     0.577350     0.577350     0.577350     0.000000     0.000000     0.000000
    4    -1.000000    90.000000     0.000000     0.000000    -1.000000     0.000000     0.000000     0.000000
    5    -1.000000   180.000000     0.000000     0.707107     0.707107     0.000000     0.000000     0.000000
    6    -1.000000    90.000000     0.000000     1.000000     0.000000     0.000000     0.000000     0.000000
    7     1.000000   180.000000     0.000000     0.000000     1.000000     0.000000     0.000000     0.000000
    8     1.000000   120.000000    -0.577350     0.577350     0.577350     0.000000     0.000000     0.000000
    9     1.000000   120.000000    -0.577350     0.577350    -0.577350     0.000000     0.000000     0.000000
   10    -1.000000    90.000000     0.000000     0.000000     1.000000     0.000000     0.000000     0.000000
   11    -1.000000    90.000000    -1.000000     0.000000     0.000000     0.000000     0.000000     0.000000
   12    -1.000000   180.000000     0.707107     0.000000     0.707107     0.000000     0.000000     0.000000
   13     1.000000   120.000000     0.577350    -0.577350     0.577350     0.000000     0.000000     0.000000
   14     1.000000   120.000000    -0.577350    -0.577350     0.577350     0.000000     0.000000     0.000000
   15     1.000000   180.000000     1.000000     0.000000     0.000000     0.000000     0.000000     0.000000
   16    -1.000000    90.000000     0.000000    -1.000000     0.000000     0.000000     0.000000     0.000000
   17    -1.000000   180.000000     0.707107     0.707107     0.000000     0.000000     0.000000     0.000000
   18    -1.000000    90.000000     1.000000     0.000000     0.000000     0.000000     0.000000     0.000000
   19     1.000000   120.000000     0.577350    -0.577350    -0.577350     0.000000     0.000000     0.000000
   20     1.000000   180.000000     0.000000     1.000000     0.000000     0.000000     0.000000     0.000000
   21     1.000000   120.000000     0.577350     0.577350    -0.577350     0.000000     0.000000     0.000000
   22    -1.000000   180.000000     0.000000    -0.707107     0.707107     0.000000     0.000000     0.000000
   23    -1.000000   180.000000     0.707107    -0.707107     0.000000     0.000000     0.000000     0.000000
   24    -1.000000   180.000000     0.707107     0.000000    -0.707107     0.000000     0.000000     0.000000
   25    -1.000000     0.000001     1.000000     0.000000     0.000000     0.250000     0.250000     0.250000
   26    -1.000000   120.000000    -0.577350    -0.577350    -0.577350     0.250000     0.250000     0.250000
   27    -1.000000   120.000000     0.577350     0.577350     0.577350     0.250000     0.250000     0.250000
   28     1.000000    90.000000     0.000000     0.000000    -1.000000     0.250000     0.250000     0.250000
   29     1.000000   180.000000     0.000000     0.707107     0.707107     0.250000     0.250000     0.250000
   30     1.000000    90.000000     0.000000     1.000000     0.000000     0.250000     0.250000     0.250000
   31    -1.000000   180.000000     0.000000     0.000000     1.000000     0.250000     0.250000     0.250000
   32    -1.000000   120.000000    -0.577350     0.577350     0.577350     0.250000     0.250000     0.250000
   33    -1.000000   120.000000    -0.577350     0.577350    -0.577350     0.250000     0.250000     0.250000
   34     1.000000    90.000000     0.000000     0.000000     1.000000     0.250000     0.250000     0.250000
   35     1.000000    90.000000    -1.000000     0.000000     0.000000     0.250000     0.250000     0.250000
   36     1.000000   180.000000     0.707107     0.000000     0.707107     0.250000     0.250000     0.250000
   37    -1.000000   120.000000     0.577350    -0.577350     0.577350     0.250000     0.250000     0.250000
   38    -1.000000   120.000000    -0.577350    -0.577350     0.577350     0.250000     0.250000     0.250000
   39    -1.000000   180.000000     1.000000     0.000000     0.000000     0.250000     0.250000     0.250000
   40     1.000000    90.000000     0.000000    -1.000000     0.000000     0.250000     0.250000     0.250000
   41     1.000000   180.000000     0.707107     0.707107     0.000000     0.250000     0.250000     0.250000
   42     1.000000    90.000000     1.000000     0.000000     0.000000     0.250000     0.250000     0.250000
   43    -1.000000   120.000000     0.577350    -0.577350    -0.577350     0.250000     0.250000     0.250000
   44    -1.000000   180.000000     0.000000     1.000000     0.000000     0.250000     0.250000     0.250000
   45    -1.000000   120.000000     0.577350     0.577350    -0.577350     0.250000     0.250000     0.250000
   46     1.000000   180.000000     0.000000    -0.707107     0.707107     0.250000     0.250000     0.250000
   47     1.000000   180.000000     0.707107    -0.707107     0.000000     0.250000     0.250000     0.250000
   48     1.000000   180.000000     0.707107     0.000000    -0.707107     0.250000     0.250000     0.250000
 
 Subroutine IBZKPT returns following result:
 ===========================================
 
 Found     29 irreducible k-points:
 
 Following reciprocal coordinates:
            Coordinates               Weight
  0.000000  0.000000  0.000000      1.000000
  0.125000  0.000000  0.000000      8.000000
  0.250000  0.000000  0.000000      8.000000
  0.375000  0.000000  0.000000      8.000000
  0.500000  0.000000  0.000000      4.000000
  0.125000  0.125000  0.000000      6.000000
  0.250000  0.125000  0.000000     24.000000
  0.375000  0.125000  0.000000     24.000000
  0.500000  0.125000  0.000000     24.000000
 -0.375000  0.125000  0.000000     24.000000
 -0.250000  0.125000  0.000000     24.000000
 -0.125000  0.125000  0.000000     12.000000
  0.250000  0.250000  0.000000      6.000000
  0.375000  0.250000  0.000000     24.000000
  0.500000  0.250000  0.000000     24.000000
 -0.375000  0.250000  0.000000     24.000000
 -0.250000  0.250000  0.000000     12.000000
  0.375000  0.375000  0.000000      6.000000
  0.500000  0.375000  0.000000     24.000000
 -0.375000  0.375000  0.000000     12.000000
  0.500000  0.500000  0.000000      3.000000
  0.375000  0.250000  0.125000     24.000000
  0.500000  0.250000  0.125000     48.000000
 -0.375000  0.250000  0.125000     24.000000
  0.500000  0.375000  0.125000     24.000000
 -0.375000  0.375000  0.125000     48.000000
 -0.250000  0.375000  0.125000     24.000000
 -0.375000  0.500000  0.125000     12.000000
 -0.250000  0.500000  0.250000      6.000000
 
 Following cartesian coordinates:
            Coordinates               Weight
  0.000000  0.000000  0.000000      1.000000
 -0.124126  0.124126  0.124126      8.000000
 -0.248253  0.248253  0.248253      8.000000
 -0.372379  0.372379  0.372379      8.000000
 -0.496506  0.496506  0.496506      4.000000
  0.000000  0.000000  0.248253      6.000000
 -0.124126  0.124126  0.372379     24.000000
 -0.248253  0.248253  0.496506     24.000000
 -0.372379  0.372379  0.620632     24.000000
  0.496506 -0.496506 -0.248253     24.000000
  0.372379 -0.372379 -0.124126     24.000000
  0.248253 -0.248253  0.000000     12.000000
  0.000000  0.000000  0.496506      6.000000
 -0.124126  0.124126  0.620632     24.000000
 -0.248253  0.248253  0.744759     24.000000
  0.620632 -0.620632 -0.124126     24.000000
  0.496506 -0.496506  0.000000     12.000000
  0.000000  0.000000  0.744759      6.000000
 -0.124126  0.124126  0.868885     24.000000
  0.744759 -0.744759  0.000000     12.000000
  0.000000  0.000000  0.993012      3.000000
  0.000000  0.248253  0.496506     24.000000
 -0.124126  0.372379  0.620632     48.000000
  0.744759 -0.496506 -0.248253     24.000000
  0.000000  0.248253  0.744759     24.000000
  0.868885 -0.620632 -0.124126     48.000000
  0.744759 -0.496506  0.000000     24.000000
  0.993012 -0.744759  0.000000     12.000000
  0.993012 -0.496506  0.000000      6.000000
 
 
 Subroutine IBZKPT_HF returns following result:
 ==============================================
 
 Found    512 k-points in 1st BZ
 the following    512 k-points will be used (e.g. in the exchange kernel)
 Following reciprocal coordinates:   # in IRBZ
  0.000000  0.000000  0.000000    0.00195312   1 t-inv F
  0.125000  0.000000  0.000000    0.00195312   2 t-inv F
  0.250000  0.000000  0.000000    0.00195312   3 t-inv F
  0.375000  0.000000  0.000000    0.00195312   4 t-inv F
  0.500000  0.000000  0.000000    0.00195312   5 t-inv F
  0.125000  0.125000  0.000000    0.00195312   6 t-inv F
  0.250000  0.125000  0.000000    0.00195312   7 t-inv F
  0.375000  0.125000  0.000000    0.00195312   8 t-inv F
  0.500000  0.125000  0.000000    0.00195312   9 t-inv F
 -0.375000  0.125000  0.000000    0.00195312  10 t-inv F
 -0.250000  0.125000  0.000000    0.00195312  11 t-inv F
 -0.125000  0.125000  0.000000    0.00195312  12 t-inv F
  0.250000  0.250000  0.000000    0.00195312  13 t-inv F
  0.375000  0.250000  0.000000    0.00195312  14 t-inv F
  0.500000  0.250000  0.000000    0.00195312  15 t-inv F
 -0.375000  0.250000  0.000000    0.00195312  16 t-inv F
 -0.250000  0.250000  0.000000    0.00195312  17 t-inv F
  0.375000  0.375000  0.000000    0.00195312  18 t-inv F
  0.500000  0.375000  0.000000    0.00195312  19 t-inv F
 -0.375000  0.375000  0.000000    0.00195312  20 t-inv F
  0.500000  0.500000  0.000000    0.00195312  21 t-inv F
  0.375000  0.250000  0.125000    0.00195312  22 t-inv F
  0.500000  0.250000  0.125000    0.00195312  23 t-inv F
 -0.375000  0.250000  0.125000    0.00195312  24 t-inv F
  0.500000  0.375000  0.125000    0.00195312  25 t-inv F
 -0.375000  0.375000  0.125000    0.00195312  26 t-inv F
 -0.250000  0.375000  0.125000    0.00195312  27 t-inv F
 -0.375000  0.500000  0.125000    0.00195312  28 t-inv F
 -0.250000  0.500000  0.250000    0.00195312  29 t-inv F
  0.000000  0.125000  0.000000    0.00195312   2 t-inv F
  0.000000  0.000000  0.125000    0.00195312   2 t-inv F
 -0.125000 -0.125000 -0.125000    0.00195312   2 t-inv F
 -0.125000 -0.000000 -0.000000    0.00195312   2 t-inv F
 -0.000000 -0.125000 -0.000000    0.00195312   2 t-inv F
 -0.000000 -0.000000 -0.125000    0.00195312   2 t-inv F
  0.125000  0.125000  0.125000    0.00195312   2 t-inv F
  0.000000  0.250000  0.000000    0.00195312   3 t-inv F
  0.000000  0.000000  0.250000    0.00195312   3 t-inv F
 -0.250000 -0.250000 -0.250000    0.00195312   3 t-inv F
 -0.250000 -0.000000 -0.000000    0.00195312   3 t-inv F
 -0.000000 -0.250000 -0.000000    0.00195312   3 t-inv F
 -0.000000 -0.000000 -0.250000    0.00195312   3 t-inv F
  0.250000  0.250000  0.250000    0.00195312   3 t-inv F
  0.000000  0.375000  0.000000    0.00195312   4 t-inv F
  0.000000  0.000000  0.375000    0.00195312   4 t-inv F
 -0.375000 -0.375000 -0.375000    0.00195312   4 t-inv F
 -0.375000 -0.000000 -0.000000    0.00195312   4 t-inv F
 -0.000000 -0.375000 -0.000000    0.00195312   4 t-inv F
 -0.000000 -0.000000 -0.375000    0.00195312   4 t-inv F
  0.375000  0.375000  0.375000    0.00195312   4 t-inv F
  0.000000  0.500000  0.000000    0.00195312   5 t-inv F
  0.000000  0.000000  0.500000    0.00195312   5 t-inv F
 -0.500000 -0.500000 -0.500000    0.00195312   5 t-inv F
  0.000000  0.125000  0.125000    0.00195312   6 t-inv F
  0.125000  0.000000  0.125000    0.00195312   6 t-inv F
 -0.125000 -0.125000  0.000000    0.00195312   6 t-inv F
 -0.125000  0.000000 -0.125000    0.00195312   6 t-inv F
  0.000000 -0.125000 -0.125000    0.00195312   6 t-inv F
  0.000000  0.250000  0.125000    0.00195312   7 t-inv F
  0.125000  0.000000  0.250000    0.00195312   7 t-inv F
 -0.125000 -0.125000  0.125000    0.00195312   7 t-inv F
 -0.250000 -0.125000 -0.250000    0.00195312   7 t-inv F
  0.125000  0.250000 -0.000000    0.00195312   7 t-inv F
  0.125000 -0.125000 -0.125000    0.00195312   7 t-inv F
 -0.250000 -0.250000 -0.125000    0.00195312   7 t-inv F
 -0.000000  0.125000  0.250000    0.00195312   7 t-inv F
 -0.125000  0.125000 -0.125000    0.00195312   7 t-inv F
 -0.125000 -0.250000 -0.250000    0.00195312   7 t-inv F
  0.250000 -0.000000  0.125000    0.00195312   7 t-inv F
 -0.250000 -0.125000 -0.000000    0.00195312   7 t-inv F
 -0.000000 -0.250000 -0.125000    0.00195312   7 t-inv F
 -0.125000 -0.000000 -0.250000    0.00195312   7 t-inv F
  0.125000  0.125000 -0.125000    0.00195312   7 t-inv F
  0.250000  0.125000  0.250000    0.00195312   7 t-inv F
 -0.125000 -0.250000  0.000000    0.00195312   7 t-inv F
 -0.125000  0.125000  0.125000    0.00195312   7 t-inv F
  0.250000  0.250000  0.125000    0.00195312   7 t-inv F
  0.000000 -0.125000 -0.250000    0.00195312   7 t-inv F
  0.125000 -0.125000  0.125000    0.00195312   7 t-inv F
  0.125000  0.250000  0.250000    0.00195312   7 t-inv F
 -0.250000  0.000000 -0.125000    0.00195312   7 t-inv F
  0.000000  0.375000  0.125000    0.00195312   8 t-inv F
  0.125000  0.000000  0.375000    0.00195312   8 t-inv F
 -0.125000 -0.125000  0.250000    0.00195312   8 t-inv F
 -0.375000 -0.250000 -0.375000    0.00195312   8 t-inv F
  0.125000  0.375000 -0.000000    0.00195312   8 t-inv F
  0.250000 -0.125000 -0.125000    0.00195312   8 t-inv F
 -0.375000 -0.375000 -0.250000    0.00195312   8 t-inv F
 -0.000000  0.125000  0.375000    0.00195312   8 t-inv F
 -0.125000  0.250000 -0.125000    0.00195312   8 t-inv F
 -0.250000 -0.375000 -0.375000    0.00195312   8 t-inv F
  0.375000 -0.000000  0.125000    0.00195312   8 t-inv F
 -0.375000 -0.125000 -0.000000    0.00195312   8 t-inv F
 -0.000000 -0.375000 -0.125000    0.00195312   8 t-inv F
 -0.125000 -0.000000 -0.375000    0.00195312   8 t-inv F
  0.125000  0.125000 -0.250000    0.00195312   8 t-inv F
  0.375000  0.250000  0.375000    0.00195312   8 t-inv F
 -0.125000 -0.375000  0.000000    0.00195312   8 t-inv F
 -0.250000  0.125000  0.125000    0.00195312   8 t-inv F
  0.375000  0.375000  0.250000    0.00195312   8 t-inv F
  0.000000 -0.125000 -0.375000    0.00195312   8 t-inv F
  0.125000 -0.250000  0.125000    0.00195312   8 t-inv F
  0.250000  0.375000  0.375000    0.00195312   8 t-inv F
 -0.375000  0.000000 -0.125000    0.00195312   8 t-inv F
  0.000000  0.500000  0.125000    0.00195312   9 t-inv F
  0.125000  0.000000  0.500000    0.00195312   9 t-inv F
 -0.125000 -0.125000  0.375000    0.00195312   9 t-inv F
 -0.500000 -0.375000 -0.500000    0.00195312   9 t-inv F
  0.125000  0.500000 -0.000000    0.00195312   9 t-inv F
  0.375000 -0.125000 -0.125000    0.00195312   9 t-inv F
 -0.500000 -0.500000 -0.375000    0.00195312   9 t-inv F
 -0.000000  0.125000  0.500000    0.00195312   9 t-inv F
 -0.125000  0.375000 -0.125000    0.00195312   9 t-inv F
 -0.375000 -0.500000 -0.500000    0.00195312   9 t-inv F
  0.500000 -0.000000  0.125000    0.00195312   9 t-inv F
 -0.500000 -0.125000 -0.000000    0.00195312   9 t-inv F
 -0.000000 -0.500000 -0.125000    0.00195312   9 t-inv F
 -0.125000 -0.000000 -0.500000    0.00195312   9 t-inv F
  0.125000  0.125000 -0.375000    0.00195312   9 t-inv F
  0.500000  0.375000  0.500000    0.00195312   9 t-inv F
 -0.125000 -0.500000  0.000000    0.00195312   9 t-inv F
 -0.375000  0.125000  0.125000    0.00195312   9 t-inv F
  0.500000  0.500000  0.375000    0.00195312   9 t-inv F
  0.000000 -0.125000 -0.500000    0.00195312   9 t-inv F
  0.125000 -0.375000  0.125000    0.00195312   9 t-inv F
  0.375000  0.500000  0.500000    0.00195312   9 t-inv F
 -0.500000  0.000000 -0.125000    0.00195312   9 t-inv F
  0.000000 -0.375000  0.125000    0.00195312  10 t-inv F
  0.125000  0.000000 -0.375000    0.00195312  10 t-inv F
 -0.125000 -0.125000 -0.500000    0.00195312  10 t-inv F
  0.375000  0.500000  0.375000    0.00195312  10 t-inv F
  0.125000 -0.375000 -0.000000    0.00195312  10 t-inv F
 -0.500000 -0.125000 -0.125000    0.00195312  10 t-inv F
  0.375000  0.375000  0.500000    0.00195312  10 t-inv F
 -0.000000  0.125000 -0.375000    0.00195312  10 t-inv F
 -0.125000 -0.500000 -0.125000    0.00195312  10 t-inv F
  0.500000  0.375000  0.375000    0.00195312  10 t-inv F
 -0.375000 -0.000000  0.125000    0.00195312  10 t-inv F
  0.375000 -0.125000 -0.000000    0.00195312  10 t-inv F
 -0.000000  0.375000 -0.125000    0.00195312  10 t-inv F
 -0.125000 -0.000000  0.375000    0.00195312  10 t-inv F
  0.125000  0.125000  0.500000    0.00195312  10 t-inv F
 -0.375000 -0.500000 -0.375000    0.00195312  10 t-inv F
 -0.125000  0.375000  0.000000    0.00195312  10 t-inv F
  0.500000  0.125000  0.125000    0.00195312  10 t-inv F
 -0.375000 -0.375000 -0.500000    0.00195312  10 t-inv F
  0.000000 -0.125000  0.375000    0.00195312  10 t-inv F
  0.125000  0.500000  0.125000    0.00195312  10 t-inv F
 -0.500000 -0.375000 -0.375000    0.00195312  10 t-inv F
  0.375000  0.000000 -0.125000    0.00195312  10 t-inv F
  0.000000 -0.250000  0.125000    0.00195312  11 t-inv F
  0.125000  0.000000 -0.250000    0.00195312  11 t-inv F
 -0.125000 -0.125000 -0.375000    0.00195312  11 t-inv F
  0.250000  0.375000  0.250000    0.00195312  11 t-inv F
  0.125000 -0.250000 -0.000000    0.00195312  11 t-inv F
 -0.375000 -0.125000 -0.125000    0.00195312  11 t-inv F
  0.250000  0.250000  0.375000    0.00195312  11 t-inv F
 -0.000000  0.125000 -0.250000    0.00195312  11 t-inv F
 -0.125000 -0.375000 -0.125000    0.00195312  11 t-inv F
  0.375000  0.250000  0.250000    0.00195312  11 t-inv F
 -0.250000 -0.000000  0.125000    0.00195312  11 t-inv F
  0.250000 -0.125000 -0.000000    0.00195312  11 t-inv F
 -0.000000  0.250000 -0.125000    0.00195312  11 t-inv F
 -0.125000 -0.000000  0.250000    0.00195312  11 t-inv F
  0.125000  0.125000  0.375000    0.00195312  11 t-inv F
 -0.250000 -0.375000 -0.250000    0.00195312  11 t-inv F
 -0.125000  0.250000  0.000000    0.00195312  11 t-inv F
  0.375000  0.125000  0.125000    0.00195312  11 t-inv F
 -0.250000 -0.250000 -0.375000    0.00195312  11 t-inv F
  0.000000 -0.125000  0.250000    0.00195312  11 t-inv F
  0.125000  0.375000  0.125000    0.00195312  11 t-inv F
 -0.375000 -0.250000 -0.250000    0.00195312  11 t-inv F
  0.250000  0.000000 -0.125000    0.00195312  11 t-inv F
  0.000000 -0.125000  0.125000    0.00195312  12 t-inv F
  0.125000  0.000000 -0.125000    0.00195312  12 t-inv F
 -0.125000 -0.125000 -0.250000    0.00195312  12 t-inv F
  0.125000  0.250000  0.125000    0.00195312  12 t-inv F
  0.125000 -0.125000 -0.000000    0.00195312  12 t-inv F
 -0.250000 -0.125000 -0.125000    0.00195312  12 t-inv F
  0.125000  0.125000  0.250000    0.00195312  12 t-inv F
 -0.000000  0.125000 -0.125000    0.00195312  12 t-inv F
 -0.125000 -0.250000 -0.125000    0.00195312  12 t-inv F
  0.250000  0.125000  0.125000    0.00195312  12 t-inv F
 -0.125000 -0.000000  0.125000    0.00195312  12 t-inv F
  0.000000  0.250000  0.250000    0.00195312  13 t-inv F
  0.250000  0.000000  0.250000    0.00195312  13 t-inv F
 -0.250000 -0.250000  0.000000    0.00195312  13 t-inv F
 -0.250000  0.000000 -0.250000    0.00195312  13 t-inv F
  0.000000 -0.250000 -0.250000    0.00195312  13 t-inv F
  0.000000  0.375000  0.250000    0.00195312  14 t-inv F
  0.250000  0.000000  0.375000    0.00195312  14 t-inv F
 -0.250000 -0.250000  0.125000    0.00195312  14 t-inv F
 -0.375000 -0.125000 -0.375000    0.00195312  14 t-inv F
  0.250000  0.375000 -0.000000    0.00195312  14 t-inv F
  0.125000 -0.250000 -0.250000    0.00195312  14 t-inv F
 -0.375000 -0.375000 -0.125000    0.00195312  14 t-inv F
 -0.000000  0.250000  0.375000    0.00195312  14 t-inv F
 -0.250000  0.125000 -0.250000    0.00195312  14 t-inv F
 -0.125000 -0.375000 -0.375000    0.00195312  14 t-inv F
  0.375000 -0.000000  0.250000    0.00195312  14 t-inv F
 -0.375000 -0.250000 -0.000000    0.00195312  14 t-inv F
 -0.000000 -0.375000 -0.250000    0.00195312  14 t-inv F
 -0.250000 -0.000000 -0.375000    0.00195312  14 t-inv F
  0.250000  0.250000 -0.125000    0.00195312  14 t-inv F
  0.375000  0.125000  0.375000    0.00195312  14 t-inv F
 -0.250000 -0.375000  0.000000    0.00195312  14 t-inv F
 -0.125000  0.250000  0.250000    0.00195312  14 t-inv F
  0.375000  0.375000  0.125000    0.00195312  14 t-inv F
  0.000000 -0.250000 -0.375000    0.00195312  14 t-inv F
  0.250000 -0.125000  0.250000    0.00195312  14 t-inv F
  0.125000  0.375000  0.375000    0.00195312  14 t-inv F
 -0.375000  0.000000 -0.250000    0.00195312  14 t-inv F
  0.000000  0.500000  0.250000    0.00195312  15 t-inv F
  0.250000  0.000000  0.500000    0.00195312  15 t-inv F
 -0.250000 -0.250000  0.250000    0.00195312  15 t-inv F
 -0.500000 -0.250000 -0.500000    0.00195312  15 t-inv F
  0.250000  0.500000 -0.000000    0.00195312  15 t-inv F
  0.250000 -0.250000 -0.250000    0.00195312  15 t-inv F
 -0.500000 -0.500000 -0.250000    0.00195312  15 t-inv F
 -0.000000  0.250000  0.500000    0.00195312  15 t-inv F
 -0.250000  0.250000 -0.250000    0.00195312  15 t-inv F
 -0.250000 -0.500000 -0.500000    0.00195312  15 t-inv F
  0.500000 -0.000000  0.250000    0.00195312  15 t-inv F
 -0.500000 -0.250000 -0.000000    0.00195312  15 t-inv F
 -0.000000 -0.500000 -0.250000    0.00195312  15 t-inv F
 -0.250000 -0.000000 -0.500000    0.00195312  15 t-inv F
  0.250000  0.250000 -0.250000    0.00195312  15 t-inv F
  0.500000  0.250000  0.500000    0.00195312  15 t-inv F
 -0.250000 -0.500000  0.000000    0.00195312  15 t-inv F
 -0.250000  0.250000  0.250000    0.00195312  15 t-inv F
  0.500000  0.500000  0.250000    0.00195312  15 t-inv F
  0.000000 -0.250000 -0.500000    0.00195312  15 t-inv F
  0.250000 -0.250000  0.250000    0.00195312  15 t-inv F
  0.250000  0.500000  0.500000    0.00195312  15 t-inv F
 -0.500000  0.000000 -0.250000    0.00195312  15 t-inv F
  0.000000 -0.375000  0.250000    0.00195312  16 t-inv F
  0.250000  0.000000 -0.375000    0.00195312  16 t-inv F
 -0.250000 -0.250000 -0.625000    0.00195312  16 t-inv F
  0.375000  0.625000  0.375000    0.00195312  16 t-inv F
  0.250000 -0.375000 -0.000000    0.00195312  16 t-inv F
 -0.625000 -0.250000 -0.250000    0.00195312  16 t-inv F
  0.375000  0.375000  0.625000    0.00195312  16 t-inv F
 -0.000000  0.250000 -0.375000    0.00195312  16 t-inv F
 -0.250000 -0.625000 -0.250000    0.00195312  16 t-inv F
  0.625000  0.375000  0.375000    0.00195312  16 t-inv F
 -0.375000 -0.000000  0.250000    0.00195312  16 t-inv F
  0.375000 -0.250000 -0.000000    0.00195312  16 t-inv F
 -0.000000  0.375000 -0.250000    0.00195312  16 t-inv F
 -0.250000 -0.000000  0.375000    0.00195312  16 t-inv F
  0.250000  0.250000  0.625000    0.00195312  16 t-inv F
 -0.375000 -0.625000 -0.375000    0.00195312  16 t-inv F
 -0.250000  0.375000  0.000000    0.00195312  16 t-inv F
  0.625000  0.250000  0.250000    0.00195312  16 t-inv F
 -0.375000 -0.375000 -0.625000    0.00195312  16 t-inv F
  0.000000 -0.250000  0.375000    0.00195312  16 t-inv F
  0.250000  0.625000  0.250000    0.00195312  16 t-inv F
 -0.625000 -0.375000 -0.375000    0.00195312  16 t-inv F
  0.375000  0.000000 -0.250000    0.00195312  16 t-inv F
  0.000000 -0.250000  0.250000    0.00195312  17 t-inv F
  0.250000  0.000000 -0.250000    0.00195312  17 t-inv F
 -0.250000 -0.250000 -0.500000    0.00195312  17 t-inv F
  0.250000  0.500000  0.250000    0.00195312  17 t-inv F
  0.250000 -0.250000 -0.000000    0.00195312  17 t-inv F
 -0.500000 -0.250000 -0.250000    0.00195312  17 t-inv F
  0.250000  0.250000  0.500000    0.00195312  17 t-inv F
 -0.000000  0.250000 -0.250000    0.00195312  17 t-inv F
 -0.250000 -0.500000 -0.250000    0.00195312  17 t-inv F
  0.500000  0.250000  0.250000    0.00195312  17 t-inv F
 -0.250000 -0.000000  0.250000    0.00195312  17 t-inv F
  0.000000  0.375000  0.375000    0.00195312  18 t-inv F
  0.375000  0.000000  0.375000    0.00195312  18 t-inv F
 -0.375000 -0.375000  0.000000    0.00195312  18 t-inv F
 -0.375000  0.000000 -0.375000    0.00195312  18 t-inv F
  0.000000 -0.375000 -0.375000    0.00195312  18 t-inv F
  0.000000  0.500000  0.375000    0.00195312  19 t-inv F
  0.375000  0.000000  0.500000    0.00195312  19 t-inv F
 -0.375000 -0.375000  0.125000    0.00195312  19 t-inv F
 -0.500000 -0.125000 -0.500000    0.00195312  19 t-inv F
  0.375000  0.500000 -0.000000    0.00195312  19 t-inv F
  0.125000 -0.375000 -0.375000    0.00195312  19 t-inv F
 -0.500000 -0.500000 -0.125000    0.00195312  19 t-inv F
 -0.000000  0.375000  0.500000    0.00195312  19 t-inv F
 -0.375000  0.125000 -0.375000    0.00195312  19 t-inv F
 -0.125000 -0.500000 -0.500000    0.00195312  19 t-inv F
  0.500000 -0.000000  0.375000    0.00195312  19 t-inv F
 -0.500000 -0.375000 -0.000000    0.00195312  19 t-inv F
 -0.000000 -0.500000 -0.375000    0.00195312  19 t-inv F
 -0.375000 -0.000000 -0.500000    0.00195312  19 t-inv F
  0.375000  0.375000 -0.125000    0.00195312  19 t-inv F
  0.500000  0.125000  0.500000    0.00195312  19 t-inv F
 -0.375000 -0.500000  0.000000    0.00195312  19 t-inv F
 -0.125000  0.375000  0.375000    0.00195312  19 t-inv F
  0.500000  0.500000  0.125000    0.00195312  19 t-inv F
  0.000000 -0.375000 -0.500000    0.00195312  19 t-inv F
  0.375000 -0.125000  0.375000    0.00195312  19 t-inv F
  0.125000  0.500000  0.500000    0.00195312  19 t-inv F
 -0.500000  0.000000 -0.375000    0.00195312  19 t-inv F
  0.000000 -0.375000  0.375000    0.00195312  20 t-inv F
  0.375000  0.000000 -0.375000    0.00195312  20 t-inv F
 -0.375000 -0.375000 -0.750000    0.00195312  20 t-inv F
  0.375000  0.750000  0.375000    0.00195312  20 t-inv F
  0.375000 -0.375000 -0.000000    0.00195312  20 t-inv F
 -0.750000 -0.375000 -0.375000    0.00195312  20 t-inv F
  0.375000  0.375000  0.750000    0.00195312  20 t-inv F
 -0.000000  0.375000 -0.375000    0.00195312  20 t-inv F
 -0.375000 -0.750000 -0.375000    0.00195312  20 t-inv F
  0.750000  0.375000  0.375000    0.00195312  20 t-inv F
 -0.375000 -0.000000  0.375000    0.00195312  20 t-inv F
  0.000000  0.500000  0.500000    0.00195312  21 t-inv F
  0.500000  0.000000  0.500000    0.00195312  21 t-inv F
  0.125000  0.375000  0.250000    0.00195312  22 t-inv F
  0.250000  0.125000  0.375000    0.00195312  22 t-inv F
 -0.250000 -0.125000  0.125000    0.00195312  22 t-inv F
 -0.375000 -0.125000 -0.250000    0.00195312  22 t-inv F
 -0.125000  0.250000  0.125000    0.00195312  22 t-inv F
  0.125000  0.250000 -0.125000    0.00195312  22 t-inv F
  0.125000 -0.125000 -0.250000    0.00195312  22 t-inv F
 -0.250000 -0.125000 -0.375000    0.00195312  22 t-inv F
 -0.250000 -0.375000 -0.125000    0.00195312  22 t-inv F
  0.125000 -0.125000  0.250000    0.00195312  22 t-inv F
  0.125000 -0.250000 -0.125000    0.00195312  22 t-inv F
 -0.125000  0.125000  0.250000    0.00195312  22 t-inv F
 -0.250000  0.125000 -0.125000    0.00195312  22 t-inv F
 -0.375000 -0.250000 -0.125000    0.00195312  22 t-inv F
 -0.125000 -0.250000 -0.375000    0.00195312  22 t-inv F
  0.250000  0.125000 -0.125000    0.00195312  22 t-inv F
 -0.125000  0.125000 -0.250000    0.00195312  22 t-inv F
  0.250000 -0.125000  0.125000    0.00195312  22 t-inv F
 -0.125000 -0.250000  0.125000    0.00195312  22 t-inv F
 -0.125000 -0.375000 -0.250000    0.00195312  22 t-inv F
  0.375000  0.125000  0.250000    0.00195312  22 t-inv F
  0.250000  0.375000  0.125000    0.00195312  22 t-inv F
  0.125000  0.250000  0.375000    0.00195312  22 t-inv F
  0.125000  0.500000  0.250000    0.00195312  23 t-inv F
  0.250000  0.125000  0.500000    0.00195312  23 t-inv F
 -0.250000 -0.125000  0.250000    0.00195312  23 t-inv F
 -0.500000 -0.250000 -0.375000    0.00195312  23 t-inv F
 -0.125000  0.375000  0.125000    0.00195312  23 t-inv F
  0.125000  0.375000 -0.125000    0.00195312  23 t-inv F
  0.250000 -0.125000 -0.250000    0.00195312  23 t-inv F
 -0.375000 -0.250000 -0.500000    0.00195312  23 t-inv F
 -0.375000 -0.500000 -0.250000    0.00195312  23 t-inv F
  0.125000 -0.125000  0.375000    0.00195312  23 t-inv F
  0.250000 -0.250000 -0.125000    0.00195312  23 t-inv F
 -0.125000  0.125000  0.375000    0.00195312  23 t-inv F
 -0.250000  0.250000 -0.125000    0.00195312  23 t-inv F
 -0.500000 -0.375000 -0.250000    0.00195312  23 t-inv F
 -0.250000 -0.375000 -0.500000    0.00195312  23 t-inv F
  0.375000  0.125000 -0.125000    0.00195312  23 t-inv F
 -0.125000  0.250000 -0.250000    0.00195312  23 t-inv F
  0.375000 -0.125000  0.125000    0.00195312  23 t-inv F
 -0.125000 -0.250000  0.250000    0.00195312  23 t-inv F
 -0.250000 -0.500000 -0.375000    0.00195312  23 t-inv F
  0.500000  0.125000  0.250000    0.00195312  23 t-inv F
  0.250000  0.500000  0.125000    0.00195312  23 t-inv F
  0.125000  0.250000  0.500000    0.00195312  23 t-inv F
 -0.500000 -0.250000 -0.125000    0.00195312  23 t-inv F
 -0.125000 -0.500000 -0.250000    0.00195312  23 t-inv F
 -0.250000 -0.125000 -0.500000    0.00195312  23 t-inv F
  0.250000  0.125000 -0.250000    0.00195312  23 t-inv F
  0.500000  0.250000  0.375000    0.00195312  23 t-inv F
  0.125000 -0.375000 -0.125000    0.00195312  23 t-inv F
 -0.125000 -0.375000  0.125000    0.00195312  23 t-inv F
 -0.250000  0.125000  0.250000    0.00195312  23 t-inv F
  0.375000  0.250000  0.500000    0.00195312  23 t-inv F
  0.375000  0.500000  0.250000    0.00195312  23 t-inv F
 -0.125000  0.125000 -0.375000    0.00195312  23 t-inv F
 -0.250000  0.250000  0.125000    0.00195312  23 t-inv F
  0.125000 -0.125000 -0.375000    0.00195312  23 t-inv F
  0.250000 -0.250000  0.125000    0.00195312  23 t-inv F
  0.500000  0.375000  0.250000    0.00195312  23 t-inv F
  0.250000  0.375000  0.500000    0.00195312  23 t-inv F
 -0.375000 -0.125000  0.125000    0.00195312  23 t-inv F
  0.125000 -0.250000  0.250000    0.00195312  23 t-inv F
 -0.375000  0.125000 -0.125000    0.00195312  23 t-inv F
  0.125000  0.250000 -0.250000    0.00195312  23 t-inv F
  0.250000  0.500000  0.375000    0.00195312  23 t-inv F
 -0.500000 -0.125000 -0.250000    0.00195312  23 t-inv F
 -0.250000 -0.500000 -0.125000    0.00195312  23 t-inv F
 -0.125000 -0.250000 -0.500000    0.00195312  23 t-inv F
  0.125000 -0.375000  0.250000    0.00195312  24 t-inv F
  0.250000  0.125000 -0.375000    0.00195312  24 t-inv F
 -0.250000 -0.125000 -0.625000    0.00195312  24 t-inv F
  0.375000  0.625000  0.500000    0.00195312  24 t-inv F
 -0.125000 -0.500000  0.125000    0.00195312  24 t-inv F
  0.125000 -0.500000 -0.125000    0.00195312  24 t-inv F
 -0.625000 -0.125000 -0.250000    0.00195312  24 t-inv F
  0.500000  0.625000  0.375000    0.00195312  24 t-inv F
  0.500000  0.375000  0.625000    0.00195312  24 t-inv F
  0.125000 -0.125000 -0.500000    0.00195312  24 t-inv F
 -0.625000 -0.250000 -0.125000    0.00195312  24 t-inv F
 -0.125000  0.125000 -0.500000    0.00195312  24 t-inv F
 -0.250000 -0.625000 -0.125000    0.00195312  24 t-inv F
  0.375000  0.500000  0.625000    0.00195312  24 t-inv F
  0.625000  0.500000  0.375000    0.00195312  24 t-inv F
 -0.500000  0.125000 -0.125000    0.00195312  24 t-inv F
 -0.125000 -0.625000 -0.250000    0.00195312  24 t-inv F
 -0.500000 -0.125000  0.125000    0.00195312  24 t-inv F
 -0.125000 -0.250000 -0.625000    0.00195312  24 t-inv F
  0.625000  0.375000  0.500000    0.00195312  24 t-inv F
 -0.375000  0.125000  0.250000    0.00195312  24 t-inv F
  0.250000 -0.375000  0.125000    0.00195312  24 t-inv F
  0.125000  0.250000 -0.375000    0.00195312  24 t-inv F
  0.125000  0.500000  0.375000    0.00195312  25 t-inv F
  0.375000  0.125000  0.500000    0.00195312  25 t-inv F
 -0.375000 -0.250000  0.125000    0.00195312  25 t-inv F
 -0.500000 -0.125000 -0.375000    0.00195312  25 t-inv F
 -0.125000  0.375000  0.250000    0.00195312  25 t-inv F
  0.250000  0.375000 -0.125000    0.00195312  25 t-inv F
  0.125000 -0.250000 -0.375000    0.00195312  25 t-inv F
 -0.375000 -0.125000 -0.500000    0.00195312  25 t-inv F
 -0.375000 -0.500000 -0.125000    0.00195312  25 t-inv F
  0.250000 -0.125000  0.375000    0.00195312  25 t-inv F
  0.125000 -0.375000 -0.250000    0.00195312  25 t-inv F
 -0.125000  0.250000  0.375000    0.00195312  25 t-inv F
 -0.375000  0.125000 -0.250000    0.00195312  25 t-inv F
 -0.500000 -0.375000 -0.125000    0.00195312  25 t-inv F
 -0.125000 -0.375000 -0.500000    0.00195312  25 t-inv F
  0.375000  0.250000 -0.125000    0.00195312  25 t-inv F
 -0.250000  0.125000 -0.375000    0.00195312  25 t-inv F
  0.375000 -0.125000  0.250000    0.00195312  25 t-inv F
 -0.250000 -0.375000  0.125000    0.00195312  25 t-inv F
 -0.125000 -0.500000 -0.375000    0.00195312  25 t-inv F
  0.500000  0.125000  0.375000    0.00195312  25 t-inv F
  0.375000  0.500000  0.125000    0.00195312  25 t-inv F
  0.125000  0.375000  0.500000    0.00195312  25 t-inv F
  0.125000 -0.375000  0.375000    0.00195312  26 t-inv F
  0.375000  0.125000 -0.375000    0.00195312  26 t-inv F
 -0.375000 -0.250000 -0.750000    0.00195312  26 t-inv F
  0.375000  0.750000  0.500000    0.00195312  26 t-inv F
 -0.125000 -0.500000  0.250000    0.00195312  26 t-inv F
  0.250000 -0.500000 -0.125000    0.00195312  26 t-inv F
 -0.750000 -0.250000 -0.375000    0.00195312  26 t-inv F
  0.500000  0.750000  0.375000    0.00195312  26 t-inv F
  0.500000  0.375000  0.750000    0.00195312  26 t-inv F
  0.250000 -0.125000 -0.500000    0.00195312  26 t-inv F
 -0.750000 -0.375000 -0.250000    0.00195312  26 t-inv F
 -0.125000  0.250000 -0.500000    0.00195312  26 t-inv F
 -0.375000 -0.750000 -0.250000    0.00195312  26 t-inv F
  0.375000  0.500000  0.750000    0.00195312  26 t-inv F
  0.750000  0.500000  0.375000    0.00195312  26 t-inv F
 -0.500000  0.250000 -0.125000    0.00195312  26 t-inv F
 -0.250000 -0.750000 -0.375000    0.00195312  26 t-inv F
 -0.500000 -0.125000  0.250000    0.00195312  26 t-inv F
 -0.250000 -0.375000 -0.750000    0.00195312  26 t-inv F
  0.750000  0.375000  0.500000    0.00195312  26 t-inv F
 -0.375000  0.125000  0.375000    0.00195312  26 t-inv F
  0.375000 -0.375000  0.125000    0.00195312  26 t-inv F
  0.125000  0.375000 -0.375000    0.00195312  26 t-inv F
  0.375000 -0.375000 -0.125000    0.00195312  26 t-inv F
 -0.125000  0.375000 -0.375000    0.00195312  26 t-inv F
 -0.375000 -0.125000  0.375000    0.00195312  26 t-inv F
  0.375000  0.250000  0.750000    0.00195312  26 t-inv F
 -0.375000 -0.750000 -0.500000    0.00195312  26 t-inv F
  0.125000  0.500000 -0.250000    0.00195312  26 t-inv F
 -0.250000  0.500000  0.125000    0.00195312  26 t-inv F
  0.750000  0.250000  0.375000    0.00195312  26 t-inv F
 -0.500000 -0.750000 -0.375000    0.00195312  26 t-inv F
 -0.500000 -0.375000 -0.750000    0.00195312  26 t-inv F
 -0.250000  0.125000  0.500000    0.00195312  26 t-inv F
  0.750000  0.375000  0.250000    0.00195312  26 t-inv F
  0.125000 -0.250000  0.500000    0.00195312  26 t-inv F
  0.375000  0.750000  0.250000    0.00195312  26 t-inv F
 -0.375000 -0.500000 -0.750000    0.00195312  26 t-inv F
 -0.750000 -0.500000 -0.375000    0.00195312  26 t-inv F
  0.500000 -0.250000  0.125000    0.00195312  26 t-inv F
  0.250000  0.750000  0.375000    0.00195312  26 t-inv F
  0.500000  0.125000 -0.250000    0.00195312  26 t-inv F
  0.250000  0.375000  0.750000    0.00195312  26 t-inv F
 -0.750000 -0.375000 -0.500000    0.00195312  26 t-inv F
  0.375000 -0.125000 -0.375000    0.00195312  26 t-inv F
 -0.375000  0.375000 -0.125000    0.00195312  26 t-inv F
 -0.125000 -0.375000  0.375000    0.00195312  26 t-inv F
  0.125000 -0.250000  0.375000    0.00195312  27 t-inv F
  0.375000  0.125000 -0.250000    0.00195312  27 t-inv F
 -0.375000 -0.250000 -0.625000    0.00195312  27 t-inv F
  0.250000  0.625000  0.375000    0.00195312  27 t-inv F
 -0.125000 -0.375000  0.250000    0.00195312  27 t-inv F
  0.250000 -0.375000 -0.125000    0.00195312  27 t-inv F
 -0.625000 -0.250000 -0.375000    0.00195312  27 t-inv F
  0.375000  0.625000  0.250000    0.00195312  27 t-inv F
  0.375000  0.250000  0.625000    0.00195312  27 t-inv F
  0.250000 -0.125000 -0.375000    0.00195312  27 t-inv F
 -0.625000 -0.375000 -0.250000    0.00195312  27 t-inv F
 -0.125000  0.250000 -0.375000    0.00195312  27 t-inv F
 -0.375000 -0.625000 -0.250000    0.00195312  27 t-inv F
  0.250000  0.375000  0.625000    0.00195312  27 t-inv F
  0.625000  0.375000  0.250000    0.00195312  27 t-inv F
 -0.375000  0.250000 -0.125000    0.00195312  27 t-inv F
 -0.250000 -0.625000 -0.375000    0.00195312  27 t-inv F
 -0.375000 -0.125000  0.250000    0.00195312  27 t-inv F
 -0.250000 -0.375000 -0.625000    0.00195312  27 t-inv F
  0.625000  0.250000  0.375000    0.00195312  27 t-inv F
 -0.250000  0.125000  0.375000    0.00195312  27 t-inv F
  0.375000 -0.250000  0.125000    0.00195312  27 t-inv F
  0.125000  0.375000 -0.250000    0.00195312  27 t-inv F
  0.125000 -0.375000  0.500000    0.00195312  28 t-inv F
  0.500000  0.125000 -0.375000    0.00195312  28 t-inv F
 -0.500000 -0.375000 -0.875000    0.00195312  28 t-inv F
  0.375000  0.875000  0.500000    0.00195312  28 t-inv F
 -0.125000 -0.500000  0.375000    0.00195312  28 t-inv F
  0.375000 -0.500000 -0.125000    0.00195312  28 t-inv F
  0.500000  0.875000  0.375000    0.00195312  28 t-inv F
  0.500000  0.375000  0.875000    0.00195312  28 t-inv F
 -0.875000 -0.500000 -0.375000    0.00195312  28 t-inv F
 -0.125000  0.375000 -0.500000    0.00195312  28 t-inv F
 -0.375000 -0.875000 -0.500000    0.00195312  28 t-inv F
  0.250000 -0.250000  0.500000    0.00195312  29 t-inv F
  0.500000  0.250000 -0.250000    0.00195312  29 t-inv F
 -0.500000 -0.250000 -0.750000    0.00195312  29 t-inv F
  0.250000 -0.500000 -0.250000    0.00195312  29 t-inv F
 -0.250000  0.250000 -0.500000    0.00195312  29 t-inv F


--------------------------------------------------------------------------------------------------------




 Dimension of arrays:
   k-points           NKPTS =     29   k-points in BZ     NKDIM =    512   number of bands    NBANDS=      9
   number of dos      NEDOS =    301   number of ions     NIONS =      2
   non local maximal  LDIM  =      4   non local SUM 2l+1 LMDIM =      8
   total plane-waves  NPLWV =  21952
   max r-space proj   IRMAX =      1   max aug-charges    IRDMAX= 143748
   dimension x,y,z NGX =    28 NGY =   28 NGZ =   28
   dimension x,y,z NGXF=    56 NGYF=   56 NGZF=   56
   support grid    NGXF=   112 NGYF=  112 NGZF=  112
   ions per type =               2
   NGX,Y,Z   is equivalent  to a cutoff of  12.04, 12.04, 12.04 a.u.
   NGXF,Y,Z  is equivalent  to a cutoff of  24.07, 24.07, 24.07 a.u.

 SYSTEM =  unknown system                          
 POSCAR =  Si diamond cubic                        

 Startparameter for this run:
   NWRITE =      2    write-flag & timer
   PREC   = accura    normal or accurate (medium, high low for compatibility)
   ISTART =      1    job   : 0-new  1-cont  2-samecut
   ICHARG =      1    charge: 1-file 2-atom 10-const
   ISPIN  =      1    spin polarized calculation?
   LNONCOLLINEAR =      F non collinear calculations
   LSORBIT =      F    spin-orbit coupling
   INIWAV =      1    electr: 0-lowe 1-rand  2-diag
   LASPH  =      F    aspherical Exc in radial PAW
   METAGGA=      F    non-selfconsistent MetaGGA calc.

 Electronic Relaxation 1
   ENCUT  =  400.0 eV  29.40 Ry    5.42 a.u.   6.31  6.31  6.31*2*pi/ulx,y,z
   ENINI  =  400.0     initial cutoff
   ENAUG  =  322.1 eV  augmentation charge cutoff
   NELM   =    100;   NELMIN=  2; NELMDL=  0     # of ELM steps 
   EDIFF  = 0.1E-04   stopping-criterion for ELM
   LREAL  =      F    real-space projection
   NLSPLINE    = F    spline interpolate recip. space projectors
   LCOMPAT=      F    compatible to vasp.4.4
   GGA_COMPAT  = T    GGA compatible to vasp.4.4-vasp.4.6
   LMAXPAW     = -100 max onsite density
   LMAXMIX     =    2 max onsite mixed and CHGCAR
   VOSKOWN=      0    Vosko Wilk Nusair interpolation
   ROPT   =    0.00000
 Ionic relaxation
   EDIFFG = 0.1E-03   stopping-criterion for IOM
   NSW    =      0    number of steps for IOM
   NBLOCK =      1;   KBLOCK =      1    inner block; outer block 
   IBRION =     -1    ionic relax: 0-MD 1-quasi-New 2-CG
   NFREE  =      0    steps in history (QN), initial steepest desc. (CG)
   ISIF   =      0    stress and relaxation
   IWAVPR =     10    prediction:  0-non 1-charg 2-wave 3-comb
   ISYM   =      3    0-nonsym 1-usesym 2-fastsym
   LCORR  =      T    Harris-Foulkes like correction to forces

   POTIM  = 0.5000    time-step for ionic-motion
   TEIN   =    0.0    initial temperature
   TEBEG  =    0.0;   TEEND  =   0.0 temperature during run
   SMASS  =  -3.00    Nose mass-parameter (am)
   estimated Nose-frequenzy (Omega)   =  0.10E-29 period in steps =****** mass=  -0.342E-27a.u.
   SCALEE = 1.0000    scale energy and forces
   NPACO  =    256;   APACO  = 16.0  distance and # of slots for P.C.
   PSTRESS=    0.0 pullay stress

  Mass of Ions in am
   POMASS =  28.09
  Ionic Valenz
   ZVAL   =   4.00
  Atomic Wigner-Seitz radii
   RWIGS  =  -1.00
  virtual crystal weights 
   VCA    =   1.00
   NELECT =       8.0000    total number of electrons
   NUPDOWN=      -1.0000    fix difference up-down

 DOS related values:
   EMIN   =  10.00;   EMAX   =-10.00  energy-range for DOS
   EFERMI =   0.00
   ISMEAR =     0;   SIGMA  =   0.05  broadening in eV -4-tet -1-fermi 0-gaus

 Electronic relaxation 2 (details)
   IALGO  =     58    algorithm
   LDIAG  =      T    sub-space diagonalisation (order eigenvalues)
   LSUBROT=      F    optimize rotation matrix (better conditioning)
   TURBO    =      0    0=normal 1=particle mesh
   IRESTART =      0    0=no restart 2=restart with 2 vectors
   NREBOOT  =      0    no. of reboots
   NMIN     =      0    reboot dimension
   EREF     =   0.00    reference energy to select bands
   IMIX   =      4    mixing-type and parameters
     AMIX     =   0.40;   BMIX     =  1.00
     AMIX_MAG =   1.60;   BMIX_MAG =  1.00
     AMIN     =   0.10
     WC   =   100.;   INIMIX=   1;  MIXPRE=   1;  MAXMIX= -45

 Intra band minimization:
   WEIMIN = 0.0000     energy-eigenvalue tresh-hold
   EBREAK =  0.28E-06  absolut break condition
   DEPER  =   0.30     relativ break condition  

   TIME   =   0.40     timestep for ELM

  volume/ion in A,a.u.               =      20.45       138.00
  Fermi-wavevector in a.u.,A,eV,Ry     =   0.950312  1.795828 12.287313  0.903092
  Thomas-Fermi vector in A             =   2.078676

 Write flags
   LWAVE        =      T    write WAVECAR
   LDOWNSAMPLE  =      F    k-point downsampling of WAVECAR
   LCHARG       =      T    write CHGCAR
   LVTOT        =      F    write LOCPOT, total local potential
   LVHAR        =      F    write LOCPOT, Hartree potential only
   LELF         =      F    write electronic localiz. function (ELF)
   LORBIT       =      0    0 simple, 1 ext, 2 COOP (PROOUT), +10 PAW based schemes


 Dipole corrections
   LMONO  =      F    monopole corrections only (constant potential shift)
   LDIPOL =      F    correct potential (dipole corrections)
   IDIPOL =      0    1-x, 2-y, 3-z, 4-all directions 
   EPSILON=  1.0000000 bulk dielectric constant

 Exchange correlation treatment:
   GGA     =    --    GGA type
   LEXCH   =     8    internal setting for exchange type
   VOSKOWN=      0    Vosko Wilk Nusair interpolation
   EXXOEP  =     0    0=HF, 1=EXX-LHF (local Hartree Fock) 2=EXX OEP
   LHFCALC =     T    Hartree Fock is set to
   LSYMGRAD=     F    symmetrize gradient (conserves proper symmetry)
   PRECFOCK=fast      Normal, Fast or Accurate (Low or Medium for compatibility)
   LRHFCALC=     F    long range Hartree Fock
   LRSCOR  =     F    long range correlation only (use DFT for short range part)
   LTHOMAS =     F    Thomas Fermi screening in HF
   LMODELHF=     F    short range full HF, long range fraction AEXX
   ENCUT4O =  -1.0   cutoff for four orbital integrals eV
   LMAXFOCK=     4    L truncation for augmentation on plane wave grid
   LMAXFOCKAE=  -1    L truncation for all-electron charge restoration on plane wave grid
   NMAXFOCKAE=   1    number of basis functions for all-electron charge restoration
   LFOCKAEDFT=     F  apply the AE augmentation even for DFT
   NKREDX  =     2    reduce k-point grid by
   NKREDY  =     2    reduce k-point grid by
   NKREDZ  =     2    reduce k-point grid by
   SHIFTRED=     F    shift reduced grid of Gamma
   HFKIDENT=     F    idential grid for each k-point
   ODDONLY =     F    use only odd q-grid points
   EVENONLY=     F    use only even q-grid points
   HFALPHA =   -1.0000 decay constant for conv. correction
   MCALPHA =    0.0000 extent of test-charge in conv. correction in multipole expansion
   AEXX    =    0.2500 exact exchange contribution
   HFSCREEN=    0.2000 screening length (either q_TF or 0.3 A-1)
   HFSCREENC=   0.2000 screening length for correlation (either q_TF or 0.3 A-1)
   HFRCUT  =    0.0000 spherical cutoff for potential kernel
   ALDAX   =    0.7500 LDA exchange part
   AGGAX   =    0.7500 GGA exchange part
   ALDAC   =    1.0000 LDA correlation
   AGGAC   =    1.0000 GGA correlation
   ENCUTFOCK=  -1.0 apply spherical cutoff to Coloumb kernel
   NBANDSGWLOW=     1    first orbital included in HF term
   NBLOCK_FOCK=    64    blocking factor in FOCK_ACC
 Linear response parameters
   LEPSILON=     F    determine dielectric tensor
   LRPA    =     F    only Hartree local field effects (RPA)
   LNABLA  =     F    use nabla operator in PAW spheres
   LVEL    =     F    velocity operator in full k-point grid
   LINTERFAST=   F  fast interpolation
   KINTER  =     0    interpolate to denser k-point grid
   CSHIFT  =0.1000    complex shift for real part using Kramers Kronig
   OMEGAMAX=  -1.0    maximum frequency
   DEG_THRESHOLD= 0.2000000E-02 threshold for treating states as degnerate
   RTIME   =   -0.100 relaxation time in fs
  (WPLASMAI=    0.000 imaginary part of plasma frequency in eV, 0.658/RTIME)
   DFIELD  = 0.0000000 0.0000000 0.0000000 field for delta impulse in time

 Orbital magnetization related:
   ORBITALMAG=     F  switch on orbital magnetization
   LCHIMAG   =     F  perturbation theory with respect to B field
   DQ        =  0.001000  dq finite difference perturbation B field
   LLRAUG    =     F  two centre corrections for induced B field



--------------------------------------------------------------------------------------------------------


 Static calculation
 charge density and potential will be updated during run
 non-spin polarized calculation
 Conjugate gradient for all bands (Freysoldt, et al. PRB 79, 241103 (2009))
 preconditioned conjugated gradient                                        
 perform sub-space diagonalisation
    before iterative eigenvector-optimisation
 modified Broyden-mixing scheme, WC =      100.0
 initial mixing is a Kerker type mixing with AMIX =  0.4000 and BMIX =      1.0000
 Hartree-type preconditioning will be used
 using additional bands            5
 reciprocal scheme for non local part
 use partial core corrections
 no Harris-corrections to forces 
 use gradient corrections 
 use of overlap-Matrix (Vanderbilt PP)
 Gauss-broadening in eV      SIGMA  =   0.05


--------------------------------------------------------------------------------------------------------


  energy-cutoff  :      400.00
  volume of cell :       40.90
      direct lattice vectors                 reciprocal lattice vectors
     0.000000000  2.734610537  2.734610537    -0.182841393  0.182841393  0.182841393
     2.734610537 -0.000000000  2.734610537     0.182841393 -0.182841393  0.182841393
     2.734610537  2.734610537  0.000000000     0.182841393  0.182841393 -0.182841393

  length of vectors
     3.867323309  3.867323309  3.867323309     0.316690582  0.316690582  0.316690582



 old parameters found on file WAVECAR:
  energy-cutoff  :      400.00
  volume of cell :       40.05
      direct lattice vectors                 reciprocal lattice vectors
     0.000000000  2.715500000  2.715500000    -0.184128153  0.184128153  0.184128153
     2.715500000  0.000000000  2.715500000     0.184128153 -0.184128153  0.184128153
     2.715500000  2.715500000  0.000000000     0.184128153  0.184128153 -0.184128153

  length of vectors


 k-points in units of 2pi/SCALE and weight: K-Mesh for HSE SCF (same as Relaxation) 
   0.00000000  0.00000000  0.00000000       0.002
  -0.12412645  0.12412645  0.12412645       0.016
  -0.24825290  0.24825290  0.24825290       0.016
  -0.37237935  0.37237935  0.37237935       0.016
  -0.49650580  0.49650580  0.49650580       0.008
   0.00000000  0.00000000  0.24825290       0.012
  -0.12412645  0.12412645  0.37237935       0.047
  -0.24825290  0.24825290  0.49650580       0.047
  -0.37237935  0.37237935  0.62063225       0.047
   0.49650580 -0.49650580 -0.24825290       0.047
   0.37237935 -0.37237935 -0.12412645       0.047
   0.24825290 -0.24825290  0.00000000       0.023
   0.00000000  0.00000000  0.49650580       0.012
  -0.12412645  0.12412645  0.62063225       0.047
  -0.24825290  0.24825290  0.74475870       0.047
   0.62063225 -0.62063225 -0.12412645       0.047
   0.49650580 -0.49650580  0.00000000       0.023
   0.00000000  0.00000000  0.74475870       0.012
  -0.12412645  0.12412645  0.86888515       0.047
   0.74475870 -0.74475870  0.00000000       0.023
   0.00000000  0.00000000  0.99301161       0.006
   0.00000000  0.24825290  0.49650580       0.047
  -0.12412645  0.37237935  0.62063225       0.094
   0.74475870 -0.49650580 -0.24825290       0.047
   0.00000000  0.24825290  0.74475870       0.047
   0.86888515 -0.62063225 -0.12412645       0.094
   0.74475870 -0.49650580  0.00000000       0.047
   0.99301161 -0.74475870  0.00000000       0.023
   0.99301161 -0.49650580  0.00000000       0.012

 k-points in reciprocal lattice and weights: K-Mesh for HSE SCF (same as Relaxation) 
   0.00000000  0.00000000  0.00000000       0.002
   0.12500000  0.00000000  0.00000000       0.016
   0.25000000  0.00000000  0.00000000       0.016
   0.37500000  0.00000000  0.00000000       0.016
   0.50000000  0.00000000  0.00000000       0.008
   0.12500000  0.12500000  0.00000000       0.012
   0.25000000  0.12500000  0.00000000       0.047
   0.37500000  0.12500000  0.00000000       0.047
   0.50000000  0.12500000  0.00000000       0.047
  -0.37500000  0.12500000  0.00000000       0.047
  -0.25000000  0.12500000  0.00000000       0.047
  -0.12500000  0.12500000  0.00000000       0.023
   0.25000000  0.25000000  0.00000000       0.012
   0.37500000  0.25000000  0.00000000       0.047
   0.50000000  0.25000000  0.00000000       0.047
  -0.37500000  0.25000000  0.00000000       0.047
  -0.25000000  0.25000000  0.00000000       0.023
   0.37500000  0.37500000  0.00000000       0.012
   0.50000000  0.37500000  0.00000000       0.047
  -0.37500000  0.37500000  0.00000000       0.023
   0.50000000  0.50000000  0.00000000       0.006
   0.37500000  0.25000000  0.12500000       0.047
   0.50000000  0.25000000  0.12500000       0.094
  -0.37500000  0.25000000  0.12500000       0.047
   0.50000000  0.37500000  0.12500000       0.047
  -0.37500000  0.37500000  0.12500000       0.094
  -0.25000000  0.37500000  0.12500000       0.047
  -0.37500000  0.50000000  0.12500000       0.023
  -0.25000000  0.50000000  0.25000000       0.012

 position of ions in fractional coordinates (direct lattice) 
   0.00000000  0.00000000  0.00000000
   0.25000000  0.25000000  0.25000000

 position of ions in cartesian coordinates  (Angst):
   0.00000000  0.00000000  0.00000000
   1.36730527  1.36730527  1.36730527



--------------------------------------------------------------------------------------------------------


 k-point  1 :   0.0000 0.0000 0.0000  plane waves:     725
 k-point  2 :   0.1250 0.0000 0.0000  plane waves:     743
 k-point  3 :   0.2500 0.0000 0.0000  plane waves:     751
 k-point  4 :   0.3750 0.0000 0.0000  plane waves:     751
 k-point  5 :   0.5000 0.0000 0.0000  plane waves:     754
 k-point  6 :   0.1250 0.1250 0.0000  plane waves:     737
 k-point  7 :   0.2500 0.1250 0.0000  plane waves:     745
 k-point  8 :   0.3750 0.1250 0.0000  plane waves:     746
 k-point  9 :   0.5000 0.1250 0.0000  plane waves:     744
 k-point 10 :  -0.3750 0.1250 0.0000  plane waves:     745
 k-point 11 :  -0.2500 0.1250 0.0000  plane waves:     748
 k-point 12 :  -0.1250 0.1250 0.0000  plane waves:     753
 k-point 13 :   0.2500 0.2500 0.0000  plane waves:     729
 k-point 14 :   0.3750 0.2500 0.0000  plane waves:     741
 k-point 15 :   0.5000 0.2500 0.0000  plane waves:     739
 k-point 16 :  -0.3750 0.2500 0.0000  plane waves:     741
 k-point 17 :  -0.2500 0.2500 0.0000  plane waves:     754
 k-point 18 :   0.3750 0.3750 0.0000  plane waves:     741
 k-point 19 :   0.5000 0.3750 0.0000  plane waves:     745
 k-point 20 :  -0.3750 0.3750 0.0000  plane waves:     740
 k-point 21 :   0.5000 0.5000 0.0000  plane waves:     740
 k-point 22 :   0.3750 0.2500 0.1250  plane waves:     745
 k-point 23 :   0.5000 0.2500 0.1250  plane waves:     746
 k-point 24 :  -0.3750 0.2500 0.1250  plane waves:     740
 k-point 25 :   0.5000 0.3750 0.1250  plane waves:     734
 k-point 26 :  -0.3750 0.3750 0.1250  plane waves:     738
 k-point 27 :  -0.2500 0.3750 0.1250  plane waves:     740
 k-point 28 :  -0.3750 0.5000 0.1250  plane waves:     742
 k-point 29 :  -0.2500 0.5000 0.2500  plane waves:     744

 maximum and minimum number of plane-waves per node :       754      725

 maximum number of plane-waves:       754
 maximum index in each direction: 
   IXMAX=    6   IYMAX=    6   IZMAX=    6
   IXMIN=   -6   IYMIN=   -6   IZMIN=   -6


 serial   3D FFT for wavefunctions
 parallel 3D FFT for charge:
    minimum data exchange during FFTs selected (reduces bandwidth)


 FFT grid for exact exchange (Hartree Fock) 
  NGX = 16; NGY = 16; NGZ = 16


 Radii for the augmentation spheres in the non-local exchange
 for species   1 augmentation radius   1.335 (default was   0.989)
       energy cutoff for augmentation   1600.0
 Maximum index for augmentation-charges in exchange          959
  SETUP_FOCK is finished

 total amount of memory used by VASP MPI-rank0    47567. kBytes
=======================================================================

   base      :      30000. kBytes
   nonl-proj :       1427. kBytes
   fftplans  :       8897. kBytes
   grid      :       3818. kBytes
   one-center:          6. kBytes
   HF        :          4. kBytes
   nonlr-proj:        184. kBytes
   wavefun   :       3231. kBytes

     INWAV:  cpu time    0.7775: real time    0.7776
 Broyden mixing: mesh for mixing (old mesh)
   NGX = 13   NGY = 13   NGZ = 13
  (NGX  = 56   NGY  = 56   NGZ  = 56)
  gives a total of   2197 points

 initial charge density was supplied:
 number of electron       8.0000000 magnetization 
 charge density for first step will be calculated from the start-wavefunctions


--------------------------------------------------------------------------------------------------------


 Maximum index for augmentation-charges        48474 (set IRDMAX)


--------------------------------------------------------------------------------------------------------


 initial charge from wavefunction
 First call to EWALD:  gamma=   0.514
 Maximum number of real-space cells 3x 3x 3
 Maximum number of reciprocal cells 3x 3x 3

    FEWALD:  cpu time    0.0016: real time    0.0016


--------------------------------------- Iteration      1(   1)  ---------------------------------------


    POTLOK:  cpu time    0.1835: real time    0.1835
    SETDIJ:  cpu time    0.0964: real time    0.0964
    TRIAL :  cpu time    7.0667: real time    7.0709
    CORREC:  cpu time   28.2797: real time   28.2810
    CHARGE:  cpu time    0.2598: real time    0.2618
    --------------------------------------------
      LOOP:  cpu time   35.8871: real time   35.8945

 eigenvalue-minimisations  :     0
 total energy-change (2. order) : 0.4057996E+02  (-0.2888334E+01)
 number of electron       8.0000000 magnetization 
 augmentation part       -0.4031418 magnetization 

 Free energy of the ion-electron system (eV)
  ---------------------------------------------------
  alpha Z        PSCENC =         3.29228976
  Ewald energy   TEWEN  =      -226.92444198
  -Hartree energ DENC   =       -16.21267929
  -exchange      EXHF   =         7.63859985
  -V(xc)+E(xc)   XCENC  =       -14.47504116
  PAW double counting   =     10154.80981009   -10127.05637472
  entropy T*S    EENTRO =        -0.00105329
  eigenvalues    EBANDS =        55.51046576
  atomic energy  EATOM  =       203.99733562
  ---------------------------------------------------
  free energy    TOTEN  =        40.57996392 eV

  energy without entropy =       40.58101721  energy(sigma->0) =       40.58049057
  exchange ACFDT corr.  =         0.00000000  see jH, gK, PRB 81, 115126


--------------------------------------------------------------------------------------------------------




--------------------------------------- Iteration      1(   2)  ---------------------------------------


    POTLOK:  cpu time    0.1808: real time    0.1808
    SETDIJ:  cpu time    0.0733: real time    0.0733
    TRIAL :  cpu time    5.9309: real time    5.9314
    CORREC:  cpu time    6.1987: real time    6.1989
    CHARGE:  cpu time    0.2781: real time    0.2781
    --------------------------------------------
      LOOP:  cpu time   12.6666: real time   12.6673

 eigenvalue-minimisations  :     0
 total energy-change (2. order) :-0.1737692E+02  (-0.1174523E+02)
 number of electron       8.0000000 magnetization 
 augmentation part       -0.4344232 magnetization 

 Free energy of the ion-electron system (eV)
  ---------------------------------------------------
  alpha Z        PSCENC =         3.29228976
  Ewald energy   TEWEN  =      -226.92444198
  -Hartree energ DENC   =        -7.89310350
  -exchange      EXHF   =         8.35312371
  -V(xc)+E(xc)   XCENC  =       -15.14035732
  PAW double counting   =    178699.48943661  -178671.49175048
  entropy T*S    EENTRO =        -0.00035843
  eigenvalues    EBANDS =        29.52156835
  atomic energy  EATOM  =       203.99733562
  ---------------------------------------------------
  free energy    TOTEN  =        23.20304747 eV

  energy without entropy =       23.20340590  energy(sigma->0) =       23.20322668
  exchange ACFDT corr.  =        -0.18040442  see jH, gK, PRB 81, 115126


--------------------------------------------------------------------------------------------------------




--------------------------------------- Iteration      1(   3)  ---------------------------------------


    POTLOK:  cpu time    0.1809: real time    0.1809
    SETDIJ:  cpu time    0.0907: real time    0.0907
    TRIAL :  cpu time    5.9495: real time    5.9497
    CORREC:  cpu time    6.5018: real time    6.5026
    CHARGE:  cpu time    0.2707: real time    0.2707
    --------------------------------------------
      LOOP:  cpu time   12.9942: real time   12.9952

 eigenvalue-minimisations  :     0
 total energy-change (2. order) : 0.7970378E+01  (-0.2091332E+02)
 number of electron       8.0000000 magnetization 
 augmentation part       -0.4286490 magnetization 

 Free energy of the ion-electron system (eV)
  ---------------------------------------------------
  alpha Z        PSCENC =         3.29228976
  Ewald energy   TEWEN  =      -226.92444198
  -Hartree energ DENC   =        -7.45844552
  -exchange      EXHF   =         8.09096709
  -V(xc)+E(xc)   XCENC  =       -15.25419412
  PAW double counting   =    323708.26061116  -323680.22570183
  entropy T*S    EENTRO =        -0.00176773
  eigenvalues    EBANDS =        37.39536416
  atomic energy  EATOM  =       203.99733562
  ---------------------------------------------------
  free energy    TOTEN  =        31.17342590 eV

  energy without entropy =       31.17519363  energy(sigma->0) =       31.17430977
  exchange ACFDT corr.  =        -0.38508476  see jH, gK, PRB 81, 115126


--------------------------------------------------------------------------------------------------------




--------------------------------------- Iteration      1(   4)  ---------------------------------------


    POTLOK:  cpu time    0.1683: real time    0.1683
    SETDIJ:  cpu time    0.0778: real time    0.0778
    TRIAL :  cpu time    6.2251: real time    6.2272
    CORREC:  cpu time    6.1866: real time    6.1864
    CHARGE:  cpu time    0.2831: real time    0.2831
    --------------------------------------------
      LOOP:  cpu time   12.9432: real time   12.9452

 eigenvalue-minimisations  :     0
 total energy-change (2. order) :-0.7481579E+01  (-0.1882499E+02)
 number of electron       8.0000000 magnetization 
 augmentation part       -0.4517253 magnetization 

 Free energy of the ion-electron system (eV)
  ---------------------------------------------------
  alpha Z        PSCENC =         3.29228976
  Ewald energy   TEWEN  =      -226.92444198
  -Hartree energ DENC   =        -8.24229782
  -exchange      EXHF   =         8.25193045
  -V(xc)+E(xc)   XCENC  =       -15.11025580
  PAW double counting   =     94800.99872030   -94773.00978024
  entropy T*S    EENTRO =        -0.00068231
  eigenvalues    EBANDS =        30.44011414
  atomic energy  EATOM  =       203.99733562
  ---------------------------------------------------
  free energy    TOTEN  =        23.69184670 eV

  energy without entropy =       23.69252901  energy(sigma->0) =       23.69218785
  exchange ACFDT corr.  =        -0.20375722  see jH, gK, PRB 81, 115126


--------------------------------------------------------------------------------------------------------




--------------------------------------- Iteration      1(   5)  ---------------------------------------


    POTLOK:  cpu time    0.1754: real time    0.1754
    SETDIJ:  cpu time    0.0701: real time    0.0701
    TRIAL :  cpu time    5.8651: real time    5.8648
    CORREC:  cpu time    6.3748: real time    6.3748
    CHARGE:  cpu time    0.2810: real time    0.2812
    --------------------------------------------
      LOOP:  cpu time   12.7718: real time   12.7719

 eigenvalue-minimisations  :     0
 total energy-change (2. order) :-0.9126694E+01  (-0.9779850E+01)
 number of electron       8.0000000 magnetization 
 augmentation part       -0.4651025 magnetization 

 Free energy of the ion-electron system (eV)
  ---------------------------------------------------
  alpha Z        PSCENC =         3.29228976
  Ewald energy   TEWEN  =      -226.92444198
  -Hartree energ DENC   =        -9.95121513
  -exchange      EXHF   =         8.70380587
  -V(xc)+E(xc)   XCENC  =       -14.94373197
  PAW double counting   =     43416.73307557   -43388.82118977
  entropy T*S    EENTRO =        -0.00061756
  eigenvalues    EBANDS =        22.47990693
  atomic energy  EATOM  =       203.99733562
  ---------------------------------------------------
  free energy    TOTEN  =        14.56515258 eV

  energy without entropy =       14.56577014  energy(sigma->0) =       14.56546136
  exchange ACFDT corr.  =        -0.11286957  see jH, gK, PRB 81, 115126


--------------------------------------------------------------------------------------------------------




--------------------------------------- Iteration      1(   6)  ---------------------------------------


    POTLOK:  cpu time    0.1688: real time    0.1687
    SETDIJ:  cpu time    0.0877: real time    0.0877
    TRIAL :  cpu time    5.8726: real time    5.8731
    CORREC:  cpu time    6.2316: real time    6.2319
    CHARGE:  cpu time    0.2671: real time    0.2671
    --------------------------------------------
      LOOP:  cpu time   12.6281: real time   12.6289

 eigenvalue-minimisations  :     0
 total energy-change (2. order) :-0.7673879E+01  (-0.5771075E+01)
 number of electron       8.0000000 magnetization 
 augmentation part       -0.4608466 magnetization 

 Free energy of the ion-electron system (eV)
  ---------------------------------------------------
  alpha Z        PSCENC =         3.29228976
  Ewald energy   TEWEN  =      -226.92444198
  -Hartree energ DENC   =       -11.93999888
  -exchange      EXHF   =         9.13002251
  -V(xc)+E(xc)   XCENC  =       -14.75407127
  PAW double counting   =     12168.29909388   -12140.49484595
  entropy T*S    EENTRO =        -0.00158726
  eigenvalues    EBANDS =        16.28650703
  atomic energy  EATOM  =       203.99733562
  ---------------------------------------------------
  free energy    TOTEN  =         6.89127315 eV

  energy without entropy =        6.89286041  energy(sigma->0) =        6.89206678
  exchange ACFDT corr.  =        -0.13109993  see jH, gK, PRB 81, 115126


--------------------------------------------------------------------------------------------------------




--------------------------------------- Iteration      1(   7)  ---------------------------------------


    POTLOK:  cpu time    0.1662: real time    0.1662
    SETDIJ:  cpu time    0.0886: real time    0.0886
    TRIAL :  cpu time    5.7953: real time    5.7954
    CORREC:  cpu time    6.2895: real time    6.2894
    CHARGE:  cpu time    0.2753: real time    0.2752
    --------------------------------------------
      LOOP:  cpu time   12.6157: real time   12.6155

 eigenvalue-minimisations  :     0
 total energy-change (2. order) :-0.5470970E+01  (-0.3593562E+01)
 number of electron       8.0000000 magnetization 
 augmentation part       -0.4496188 magnetization 

 Free energy of the ion-electron system (eV)
  ---------------------------------------------------
  alpha Z        PSCENC =         3.29228976
  Ewald energy   TEWEN  =      -226.92444198
  -Hartree energ DENC   =       -13.61147998
  -exchange      EXHF   =         9.58841937
  -V(xc)+E(xc)   XCENC  =       -14.59394932
  PAW double counting   =      3390.00873050    -3362.29434773
  entropy T*S    EENTRO =        -0.00038885
  eigenvalues    EBANDS =        11.95933450
  atomic energy  EATOM  =       203.99733562
  ---------------------------------------------------
  free energy    TOTEN  =         1.42030348 eV

  energy without entropy =        1.42069232  energy(sigma->0) =        1.42049790
  exchange ACFDT corr.  =        -0.22431673  see jH, gK, PRB 81, 115126


--------------------------------------------------------------------------------------------------------




--------------------------------------- Iteration      1(   8)  ---------------------------------------


    POTLOK:  cpu time    0.1901: real time    0.1901
    SETDIJ:  cpu time    0.0727: real time    0.0727
    TRIAL :  cpu time    6.0155: real time    6.0153
    CORREC:  cpu time    7.6195: real time    7.6201
    CHARGE:  cpu time    0.3508: real time    0.3507
    --------------------------------------------
      LOOP:  cpu time   14.2488: real time   14.2493

 eigenvalue-minimisations  :     0
 total energy-change (2. order) :-0.4989358E+01  ( 0.1796731E+01)
 number of electron       8.0000000 magnetization 
 augmentation part       -0.4454572 magnetization 

 Free energy of the ion-electron system (eV)
  ---------------------------------------------------
  alpha Z        PSCENC =         3.29228976
  Ewald energy   TEWEN  =      -226.92444198
  -Hartree energ DENC   =       -14.09983622
  -exchange      EXHF   =        10.09092263
  -V(xc)+E(xc)   XCENC  =       -14.54941403
  PAW double counting   =      4297.09717518    -4269.42703938
  entropy T*S    EENTRO =        -0.00227558
  eigenvalues    EBANDS =         6.95434226
  atomic energy  EATOM  =       203.99733562
  ---------------------------------------------------
  free energy    TOTEN  =        -3.56905501 eV

  energy without entropy =       -3.56677942  energy(sigma->0) =       -3.56791722
  exchange ACFDT corr.  =        -0.13576176  see jH, gK, PRB 81, 115126


--------------------------------------------------------------------------------------------------------




--------------------------------------- Iteration      1(   9)  ---------------------------------------


    POTLOK:  cpu time    0.1786: real time    0.1786
    SETDIJ:  cpu time    0.1252: real time    0.1252
    TRIAL :  cpu time    7.2863: real time    7.2872
    CORREC:  cpu time    7.2754: real time    7.2761
    CHARGE:  cpu time    0.3453: real time    0.3454
    --------------------------------------------
      LOOP:  cpu time   15.2113: real time   15.2129

 eigenvalue-minimisations  :     0
 total energy-change (2. order) :-0.4922036E+01  (-0.5723703E+00)
 number of electron       8.0000000 magnetization 
 augmentation part       -0.4392575 magnetization 

 Free energy of the ion-electron system (eV)
  ---------------------------------------------------
  alpha Z        PSCENC =         3.29228976
  Ewald energy   TEWEN  =      -226.92444198
  -Hartree energ DENC   =       -14.82804677
  -exchange      EXHF   =        10.77386570
  -V(xc)+E(xc)   XCENC  =       -14.49007656
  PAW double counting   =      6739.17579439    -6711.53116738
  entropy T*S    EENTRO =        -0.00105329
  eigenvalues    EBANDS =         2.04563158
  atomic energy  EATOM  =       203.99733562
  ---------------------------------------------------
  free energy    TOTEN  =        -8.49109123 eV

  energy without entropy =       -8.49003794  energy(sigma->0) =       -8.49056459
  exchange ACFDT corr.  =        -0.00678446  see jH, gK, PRB 81, 115126


--------------------------------------------------------------------------------------------------------




--------------------------------------- Iteration      1(  10)  ---------------------------------------


    POTLOK:  cpu time    0.1928: real time    0.1928
    SETDIJ:  cpu time    0.0739: real time    0.0739
    TRIAL :  cpu time    6.8959: real time    6.8972
    CORREC:  cpu time    7.1740: real time    7.1752
    CHARGE:  cpu time    0.2937: real time    0.2938
    --------------------------------------------
      LOOP:  cpu time   14.6343: real time   14.6368

 eigenvalue-minimisations  :     0
 total energy-change (2. order) :-0.6099334E+00  (-0.2787812E+00)
 number of electron       8.0000000 magnetization 
 augmentation part       -0.4363589 magnetization 

 Free energy of the ion-electron system (eV)
  ---------------------------------------------------
  alpha Z        PSCENC =         3.29228976
  Ewald energy   TEWEN  =      -226.92444198
  -Hartree energ DENC   =       -14.75490333
  -exchange      EXHF   =        10.85540653
  -V(xc)+E(xc)   XCENC  =       -14.49226806
  PAW double counting   =      7070.51413305    -7042.86181242
  entropy T*S    EENTRO =        -0.00066988
  eigenvalues    EBANDS =         1.27428949
  atomic energy  EATOM  =       203.99733562
  ---------------------------------------------------
  free energy    TOTEN  =        -9.10102464 eV

  energy without entropy =       -9.10035476  energy(sigma->0) =       -9.10068970
  exchange ACFDT corr.  =        -0.03423625  see jH, gK, PRB 81, 115126


--------------------------------------------------------------------------------------------------------




--------------------------------------- Iteration      1(  11)  ---------------------------------------


    POTLOK:  cpu time    0.1690: real time    0.1690
    SETDIJ:  cpu time    0.1191: real time    0.1191
    TRIAL :  cpu time    6.5641: real time    6.5653
    CORREC:  cpu time    7.2991: real time    7.2999
    CHARGE:  cpu time    0.3028: real time    0.3029
    --------------------------------------------
      LOOP:  cpu time   14.4598: real time   14.4619

 eigenvalue-minimisations  :     0
 total energy-change (2. order) : 0.6679859E+00  (-0.2561406E+01)
 number of electron       8.0000000 magnetization 
 augmentation part       -0.4367048 magnetization 

 Free energy of the ion-electron system (eV)
  ---------------------------------------------------
  alpha Z        PSCENC =         3.29228976
  Ewald energy   TEWEN  =      -226.92444198
  -Hartree energ DENC   =       -14.36340295
  -exchange      EXHF   =        10.77690859
  -V(xc)+E(xc)   XCENC  =       -14.52435799
  PAW double counting   =      8756.49603633    -8728.82784830
  entropy T*S    EENTRO =        -0.00000000
  eigenvalues    EBANDS =         1.64511211
  atomic energy  EATOM  =       203.99733562
  ---------------------------------------------------
  free energy    TOTEN  =        -8.43303869 eV

  energy without entropy =       -8.43303869  energy(sigma->0) =       -8.43303869
  exchange ACFDT corr.  =        -0.11344511  see jH, gK, PRB 81, 115126


--------------------------------------------------------------------------------------------------------




--------------------------------------- Iteration      1(  12)  ---------------------------------------


    POTLOK:  cpu time    0.1731: real time    0.1731
    SETDIJ:  cpu time    0.0816: real time    0.0816
    TRIAL :  cpu time    7.0231: real time    7.0239
    CORREC:  cpu time    7.5487: real time    7.5492
    CHARGE:  cpu time    0.3091: real time    0.3092
    --------------------------------------------
      LOOP:  cpu time   15.1362: real time   15.1376

 eigenvalue-minimisations  :     0
 total energy-change (2. order) :-0.2363064E+01  (-0.7961482E+00)
 number of electron       8.0000000 magnetization 
 augmentation part       -0.4386375 magnetization 

 Free energy of the ion-electron system (eV)
  ---------------------------------------------------
  alpha Z        PSCENC =         3.29228976
  Ewald energy   TEWEN  =      -226.92444198
  -Hartree energ DENC   =       -14.90206645
  -exchange      EXHF   =        11.04048573
  -V(xc)+E(xc)   XCENC  =       -14.47317414
  PAW double counting   =      2937.30079134    -2909.64169987
  entropy T*S    EENTRO =        -0.00000000
  eigenvalues    EBANDS =        -0.48562257
  atomic energy  EATOM  =       203.99733562
  ---------------------------------------------------
  free energy    TOTEN  =       -10.79610256 eV

  energy without entropy =      -10.79610256  energy(sigma->0) =      -10.79610256
  exchange ACFDT corr.  =        -0.00000000  see jH, gK, PRB 81, 115126


--------------------------------------------------------------------------------------------------------




--------------------------------------- Iteration      1(  13)  ---------------------------------------


    POTLOK:  cpu time    0.1759: real time    0.1760
    SETDIJ:  cpu time    0.0724: real time    0.0724
    TRIAL :  cpu time    7.0007: real time    7.0023
    CORREC:  cpu time    7.6190: real time    7.6197
    CHARGE:  cpu time    0.3496: real time    0.3496
    --------------------------------------------
      LOOP:  cpu time   15.2182: real time   15.2204

 eigenvalue-minimisations  :     0
 total energy-change (2. order) :-0.7847676E+00  (-0.5948694E+00)
 number of electron       8.0000000 magnetization 
 augmentation part       -0.4363035 magnetization 

 Free energy of the ion-electron system (eV)
  ---------------------------------------------------
  alpha Z        PSCENC =         3.29228976
  Ewald energy   TEWEN  =      -226.92444198
  -Hartree energ DENC   =       -15.06853988
  -exchange      EXHF   =        11.12414814
  -V(xc)+E(xc)   XCENC  =       -14.46106128
  PAW double counting   =      2330.19245903    -2302.53460199
  entropy T*S    EENTRO =        -0.00000000
  eigenvalues    EBANDS =        -1.19845758
  atomic energy  EATOM  =       203.99733562
  ---------------------------------------------------
  free energy    TOTEN  =       -11.58087016 eV

  energy without entropy =      -11.58087016  energy(sigma->0) =      -11.58087016
  exchange ACFDT corr.  =         0.00000000  see jH, gK, PRB 81, 115126


--------------------------------------------------------------------------------------------------------




--------------------------------------- Iteration      1(  14)  ---------------------------------------


    POTLOK:  cpu time    0.1891: real time    0.1891
    SETDIJ:  cpu time    0.1178: real time    0.1178
    TRIAL :  cpu time    7.8456: real time    7.8460
    CORREC:  cpu time    8.0083: real time    8.0084
    CHARGE:  cpu time    0.3099: real time    0.3098
    --------------------------------------------
      LOOP:  cpu time   16.4746: real time   16.4751

 eigenvalue-minimisations  :     0
 total energy-change (2. order) :-0.5567368E+00  (-0.2124872E+00)
 number of electron       8.0000000 magnetization 
 augmentation part       -0.4340484 magnetization 

 Free energy of the ion-electron system (eV)
  ---------------------------------------------------
  alpha Z        PSCENC =         3.29228976
  Ewald energy   TEWEN  =      -226.92444198
  -Hartree energ DENC   =       -15.20665780
  -exchange      EXHF   =        11.19990469
  -V(xc)+E(xc)   XCENC  =       -14.44682784
  PAW double counting   =      1876.72257031    -1849.06660691
  entropy T*S    EENTRO =        -0.00000000
  eigenvalues    EBANDS =        -1.70517283
  atomic energy  EATOM  =       203.99733562
  ---------------------------------------------------
  free energy    TOTEN  =       -12.13760699 eV

  energy without entropy =      -12.13760699  energy(sigma->0) =      -12.13760699
  exchange ACFDT corr.  =        -0.00000000  see jH, gK, PRB 81, 115126


--------------------------------------------------------------------------------------------------------




--------------------------------------- Iteration      1(  15)  ---------------------------------------


    POTLOK:  cpu time    0.1752: real time    0.1752
    SETDIJ:  cpu time    0.0944: real time    0.0943
    TRIAL :  cpu time    7.2331: real time    7.2333
    CORREC:  cpu time    8.3104: real time    8.3167
    CHARGE:  cpu time    0.3319: real time    0.3320
    --------------------------------------------
      LOOP:  cpu time   16.1475: real time   16.1541

 eigenvalue-minimisations  :     0
 total energy-change (2. order) :-0.1864830E+00  (-0.8093201E-01)
 number of electron       8.0000000 magnetization 
 augmentation part       -0.4334508 magnetization 

 Free energy of the ion-electron system (eV)
  ---------------------------------------------------
  alpha Z        PSCENC =         3.29228976
  Ewald energy   TEWEN  =      -226.92444198
  -Hartree energ DENC   =       -15.21791241
  -exchange      EXHF   =        11.21826970
  -V(xc)+E(xc)   XCENC  =       -14.44385270
  PAW double counting   =      1832.27119206    -1804.61724252
  entropy T*S    EENTRO =        -0.00000000
  eigenvalues    EBANDS =        -1.89972754
  atomic energy  EATOM  =       203.99733562
  ---------------------------------------------------
  free energy    TOTEN  =       -12.32409001 eV

  energy without entropy =      -12.32409001  energy(sigma->0) =      -12.32409001
  exchange ACFDT corr.  =        -0.00000000  see jH, gK, PRB 81, 115126


--------------------------------------------------------------------------------------------------------




--------------------------------------- Iteration      1(  16)  ---------------------------------------


    POTLOK:  cpu time    0.1876: real time    0.1877
    SETDIJ:  cpu time    0.1061: real time    0.1062
    TRIAL :  cpu time    7.9464: real time    7.9488
    CORREC:  cpu time    8.6221: real time    8.6230
    CHARGE:  cpu time    0.3446: real time    0.3445
    --------------------------------------------
      LOOP:  cpu time   17.2086: real time   17.2120

 eigenvalue-minimisations  :     0
 total energy-change (2. order) :-0.8317793E-01  (-0.5547090E-01)
 number of electron       8.0000000 magnetization 
 augmentation part       -0.4334432 magnetization 

 Free energy of the ion-electron system (eV)
  ---------------------------------------------------
  alpha Z        PSCENC =         3.29228976
  Ewald energy   TEWEN  =      -226.92444198
  -Hartree energ DENC   =       -15.20969506
  -exchange      EXHF   =        11.21597239
  -V(xc)+E(xc)   XCENC  =       -14.44394970
  PAW double counting   =      1831.42065507    -1803.76820221
  entropy T*S    EENTRO =        -0.00000000
  eigenvalues    EBANDS =        -1.98723183
  atomic energy  EATOM  =       203.99733562
  ---------------------------------------------------
  free energy    TOTEN  =       -12.40726794 eV

  energy without entropy =      -12.40726794  energy(sigma->0) =      -12.40726794
  exchange ACFDT corr.  =        -0.00000000  see jH, gK, PRB 81, 115126


--------------------------------------------------------------------------------------------------------




--------------------------------------- Iteration      1(  17)  ---------------------------------------


    POTLOK:  cpu time    0.1864: real time    0.1864
    SETDIJ:  cpu time    0.1266: real time    0.1266
    TRIAL :  cpu time    8.0295: real time    8.0295
    CORREC:  cpu time   10.0205: real time   10.0212
    CHARGE:  cpu time    0.3636: real time    0.3636
    --------------------------------------------
      LOOP:  cpu time   18.7277: real time   18.7284

 eigenvalue-minimisations  :     0
 total energy-change (2. order) :-0.5654264E-01  (-0.3227183E-01)
 number of electron       8.0000000 magnetization 
 augmentation part       -0.4336809 magnetization 

 Free energy of the ion-electron system (eV)
  ---------------------------------------------------
  alpha Z        PSCENC =         3.29228976
  Ewald energy   TEWEN  =      -226.92444198
  -Hartree energ DENC   =       -15.20940348
  -exchange      EXHF   =        11.21537440
  -V(xc)+E(xc)   XCENC  =       -14.44373201
  PAW double counting   =      1769.80042716    -1742.14940250
  entropy T*S    EENTRO =        -0.00000000
  eigenvalues    EBANDS =        -2.04225753
  atomic energy  EATOM  =       203.99733562
  ---------------------------------------------------
  free energy    TOTEN  =       -12.46381058 eV

  energy without entropy =      -12.46381058  energy(sigma->0) =      -12.46381058
  exchange ACFDT corr.  =        -0.00000000  see jH, gK, PRB 81, 115126


--------------------------------------------------------------------------------------------------------




--------------------------------------- Iteration      1(  18)  ---------------------------------------


    POTLOK:  cpu time    0.1989: real time    0.1989
    SETDIJ:  cpu time    0.1010: real time    0.1010
    TRIAL :  cpu time    7.7326: real time    7.7339
    CORREC:  cpu time    8.6871: real time    8.6872
    CHARGE:  cpu time    0.2794: real time    0.2794
    --------------------------------------------
      LOOP:  cpu time   17.0012: real time   17.0025

 eigenvalue-minimisations  :     0
 total energy-change (2. order) :-0.3260546E-01  (-0.2420990E-01)
 number of electron       8.0000000 magnetization 
 augmentation part       -0.4340138 magnetization 

 Free energy of the ion-electron system (eV)
  ---------------------------------------------------
  alpha Z        PSCENC =         3.29228976
  Ewald energy   TEWEN  =      -226.92444198
  -Hartree energ DENC   =       -15.21388525
  -exchange      EXHF   =        11.21745721
  -V(xc)+E(xc)   XCENC  =       -14.44341615
  PAW double counting   =      1695.31409969    -1667.66408033
  entropy T*S    EENTRO =        -0.00000000
  eigenvalues    EBANDS =        -2.07177460
  atomic energy  EATOM  =       203.99733562
  ---------------------------------------------------
  free energy    TOTEN  =       -12.49641604 eV

  energy without entropy =      -12.49641604  energy(sigma->0) =      -12.49641604
  exchange ACFDT corr.  =        -0.00000000  see jH, gK, PRB 81, 115126


--------------------------------------------------------------------------------------------------------




--------------------------------------- Iteration      1(  19)  ---------------------------------------


    POTLOK:  cpu time    0.1932: real time    0.1932
    SETDIJ:  cpu time    0.0897: real time    0.0899
    TRIAL :  cpu time    8.0705: real time    8.0711
    CORREC:  cpu time    7.2206: real time    7.2214
    CHARGE:  cpu time    0.2757: real time    0.2756
    --------------------------------------------
      LOOP:  cpu time   15.8503: real time   15.8519

 eigenvalue-minimisations  :     0
 total energy-change (2. order) :-0.2404298E-01  (-0.2066342E-01)
 number of electron       8.0000000 magnetization 
 augmentation part       -0.4343371 magnetization 

 Free energy of the ion-electron system (eV)
  ---------------------------------------------------
  alpha Z        PSCENC =         3.29228976
  Ewald energy   TEWEN  =      -226.92444198
  -Hartree energ DENC   =       -15.21623666
  -exchange      EXHF   =        11.21969723
  -V(xc)+E(xc)   XCENC  =       -14.44356486
  PAW double counting   =      1646.93107101    -1619.28150582
  entropy T*S    EENTRO =        -0.00000000
  eigenvalues    EBANDS =        -2.09510333
  atomic energy  EATOM  =       203.99733562
  ---------------------------------------------------
  free energy    TOTEN  =       -12.52045902 eV

  energy without entropy =      -12.52045902  energy(sigma->0) =      -12.52045902
  exchange ACFDT corr.  =        -0.00000000  see jH, gK, PRB 81, 115126


--------------------------------------------------------------------------------------------------------




--------------------------------------- Iteration      1(  20)  ---------------------------------------


    POTLOK:  cpu time    0.1748: real time    0.1748
    SETDIJ:  cpu time    0.0785: real time    0.0785
    TRIAL :  cpu time    7.2646: real time    7.2657
    CORREC:  cpu time    7.8931: real time    7.8931
    CHARGE:  cpu time    0.3158: real time    0.3158
    --------------------------------------------
      LOOP:  cpu time   15.7280: real time   15.7292

 eigenvalue-minimisations  :     0
 total energy-change (2. order) :-0.2025916E-01  (-0.1417805E-01)
 number of electron       8.0000000 magnetization 
 augmentation part       -0.4344656 magnetization 

 Free energy of the ion-electron system (eV)
  ---------------------------------------------------
  alpha Z        PSCENC =         3.29228976
  Ewald energy   TEWEN  =      -226.92444198
  -Hartree energ DENC   =       -15.21282323
  -exchange      EXHF   =        11.22081228
  -V(xc)+E(xc)   XCENC  =       -14.44436600
  PAW double counting   =      1640.55668266    -1612.90700645
  entropy T*S    EENTRO =        -0.00000000
  eigenvalues    EBANDS =        -2.11920084
  atomic energy  EATOM  =       203.99733562
  ---------------------------------------------------
  free energy    TOTEN  =       -12.54071818 eV

  energy without entropy =      -12.54071818  energy(sigma->0) =      -12.54071818
  exchange ACFDT corr.  =        -0.00000000  see jH, gK, PRB 81, 115126


--------------------------------------------------------------------------------------------------------




--------------------------------------- Iteration      1(  21)  ---------------------------------------


    POTLOK:  cpu time    0.1894: real time    0.1894
    SETDIJ:  cpu time    0.0890: real time    0.0890
    TRIAL :  cpu time    7.6958: real time    7.6960
    CORREC:  cpu time    7.4694: real time    7.4699
    CHARGE:  cpu time    0.2828: real time    0.2828
    --------------------------------------------
      LOOP:  cpu time   15.7284: real time   15.7291

 eigenvalue-minimisations  :     0
 total energy-change (2. order) :-0.1368131E-01  (-0.8974603E-02)
 number of electron       8.0000000 magnetization 
 augmentation part       -0.4344141 magnetization 

 Free energy of the ion-electron system (eV)
  ---------------------------------------------------
  alpha Z        PSCENC =         3.29228976
  Ewald energy   TEWEN  =      -226.92444198
  -Hartree energ DENC   =       -15.20305070
  -exchange      EXHF   =        11.22041014
  -V(xc)+E(xc)   XCENC  =       -14.44543219
  PAW double counting   =      1652.83337213    -1625.18310231
  entropy T*S    EENTRO =        -0.00000000
  eigenvalues    EBANDS =        -2.14177996
  atomic energy  EATOM  =       203.99733562
  ---------------------------------------------------
  free energy    TOTEN  =       -12.55439949 eV

  energy without entropy =      -12.55439949  energy(sigma->0) =      -12.55439949
  exchange ACFDT corr.  =        -0.00000000  see jH, gK, PRB 81, 115126


--------------------------------------------------------------------------------------------------------




--------------------------------------- Iteration      1(  22)  ---------------------------------------


    POTLOK:  cpu time    0.1641: real time    0.1642
    SETDIJ:  cpu time    0.0969: real time    0.0969
    TRIAL :  cpu time    6.9199: real time    6.9241
    CORREC:  cpu time    7.8009: real time    7.8068
    CHARGE:  cpu time    0.3989: real time    0.4051
    --------------------------------------------
      LOOP:  cpu time   15.3821: real time   15.3985

 eigenvalue-minimisations  :     0
 total energy-change (2. order) :-0.8468152E-02  (-0.6459282E-02)
 number of electron       8.0000000 magnetization 
 augmentation part       -0.4342984 magnetization 

 Free energy of the ion-electron system (eV)
  ---------------------------------------------------
  alpha Z        PSCENC =         3.29228976
  Ewald energy   TEWEN  =      -226.92444198
  -Hartree energ DENC   =       -15.19281910
  -exchange      EXHF   =        11.21947120
  -V(xc)+E(xc)   XCENC  =       -14.44616335
  PAW double counting   =      1651.26686908    -1623.61594825
  entropy T*S    EENTRO =        -0.00000000
  eigenvalues    EBANDS =        -2.15946062
  atomic energy  EATOM  =       203.99733562
  ---------------------------------------------------
  free energy    TOTEN  =       -12.56286764 eV

  energy without entropy =      -12.56286764  energy(sigma->0) =      -12.56286764
  exchange ACFDT corr.  =        -0.00000000  see jH, gK, PRB 81, 115126


--------------------------------------------------------------------------------------------------------




--------------------------------------- Iteration      1(  23)  ---------------------------------------


    POTLOK:  cpu time    0.2140: real time    0.2141
    SETDIJ:  cpu time    0.1649: real time    0.1649
    TRIAL :  cpu time    8.0655: real time    8.0690
    CORREC:  cpu time    6.7325: real time    6.7343
    CHARGE:  cpu time    0.2985: real time    0.2985
    --------------------------------------------
      LOOP:  cpu time   15.4758: real time   15.4811

 eigenvalue-minimisations  :     0
 total energy-change (2. order) :-0.6282702E-02  (-0.4955584E-02)
 number of electron       8.0000000 magnetization 
 augmentation part       -0.4342160 magnetization 

 Free energy of the ion-electron system (eV)
  ---------------------------------------------------
  alpha Z        PSCENC =         3.29228976
  Ewald energy   TEWEN  =      -226.92444198
  -Hartree energ DENC   =       -15.18981371
  -exchange      EXHF   =        11.21927820
  -V(xc)+E(xc)   XCENC  =       -14.44612637
  PAW double counting   =      1634.90523473    -1607.25398946
  entropy T*S    EENTRO =        -0.00000000
  eigenvalues    EBANDS =        -2.16891713
  atomic energy  EATOM  =       203.99733562
  ---------------------------------------------------
  free energy    TOTEN  =       -12.56915035 eV

  energy without entropy =      -12.56915035  energy(sigma->0) =      -12.56915035
  exchange ACFDT corr.  =        -0.00000000  see jH, gK, PRB 81, 115126


--------------------------------------------------------------------------------------------------------




--------------------------------------- Iteration      1(  24)  ---------------------------------------


    POTLOK:  cpu time    0.1620: real time    0.1620
    SETDIJ:  cpu time    0.0908: real time    0.0908
    TRIAL :  cpu time    6.7488: real time    6.7550
    CORREC:  cpu time    7.0632: real time    7.0666
    CHARGE:  cpu time    0.3123: real time    0.3123
    --------------------------------------------
      LOOP:  cpu time   14.3789: real time   14.3885

 eigenvalue-minimisations  :     0
 total energy-change (2. order) :-0.4928063E-02  (-0.3482772E-02)
 number of electron       8.0000000 magnetization 
 augmentation part       -0.4341875 magnetization 

 Free energy of the ion-electron system (eV)
  ---------------------------------------------------
  alpha Z        PSCENC =         3.29228976
  Ewald energy   TEWEN  =      -226.92444198
  -Hartree energ DENC   =       -15.19737410
  -exchange      EXHF   =        11.22040203
  -V(xc)+E(xc)   XCENC  =       -14.44528639
  PAW double counting   =      1620.68463784    -1593.03360429
  entropy T*S    EENTRO =        -0.00000000
  eigenvalues    EBANDS =        -2.16803689
  atomic energy  EATOM  =       203.99733562
  ---------------------------------------------------
  free energy    TOTEN  =       -12.57407841 eV

  energy without entropy =      -12.57407841  energy(sigma->0) =      -12.57407841
  exchange ACFDT corr.  =        -0.00000000  see jH, gK, PRB 81, 115126


--------------------------------------------------------------------------------------------------------




--------------------------------------- Iteration      1(  25)  ---------------------------------------


    POTLOK:  cpu time    0.1736: real time    0.1736
    SETDIJ:  cpu time    0.1082: real time    0.1082
    TRIAL :  cpu time    6.5607: real time    6.5635
    CORREC:  cpu time    6.9037: real time    6.9062
    CHARGE:  cpu time    0.2956: real time    0.2957
    --------------------------------------------
      LOOP:  cpu time   14.0430: real time   14.0484

 eigenvalue-minimisations  :     0
 total energy-change (2. order) :-0.3479766E-02  (-0.2242191E-02)
 number of electron       8.0000000 magnetization 
 augmentation part       -0.4341707 magnetization 

 Free energy of the ion-electron system (eV)
  ---------------------------------------------------
  alpha Z        PSCENC =         3.29228976
  Ewald energy   TEWEN  =      -226.92444198
  -Hartree energ DENC   =       -15.20946758
  -exchange      EXHF   =        11.22219967
  -V(xc)+E(xc)   XCENC  =       -14.44424207
  PAW double counting   =      1620.19165753    -1592.54114528
  entropy T*S    EENTRO =        -0.00000000
  eigenvalues    EBANDS =        -2.16174385
  atomic energy  EATOM  =       203.99733562
  ---------------------------------------------------
  free energy    TOTEN  =       -12.57755817 eV

  energy without entropy =      -12.57755817  energy(sigma->0) =      -12.57755817
  exchange ACFDT corr.  =        -0.00000000  see jH, gK, PRB 81, 115126


--------------------------------------------------------------------------------------------------------




--------------------------------------- Iteration      1(  26)  ---------------------------------------


    POTLOK:  cpu time    0.1974: real time    0.1974
    SETDIJ:  cpu time    0.0564: real time    0.0564
    TRIAL :  cpu time    6.9243: real time    6.9448
    CORREC:  cpu time    7.2776: real time    7.2792
    CHARGE:  cpu time    0.2812: real time    0.2813
    --------------------------------------------
      LOOP:  cpu time   14.7372: real time   14.7593

 eigenvalue-minimisations  :     0
 total energy-change (2. order) :-0.2242218E-02  (-0.1410515E-02)
 number of electron       8.0000000 magnetization 
 augmentation part       -0.4341399 magnetization 

 Free energy of the ion-electron system (eV)
  ---------------------------------------------------
  alpha Z        PSCENC =         3.29228976
  Ewald energy   TEWEN  =      -226.92444198
  -Hartree energ DENC   =       -15.21762357
  -exchange      EXHF   =        11.22363141
  -V(xc)+E(xc)   XCENC  =       -14.44359200
  PAW double counting   =      1624.75491430    -1597.10478752
  entropy T*S    EENTRO =        -0.00000000
  eigenvalues    EBANDS =        -2.15752641
  atomic energy  EATOM  =       203.99733562
  ---------------------------------------------------
  free energy    TOTEN  =       -12.57980039 eV

  energy without entropy =      -12.57980039  energy(sigma->0) =      -12.57980039
  exchange ACFDT corr.  =        -0.00000000  see jH, gK, PRB 81, 115126


--------------------------------------------------------------------------------------------------------




--------------------------------------- Iteration      1(  27)  ---------------------------------------


    POTLOK:  cpu time    0.1589: real time    0.1589
    SETDIJ:  cpu time    0.1016: real time    0.1016
    TRIAL :  cpu time    6.4638: real time    6.4656
    CORREC:  cpu time    6.5815: real time    6.5821
    CHARGE:  cpu time    0.2831: real time    0.2832
    --------------------------------------------
      LOOP:  cpu time   13.5913: real time   13.5937

 eigenvalue-minimisations  :     0
 total energy-change (2. order) :-0.1410504E-02  (-0.8947775E-03)
 number of electron       8.0000000 magnetization 
 augmentation part       -0.4341105 magnetization 

 Free energy of the ion-electron system (eV)
  ---------------------------------------------------
  alpha Z        PSCENC =         3.29228976
  Ewald energy   TEWEN  =      -226.92444198
  -Hartree energ DENC   =       -15.22002063
  -exchange      EXHF   =        11.22437144
  -V(xc)+E(xc)   XCENC  =       -14.44339826
  PAW double counting   =      1625.28710461    -1597.63709515
  entropy T*S    EENTRO =        -0.00000000
  eigenvalues    EBANDS =        -2.15735631
  atomic energy  EATOM  =       203.99733562
  ---------------------------------------------------
  free energy    TOTEN  =       -12.58121090 eV

  energy without entropy =      -12.58121090  energy(sigma->0) =      -12.58121090
  exchange ACFDT corr.  =        -0.00000000  see jH, gK, PRB 81, 115126


--------------------------------------------------------------------------------------------------------




--------------------------------------- Iteration      1(  28)  ---------------------------------------


    POTLOK:  cpu time    0.1672: real time    0.1672
    SETDIJ:  cpu time    0.0747: real time    0.0747
    TRIAL :  cpu time    6.0797: real time    6.0807
    CORREC:  cpu time    6.4931: real time    6.4940
    CHARGE:  cpu time    0.2665: real time    0.2666
    --------------------------------------------
      LOOP:  cpu time   13.0814: real time   13.0835

 eigenvalue-minimisations  :     0
 total energy-change (2. order) :-0.8950153E-03  (-0.5421779E-03)
 number of electron       8.0000000 magnetization 
 augmentation part       -0.4340985 magnetization 

 Free energy of the ion-electron system (eV)
  ---------------------------------------------------
  alpha Z        PSCENC =         3.29228976
  Ewald energy   TEWEN  =      -226.92444198
  -Hartree energ DENC   =       -15.21963668
  -exchange      EXHF   =        11.22466064
  -V(xc)+E(xc)   XCENC  =       -14.44342127
  PAW double counting   =      1622.64869549    -1594.99862307
  entropy T*S    EENTRO =        -0.00000000
  eigenvalues    EBANDS =        -2.15896442
  atomic energy  EATOM  =       203.99733562
  ---------------------------------------------------
  free energy    TOTEN  =       -12.58210591 eV

  energy without entropy =      -12.58210591  energy(sigma->0) =      -12.58210591
  exchange ACFDT corr.  =        -0.00000000  see jH, gK, PRB 81, 115126


--------------------------------------------------------------------------------------------------------




--------------------------------------- Iteration      1(  29)  ---------------------------------------


    POTLOK:  cpu time    0.1672: real time    0.1672
    SETDIJ:  cpu time    0.0831: real time    0.0831
    TRIAL :  cpu time    6.2510: real time    6.2524
    CORREC:  cpu time    6.6400: real time    6.6416
    CHARGE:  cpu time    0.2654: real time    0.2656
    --------------------------------------------
      LOOP:  cpu time   13.4072: real time   13.4103

 eigenvalue-minimisations  :     0
 total energy-change (2. order) :-0.5428040E-03  (-0.3119379E-03)
 number of electron       8.0000000 magnetization 
 augmentation part       -0.4341033 magnetization 

 Free energy of the ion-electron system (eV)
  ---------------------------------------------------
  alpha Z        PSCENC =         3.29228976
  Ewald energy   TEWEN  =      -226.92444198
  -Hartree energ DENC   =       -15.21901117
  -exchange      EXHF   =        11.22473951
  -V(xc)+E(xc)   XCENC  =       -14.44347557
  PAW double counting   =      1620.71295119    -1593.06277669
  entropy T*S    EENTRO =        -0.00000000
  eigenvalues    EBANDS =        -2.16025938
  atomic energy  EATOM  =       203.99733562
  ---------------------------------------------------
  free energy    TOTEN  =       -12.58264872 eV

  energy without entropy =      -12.58264872  energy(sigma->0) =      -12.58264872
  exchange ACFDT corr.  =        -0.00000000  see jH, gK, PRB 81, 115126


--------------------------------------------------------------------------------------------------------




--------------------------------------- Iteration      1(  30)  ---------------------------------------


    POTLOK:  cpu time    0.1717: real time    0.1717
    SETDIJ:  cpu time    0.0718: real time    0.0718
    TRIAL :  cpu time    6.1063: real time    6.1085
    CORREC:  cpu time    6.5172: real time    6.5222
    CHARGE:  cpu time    0.2693: real time    0.2694
    --------------------------------------------
      LOOP:  cpu time   13.1378: real time   13.1450

 eigenvalue-minimisations  :     0
 total energy-change (2. order) :-0.3119752E-03  (-0.1954067E-03)
 number of electron       8.0000000 magnetization 
 augmentation part       -0.4341159 magnetization 

 Free energy of the ion-electron system (eV)
  ---------------------------------------------------
  alpha Z        PSCENC =         3.29228976
  Ewald energy   TEWEN  =      -226.92444198
  -Hartree energ DENC   =       -15.21877075
  -exchange      EXHF   =        11.22471442
  -V(xc)+E(xc)   XCENC  =       -14.44351212
  PAW double counting   =      1620.09627447    -1592.44603895
  entropy T*S    EENTRO =        -0.00000000
  eigenvalues    EBANDS =        -2.16081116
  atomic energy  EATOM  =       203.99733562
  ---------------------------------------------------
  free energy    TOTEN  =       -12.58296069 eV

  energy without entropy =      -12.58296069  energy(sigma->0) =      -12.58296069
  exchange ACFDT corr.  =        -0.00000000  see jH, gK, PRB 81, 115126


--------------------------------------------------------------------------------------------------------




--------------------------------------- Iteration      1(  31)  ---------------------------------------


    POTLOK:  cpu time    0.1594: real time    0.1594
    SETDIJ:  cpu time    0.1277: real time    0.1277
    TRIAL :  cpu time    6.1583: real time    6.1599
    CORREC:  cpu time    6.5864: real time    6.5895
    CHARGE:  cpu time    0.2693: real time    0.2693
    --------------------------------------------
      LOOP:  cpu time   13.3014: real time   13.3060

 eigenvalue-minimisations  :     0
 total energy-change (2. order) :-0.1950691E-03  (-0.1356267E-03)
 number of electron       8.0000000 magnetization 
 augmentation part       -0.4341269 magnetization 

 Free energy of the ion-electron system (eV)
  ---------------------------------------------------
  alpha Z        PSCENC =         3.29228976
  Ewald energy   TEWEN  =      -226.92444198
  -Hartree energ DENC   =       -15.21843282
  -exchange      EXHF   =        11.22460188
  -V(xc)+E(xc)   XCENC  =       -14.44355559
  PAW double counting   =      1619.78477935    -1592.13451031
  entropy T*S    EENTRO =        -0.00000000
  eigenvalues    EBANDS =        -2.16122167
  atomic energy  EATOM  =       203.99733562
  ---------------------------------------------------
  free energy    TOTEN  =       -12.58315576 eV

  energy without entropy =      -12.58315576  energy(sigma->0) =      -12.58315576
  exchange ACFDT corr.  =        -0.00000000  see jH, gK, PRB 81, 115126


--------------------------------------------------------------------------------------------------------




--------------------------------------- Iteration      1(  32)  ---------------------------------------


    POTLOK:  cpu time    0.1617: real time    0.1617
    SETDIJ:  cpu time    0.0875: real time    0.0875
    TRIAL :  cpu time    5.9813: real time    5.9825
    CORREC:  cpu time    6.4984: real time    6.4991
    CHARGE:  cpu time    0.2907: real time    0.2908
    --------------------------------------------
      LOOP:  cpu time   13.0224: real time   13.0242

 eigenvalue-minimisations  :     0
 total energy-change (2. order) :-0.1351540E-03  (-0.9600104E-04)
 number of electron       8.0000000 magnetization 
 augmentation part       -0.4341331 magnetization 

 Free energy of the ion-electron system (eV)
  ---------------------------------------------------
  alpha Z        PSCENC =         3.29228976
  Ewald energy   TEWEN  =      -226.92444198
  -Hartree energ DENC   =       -15.21753551
  -exchange      EXHF   =        11.22440469
  -V(xc)+E(xc)   XCENC  =       -14.44363113
  PAW double counting   =      1619.32341735    -1591.67313242
  entropy T*S    EENTRO =        -0.00000000
  eigenvalues    EBANDS =        -2.16199730
  atomic energy  EATOM  =       203.99733562
  ---------------------------------------------------
  free energy    TOTEN  =       -12.58329091 eV

  energy without entropy =      -12.58329091  energy(sigma->0) =      -12.58329091
  exchange ACFDT corr.  =        -0.00000000  see jH, gK, PRB 81, 115126


--------------------------------------------------------------------------------------------------------




--------------------------------------- Iteration      1(  33)  ---------------------------------------


    POTLOK:  cpu time    0.1752: real time    0.1752
    SETDIJ:  cpu time    0.0585: real time    0.0585
    TRIAL :  cpu time    6.0139: real time    6.0176
    CORREC:  cpu time    7.2637: real time    7.2654
    CHARGE:  cpu time    0.3490: real time    0.3490
    --------------------------------------------
      LOOP:  cpu time   13.8620: real time   13.8673

 eigenvalue-minimisations  :     0
 total energy-change (2. order) :-0.9537635E-04  (-0.6057637E-04)
 number of electron       8.0000000 magnetization 
 augmentation part       -0.4341365 magnetization 

 Free energy of the ion-electron system (eV)
  ---------------------------------------------------
  alpha Z        PSCENC =         3.29228976
  Ewald energy   TEWEN  =      -226.92444198
  -Hartree energ DENC   =       -15.21623649
  -exchange      EXHF   =        11.22417526
  -V(xc)+E(xc)   XCENC  =       -14.44372869
  PAW double counting   =      1618.80428575    -1591.15399517
  entropy T*S    EENTRO =        -0.00000000
  eigenvalues    EBANDS =        -2.16307035
  atomic energy  EATOM  =       203.99733562
  ---------------------------------------------------
  free energy    TOTEN  =       -12.58338629 eV

  energy without entropy =      -12.58338629  energy(sigma->0) =      -12.58338629
  exchange ACFDT corr.  =        -0.00000000  see jH, gK, PRB 81, 115126


--------------------------------------------------------------------------------------------------------




--------------------------------------- Iteration      1(  34)  ---------------------------------------


    POTLOK:  cpu time    0.2092: real time    0.2093
    SETDIJ:  cpu time    0.1319: real time    0.1319
    TRIAL :  cpu time    6.4442: real time    6.4452
    CORREC:  cpu time    6.7361: real time    6.7371
    CHARGE:  cpu time    0.2919: real time    0.2919
    --------------------------------------------
      LOOP:  cpu time   13.8137: real time   13.8158

 eigenvalue-minimisations  :     0
 total energy-change (2. order) :-0.5992566E-04  (-0.3342615E-04)
 number of electron       8.0000000 magnetization 
 augmentation part       -0.4341377 magnetization 

 Free energy of the ion-electron system (eV)
  ---------------------------------------------------
  alpha Z        PSCENC =         3.29228976
  Ewald energy   TEWEN  =      -226.92444198
  -Hartree energ DENC   =       -15.21521420
  -exchange      EXHF   =        11.22400826
  -V(xc)+E(xc)   XCENC  =       -14.44380552
  PAW double counting   =      1618.43383522    -1590.78354964
  entropy T*S    EENTRO =        -0.00000000
  eigenvalues    EBANDS =        -2.16390373
  atomic energy  EATOM  =       203.99733562
  ---------------------------------------------------
  free energy    TOTEN  =       -12.58344622 eV

  energy without entropy =      -12.58344622  energy(sigma->0) =      -12.58344622
  exchange ACFDT corr.  =        -0.00000000  see jH, gK, PRB 81, 115126


--------------------------------------------------------------------------------------------------------




--------------------------------------- Iteration      1(  35)  ---------------------------------------


    POTLOK:  cpu time    0.1663: real time    0.1662
    SETDIJ:  cpu time    0.0982: real time    0.0982
    TRIAL :  cpu time    6.2834: real time    6.2842
    CORREC:  cpu time    7.7813: real time    8.0048
    CHARGE:  cpu time    0.3502: real time    0.3602
    --------------------------------------------
      LOOP:  cpu time   14.6825: real time   14.9170

 eigenvalue-minimisations  :     0
 total energy-change (2. order) :-0.3314530E-04  (-0.1927614E-04)
 number of electron       8.0000000 magnetization 
 augmentation part       -0.4341372 magnetization 

 Free energy of the ion-electron system (eV)
  ---------------------------------------------------
  alpha Z        PSCENC =         3.29228976
  Ewald energy   TEWEN  =      -226.92444198
  -Hartree energ DENC   =       -15.21481507
  -exchange      EXHF   =        11.22394166
  -V(xc)+E(xc)   XCENC  =       -14.44383693
  PAW double counting   =      1618.27764224    -1590.62736744
  entropy T*S    EENTRO =        -0.00000000
  eigenvalues    EBANDS =        -2.16422723
  atomic energy  EATOM  =       203.99733562
  ---------------------------------------------------
  free energy    TOTEN  =       -12.58347936 eV

  energy without entropy =      -12.58347936  energy(sigma->0) =      -12.58347936
  exchange ACFDT corr.  =        -0.00000000  see jH, gK, PRB 81, 115126


--------------------------------------------------------------------------------------------------------




--------------------------------------- Iteration      1(  36)  ---------------------------------------


    POTLOK:  cpu time    0.1881: real time    0.1881
    SETDIJ:  cpu time    0.1289: real time    0.1289
    TRIAL :  cpu time    7.5749: real time    7.5984
    CORREC:  cpu time    7.6392: real time    7.6406
    CHARGE:  cpu time    0.2732: real time    0.2733
    --------------------------------------------
      LOOP:  cpu time   15.8072: real time   15.8321

 eigenvalue-minimisations  :     0
 total energy-change (2. order) :-0.1927044E-04  (-0.1347904E-04)
 number of electron       8.0000000 magnetization 
 augmentation part       -0.4341349 magnetization 

 Free energy of the ion-electron system (eV)
  ---------------------------------------------------
  alpha Z        PSCENC =         3.29228976
  Ewald energy   TEWEN  =      -226.92444198
  -Hartree energ DENC   =       -15.21493776
  -exchange      EXHF   =        11.22395224
  -V(xc)+E(xc)   XCENC  =       -14.44382869
  PAW double counting   =      1618.28464002    -1590.63437685
  entropy T*S    EENTRO =        -0.00000000
  eigenvalues    EBANDS =        -2.16413100
  atomic energy  EATOM  =       203.99733562
  ---------------------------------------------------
  free energy    TOTEN  =       -12.58349863 eV

  energy without entropy =      -12.58349863  energy(sigma->0) =      -12.58349863
  exchange ACFDT corr.  =        -0.00000000  see jH, gK, PRB 81, 115126


--------------------------------------------------------------------------------------------------------




--------------------------------------- Iteration      1(  37)  ---------------------------------------


    POTLOK:  cpu time    0.1790: real time    0.1790
    SETDIJ:  cpu time    0.0798: real time    0.0798
    TRIAL :  cpu time    7.2202: real time    7.2212
    CORREC:  cpu time    7.5544: real time    7.5571
    CHARGE:  cpu time    0.2928: real time    0.2928
    --------------------------------------------
      LOOP:  cpu time   15.3285: real time   15.3321

 eigenvalue-minimisations  :     0
 total energy-change (2. order) :-0.1328000E-04  (-0.1000873E-04)
 number of electron       8.0000000 magnetization 
 augmentation part       -0.4341312 magnetization 

 Free energy of the ion-electron system (eV)
  ---------------------------------------------------
  alpha Z        PSCENC =         3.29228976
  Ewald energy   TEWEN  =      -226.92444198
  -Hartree energ DENC   =       -15.21544573
  -exchange      EXHF   =        11.22401692
  -V(xc)+E(xc)   XCENC  =       -14.44378915
  PAW double counting   =      1618.44558264    -1590.79533100
  entropy T*S    EENTRO =        -0.00000000
  eigenvalues    EBANDS =        -2.16372899
  atomic energy  EATOM  =       203.99733562
  ---------------------------------------------------
  free energy    TOTEN  =       -12.58351191 eV

  energy without entropy =      -12.58351191  energy(sigma->0) =      -12.58351191
  exchange ACFDT corr.  =        -0.00000000  see jH, gK, PRB 81, 115126


--------------------------------------------------------------------------------------------------------




--------------------------------------- Iteration      1(  38)  ---------------------------------------


    POTLOK:  cpu time    0.1526: real time    0.1526
    SETDIJ:  cpu time    0.0923: real time    0.0923
    TRIAL :  cpu time    6.9622: real time    6.9633
    CORREC:  cpu time    7.4809: real time    7.4834
    EDDIAG:  cpu time    6.6461: real time    6.6559
    CHARGE:  cpu time    0.2995: real time    0.2996
    --------------------------------------------
      LOOP:  cpu time   21.6344: real time   21.6478

 eigenvalue-minimisations  :     0
 total energy-change (2. order) :-0.9350887E-05  (-0.5905971E-05)
 number of electron       8.0000000 magnetization 
 augmentation part       -0.4341283 magnetization 

 Free energy of the ion-electron system (eV)
  ---------------------------------------------------
  alpha Z        PSCENC =         3.29228976
  Ewald energy   TEWEN  =      -226.92444198
  -Hartree energ DENC   =       -15.21607370
  -exchange      EXHF   =        11.22416656
  -V(xc)+E(xc)   XCENC  =       -14.44373735
  PAW double counting   =      1618.71487441    -1591.06462912
  entropy T*S    EENTRO =        -0.00000000
  eigenvalues    EBANDS =        -2.16324424
  atomic energy  EATOM  =       203.99733562
  ---------------------------------------------------
  free energy    TOTEN  =       -12.58352126 eV

  energy without entropy =      -12.58352126  energy(sigma->0) =      -12.58352126
  exchange ACFDT corr.  =        -0.00000000  see jH, gK, PRB 81, 115126


--------------------------------------------------------------------------------------------------------


  average scaling for gradient   1.1921


 average (electrostatic) potential at core
  the test charge radii are     0.9892
  (the norm of the test charge is              1.0000)
       1 -79.7749       2 -79.7748



 E-fermi :   5.4263     XC(G=0):  -7.7740     alpha+bet :-11.7285


 k-point     1 :       0.0000    0.0000    0.0000
  band No.  band energies     occupation 
      1      -7.8880      2.00000
      2       5.2086      2.00000
      3       5.2087      2.00000
      4       5.2087      2.00000
      5       8.5963      0.00000
      6       8.5963      0.00000
      7       8.5963      0.00000
      8       9.3522      0.00000
      9      13.9913      0.00000

 k-point     2 :       0.1250    0.0000    0.0000
  band No.  band energies     occupation 
      1      -7.6692      2.00000
      2       3.5932      2.00000
      3       4.9287      2.00000
      4       4.9287      2.00000
      5       8.5106      0.00000
      6       9.0171      0.00000
      7       9.0171      0.00000
      8      10.7370      0.00000
      9      13.7022      0.00000

 k-point     3 :       0.2500    0.0000    0.0000
  band No.  band energies     occupation 
      1      -7.0181      2.00000
      2       0.9958      2.00000
      3       4.4183      2.00000
      4       4.4183      2.00000
      5       7.9788      0.00000
      6       9.5866      0.00000
      7       9.5866      0.00000
      8      13.0773      0.00000
      9      13.4616      0.00000

 k-point     4 :       0.3750    0.0000    0.0000
  band No.  band energies     occupation 
      1      -6.0432      2.00000
      2      -1.2376      2.00000
      3       4.0496      2.00000
      4       4.0496      2.00000
      5       7.5969      0.00000
      6       9.5378      0.00000
      7       9.5378      0.00000
      8      14.0514      0.00000
      9      14.9172      0.00000

 k-point     5 :       0.5000    0.0000    0.0000
  band No.  band energies     occupation 
      1      -5.3577      2.00000
      2      -2.3569      2.00000
      3       3.9267      2.00000
      4       3.9267      2.00000
      5       7.4537      0.00000
      6       9.4269      0.00000
      7       9.4269      0.00000
      8      13.8756      0.00000
      9      17.0146      0.00000

 k-point     6 :       0.1250    0.1250    0.0000
  band No.  band energies     occupation 
      1      -7.5953      2.00000
      2       3.8594      2.00000
      3       4.4074      2.00000
      4       4.4074      2.00000
      5       8.0110      0.00000
      6       9.7458      0.00000
      7       9.7458      0.00000
      8      10.4348      0.00000
      9      12.7078      0.00000

 k-point     7 :       0.2500    0.1250    0.0000
  band No.  band energies     occupation 
      1      -7.0841      2.00000
      2       1.7665      2.00000
      3       3.8459      2.00000
      4       3.9868      2.00000
      5       8.1086      0.00000
      6       9.7570      0.00000
      7      10.5616      0.00000
      8      10.8478      0.00000
      9      13.7217      0.00000

 k-point     8 :       0.3750    0.1250    0.0000
  band No.  band energies     occupation 
      1      -6.1947      2.00000
      2      -0.5152      2.00000
      3       3.3453      2.00000
      4       3.5412      2.00000
      5       8.2076      0.00000
      6       9.6861      0.00000
      7      10.5731      0.00000
      8      11.6146      0.00000
      9      15.5933      0.00000

 k-point     9 :       0.5000    0.1250    0.0000
  band No.  band energies     occupation 
      1      -5.2605      2.00000
      2      -2.1234      2.00000
      3       2.8549      2.00000
      4       3.5614      2.00000
      5       8.1581      0.00000
      6       9.5422      0.00000
      7      10.1939      0.00000
      8      13.6248      0.00000
      9      15.2174      0.00000

 k-point    10 :      -0.3750    0.1250    0.0000
  band No.  band energies     occupation 
      1      -5.5237      2.00000
      2      -1.7182      2.00000
      3       2.6608      2.00000
      4       3.8747      2.00000
      5       8.3297      0.00000
      6       9.6544      0.00000
      7       9.9595      0.00000
      8      14.1654      0.00000
      9      14.4059      0.00000

 k-point    11 :      -0.2500    0.1250    0.0000
  band No.  band energies     occupation 
      1      -6.5289      2.00000
      2       0.2105      2.00000
      3       2.8385      2.00000
      4       4.4072      2.00000
      5       8.7062      0.00000
      6       9.7646      0.00000
      7       9.8973      0.00000
      8      12.4671      0.00000
      9      12.6880      0.00000

 k-point    12 :      -0.1250    0.1250    0.0000
  band No.  band energies     occupation 
      1      -7.3044      2.00000
      2       2.3673      2.00000
      3       3.5913      2.00000
      4       4.9263      2.00000
      5       9.0933      0.00000
      6       9.1705      0.00000
      7       9.3263      0.00000
      8      11.6549      0.00000
      9      12.5416      0.00000

 k-point    13 :       0.2500    0.2500    0.0000
  band No.  band energies     occupation 
      1      -6.7095      2.00000
      2       1.4041      2.00000
      3       3.2201      2.00000
      4       3.2201      2.00000
      5       7.0575      0.00000
      6       9.1798      0.00000
      7      11.9492      0.00000
      8      11.9493      0.00000
      9      14.2715      0.00000

 k-point    14 :       0.3750    0.2500    0.0000
  band No.  band energies     occupation 
      1      -5.9349      2.00000
      2      -0.1636      2.00000
      3       2.4321      2.00000
      4       2.8603      2.00000
      5       7.2693      0.00000
      6       8.8964      0.00000
      7      12.1880      0.00000
      8      12.4995      0.00000
      9      16.5160      0.00000

 k-point    15 :       0.5000    0.2500    0.0000
  band No.  band energies     occupation 
      1      -4.9268      2.00000
      2      -1.7536      2.00000
      3       1.4892      2.00000
      4       2.8633      2.00000
      5       7.4747      0.00000
      6      10.5280      0.00000
      7      11.9089      0.00000
      8      12.1378      0.00000
      9      16.5682      0.00000

 k-point    16 :      -0.3750    0.2500    0.0000
  band No.  band energies     occupation 
      1      -4.6988      2.00000
      2      -2.0361      2.00000
      3       0.9818      2.00000
      4       3.2032      2.00000
      5       7.8181      0.00000
      6      11.5677      0.00000
      7      11.6852      0.00000
      8      13.2157      0.00000
      9      14.3052      0.00000

 k-point    17 :      -0.2500    0.2500    0.0000
  band No.  band energies     occupation 
      1      -5.6625      2.00000
      2      -0.7621      2.00000
      3       1.2639      2.00000
      4       3.8090      2.00000
      5       8.4606      0.00000
      6      10.9801      0.00000
      7      11.1918      0.00000
      8      12.3300      0.00000
      9      12.6474      0.00000

 k-point    18 :       0.3750    0.3750    0.0000
  band No.  band energies     occupation 
      1      -5.2737      2.00000
      2      -1.0562      2.00000
      3       2.4193      2.00000
      4       2.4193      2.00000
      5       6.5090      0.00000
      6       7.5001      0.00000
      7      14.3795      0.00000
      8      14.3798      0.00000
      9      16.9146      0.00000

 k-point    19 :       0.5000    0.3750    0.0000
  band No.  band energies     occupation 
      1      -4.2932      2.00000
      2      -2.2617      2.00000
      3       1.5980      2.00000
      4       2.3358      2.00000
      5       6.8105      0.00000
      6       7.8981      0.00000
      7      14.6105      0.00000
      8      14.6845      0.00000
      9      17.1941      0.00000

 k-point    20 :      -0.3750    0.3750    0.0000
  band No.  band energies     occupation 
      1      -3.8160      2.00000
      2      -2.6930      2.00000
      3       0.6530      2.00000
      4       2.6147      2.00000
      5       7.1386      0.00000
      6      10.1921      0.00000
      7      13.7994      0.00000
      8      14.2926      0.00000
      9      14.5654      0.00000

 k-point    21 :       0.5000    0.5000    0.0000
  band No.  band energies     occupation 
      1      -3.3540      2.00000
      2      -3.3540      2.00000
      3       2.1541      2.00000
      4       2.1542      2.00000
      5       6.6253      0.00000
      6       6.6254      0.00000
      7      16.5707      0.00000
      8      16.5708      0.00000
      9      17.4189      0.00000

 k-point    22 :       0.3750    0.2500    0.1250
  band No.  band energies     occupation 
      1      -6.4430      2.00000
      2       0.5657      2.00000
      3       2.3973      2.00000
      4       3.7672      2.00000
      5       8.3980      0.00000
      6       9.9613      0.00000
      7      10.2519      0.00000
      8      11.6766      0.00000
      9      14.0634      0.00000

 k-point    23 :       0.5000    0.2500    0.1250
  band No.  band energies     occupation 
      1      -5.4742      2.00000
      2      -1.1477      2.00000
      3       1.7209      2.00000
      4       3.2292      2.00000
      5       8.8589      0.00000
      6       9.5735      0.00000
      7      11.1524      0.00000
      8      12.1360      0.00000
      9      15.3578      0.00000

 k-point    24 :      -0.3750    0.2500    0.1250
  band No.  band energies     occupation 
      1      -4.7624      2.00000
      2      -2.1831      2.00000
      3       1.5684      2.00000
      4       2.9813      2.00000
      5       9.0581      0.00000
      6       9.1316      0.00000
      7      12.1114      0.00000
      8      13.3536      0.00000
      9      13.6791      0.00000

 k-point    25 :       0.5000    0.3750    0.1250
  band No.  band energies     occupation 
      1      -5.0605      2.00000
      2      -1.3048      2.00000
      3       1.6819      2.00000
      4       2.3266      2.00000
      5       7.8640      0.00000
      6       8.6205      0.00000
      7      11.9352      0.00000
      8      14.3284      0.00000
      9      16.6136      0.00000

 k-point    26 :      -0.3750    0.3750    0.1250
  band No.  band energies     occupation 
      1      -4.1046      2.00000
      2      -2.3744      2.00000
      3       0.9167      2.00000
      4       2.1168      2.00000
      5       8.3386      0.00000
      6      10.3425      0.00000
      7      11.4436      0.00000
      8      13.7194      0.00000
      9      14.7390      0.00000

 k-point    27 :      -0.2500    0.3750    0.1250
  band No.  band energies     occupation 
      1      -4.4868      2.00000
      2      -1.9718      2.00000
      3       0.7316      2.00000
      4       2.5234      2.00000
      5       8.8440      0.00000
      6      10.6390      0.00000
      7      11.3562      0.00000
      8      13.2810      0.00000
      9      14.1934      0.00000

 k-point    28 :      -0.3750    0.5000    0.1250
  band No.  band energies     occupation 
      1      -3.2698      2.00000
      2      -3.2698      2.00000
      3       1.6173      2.00000
      4       1.6174      2.00000
      5       7.8969      0.00000
      6       7.8969      0.00000
      7      14.1502      0.00000
      8      14.1502      0.00000
      9      17.0260      0.00000

 k-point    29 :      -0.2500    0.5000    0.2500
  band No.  band energies     occupation 
      1      -3.1838      2.00000
      2      -3.1838      2.00000
      3       1.1545      2.00000
      4       1.1545      2.00000
      5      10.3140      0.00000
      6      10.3140      0.00000
      7      11.1718      0.00000
      8      11.1719      0.00000
      9      17.0324      0.00000


--------------------------------------------------------------------------------------------------------


 soft charge-density along one line, spin component           1
         0         1         2         3         4         5         6         7         8         9
 total charge-density along one line

 pseudopotential strength for first ion, spin component:           1
 17.878  24.945  -0.000  -0.000  -0.000  -0.000  -0.000  -0.000
 24.945  34.809  -0.000  -0.000  -0.000  -0.000  -0.000  -0.000
 -0.000  -0.000   4.079  -0.000  -0.000   7.604  -0.000  -0.000
 -0.000  -0.000  -0.000   4.079   0.000  -0.000   7.604   0.000
 -0.000  -0.000  -0.000   0.000   4.079  -0.000   0.000   7.604
 -0.000  -0.000   7.604  -0.000  -0.000  14.185  -0.000  -0.000
 -0.000  -0.000  -0.000   7.604   0.000  -0.000  14.185   0.000
 -0.000  -0.000  -0.000   0.000   7.604  -0.000   0.000  14.185
 total augmentation occupancy for first ion, spin component:           1
 10.746  -5.007  -0.000  -0.000  -0.000   0.000   0.000   0.000
 -5.007   2.385   0.000   0.000   0.000  -0.000  -0.000  -0.000
 -0.000   0.000   3.821  -0.000  -0.000  -1.011   0.000   0.000
 -0.000   0.000  -0.000   3.821   0.000   0.000  -1.011  -0.000
 -0.000   0.000  -0.000   0.000   3.821   0.000  -0.000  -1.011
  0.000  -0.000  -1.011   0.000   0.000   0.273  -0.000  -0.000
  0.000  -0.000   0.000  -1.011  -0.000  -0.000   0.273   0.000
  0.000  -0.000   0.000  -0.000  -1.011  -0.000   0.000   0.273


------------------------ aborting loop because EDIFF is reached ----------------------------------------


    FORLOC:  cpu time    0.0014: real time    0.0014
    FORHF :  cpu time    6.4519: real time    6.4517
    FORNL :  cpu time    0.2986: real time    0.2986
    FORCOR:  cpu time    0.2906: real time    0.2906
    OFIELD:  cpu time    0.0001: real time    0.0001

 VOLUME and BASIS-vectors are now :
 -----------------------------------------------------------------------------
  energy-cutoff  :      400.00
  volume of cell :       40.90
      direct lattice vectors                 reciprocal lattice vectors
     0.000000000  2.734610537  2.734610537    -0.182841393  0.182841393  0.182841393
     2.734610537 -0.000000000  2.734610537     0.182841393 -0.182841393  0.182841393
     2.734610537  2.734610537  0.000000000     0.182841393  0.182841393 -0.182841393

  length of vectors
     3.867323309  3.867323309  3.867323309     0.316690582  0.316690582  0.316690582


 FORCES acting on ions:
    Electron-Ion                     Ewald-Force                    Non-Local-Force
 -----------------------------------------------------------------------------------------------
   0.311E-04 0.476E-04 0.526E-04   0.106E-13 0.570E-14 0.821E-14   -.694E-17 0.347E-16 0.156E-16
   -.128E-03 0.420E-04 -.748E-04   -.107E-13 -.552E-14 -.778E-14   0.139E-16 -.139E-16 0.173E-17
 -----------------------------------------------------------------------------------------------
   -.982E-04 0.927E-04 -.221E-04   -.730E-16 0.179E-15 0.425E-15   0.694E-17 0.208E-16 0.173E-16


 POSITION                                       TOTAL-FORCE (eV/Angst)
 -----------------------------------------------------------------------------------
      0.00000      0.00000      0.00000        -0.000000     -0.000000     -0.000000
      1.36731      1.36731      1.36731         0.000000      0.000000      0.000000
 -----------------------------------------------------------------------------------
    total drift:                               -0.000098      0.000093     -0.000022


--------------------------------------------------------------------------------------------------------



  FREE ENERGIE OF THE ION-ELECTRON SYSTEM (eV)
  ---------------------------------------------------
  free  energy   TOTEN  =       -12.58352126 eV

  energy  without entropy=      -12.58352126  energy(sigma->0) =      -12.58352126



--------------------------------------------------------------------------------------------------------


    POTLOK:  cpu time    0.3106: real time    0.3106


--------------------------------------------------------------------------------------------------------


 writing wavefunctions
     LOOP+:  cpu time  590.5285: real time  590.9308
    4ORBIT:  cpu time    0.0000: real time    0.0000

 total amount of memory used by VASP MPI-rank0    47666. kBytes
=======================================================================

   base      :      30000. kBytes
   nonl-proj :       1427. kBytes
   fftplans  :       8897. kBytes
   grid      :       3818. kBytes
   one-center:          6. kBytes
   HF        :          4. kBytes
   nonlr-proj:        283. kBytes
   wavefun   :       3231. kBytes

  
  
 General timing and accounting informations for this job:
 ========================================================
  
                  Total CPU time used (sec):      600.429
                            User time (sec):      595.093
                          System time (sec):        5.335
                         Elapsed time (sec):      601.066
  
                   Maximum memory used (kb):      189908.
                   Average memory used (kb):           0.
  
                          Minor page faults:       566969
                          Major page faults:           15
                 Voluntary context switches:          557
