<?xml version="1.0" encoding="ISO-8859-1"?>
<modeling>
 <generator>
  <i name="program" type="string">vasp </i>
  <i name="version" type="string">5.4.4.18Apr17-6-g9f103f2a35  </i>
  <i name="subversion" type="string">(build Jul 17 2026 20:05:20) complex            parallel </i>
  <i name="platform" type="string">LinuxGNU </i>
  <i name="date" type="string">2026 08 15 </i>
  <i name="time" type="string">09:12:30 </i>
 </generator>
 <incar>
  <i type="int" name="ISTART">     1</i>
  <i type="string" name="PREC">accurate</i>
  <i type="string" name="ALGO">  All</i>
  <i type="logical" name="ADDGRID"> T  </i>
  <i type="int" name="ISPIN">     1</i>
  <i type="int" name="ICHARG">     1</i>
  <i type="int" name="NELM">   100</i>
  <i type="int" name="IBRION">    -1</i>
  <i name="EDIFF">      0.00001000</i>
  <i type="int" name="NSW">     0</i>
  <i name="ENCUT">    400.00000000</i>
  <i type="logical" name="LREAL"> F  </i>
  <i name="TIME">      0.40000000</i>
  <i type="int" name="ISMEAR">     0</i>
  <i name="SIGMA">      0.05000000</i>
  <i type="logical" name="LWAVE"> T  </i>
  <i type="logical" name="LCHARG"> T  </i>
  <v type="int" name="KPOINT_BSE">    -1     0     0     0</v>
  <i type="int" name="NELM">   100</i>
  <i type="logical" name="LHFCALC"> T  </i>
  <i type="int" name="NKRED">     2</i>
  <i name="HFSCREEN">      0.20000000</i>
  <i name="AEXX">      0.25000000</i>
  <i type="string" name="PRECFOCK">fast</i>
 </incar>
 <structure name="primitive_cell" >
  <crystal>
   <varray name="basis" >
    <v>       0.00000000       2.73461054       2.73461054 </v>
    <v>       2.73461054      -0.00000000       2.73461054 </v>
    <v>       2.73461054       2.73461054       0.00000000 </v>
   </varray>
   <i name="volume">     40.89935362 </i>
   <varray name="rec_basis" >
    <v>      -0.18284139       0.18284139       0.18284139 </v>
    <v>       0.18284139      -0.18284139       0.18284139 </v>
    <v>       0.18284139       0.18284139      -0.18284139 </v>
   </varray>
  </crystal>
  <varray name="positions" >
   <v>       0.00000000       0.00000000       0.00000000 </v>
   <v>       0.25000000       0.25000000       0.25000000 </v>
  </varray>
 </structure>
 <varray name="primitive_index" >
  <v type="int" >        1 </v>
  <v type="int" >        2 </v>
 </varray>
 <kpoints>
  <generation param="Gamma">
   <v type="int" name="divisions">       8        8        8 </v>
   <v name="usershift">      0.00000000       0.00000000       0.00000000 </v>
   <v name="genvec1">      0.12500000       0.00000000       0.00000000 </v>
   <v name="genvec2">      0.00000000       0.12500000       0.00000000 </v>
   <v name="genvec3">      0.00000000       0.00000000       0.12500000 </v>
   <v name="shift">      0.00000000       0.00000000       0.00000000 </v>
  </generation>
  <varray name="kpointlist" >
   <v>       0.00000000       0.00000000       0.00000000 </v>
   <v>       0.12500000       0.00000000       0.00000000 </v>
   <v>       0.25000000       0.00000000       0.00000000 </v>
   <v>       0.37500000       0.00000000       0.00000000 </v>
   <v>       0.50000000       0.00000000       0.00000000 </v>
   <v>       0.12500000       0.12500000       0.00000000 </v>
   <v>       0.25000000       0.12500000       0.00000000 </v>
   <v>       0.37500000       0.12500000       0.00000000 </v>
   <v>       0.50000000       0.12500000       0.00000000 </v>
   <v>      -0.37500000       0.12500000       0.00000000 </v>
   <v>      -0.25000000       0.12500000       0.00000000 </v>
   <v>      -0.12500000       0.12500000       0.00000000 </v>
   <v>       0.25000000       0.25000000       0.00000000 </v>
   <v>       0.37500000       0.25000000       0.00000000 </v>
   <v>       0.50000000       0.25000000       0.00000000 </v>
   <v>      -0.37500000       0.25000000       0.00000000 </v>
   <v>      -0.25000000       0.25000000       0.00000000 </v>
   <v>       0.37500000       0.37500000       0.00000000 </v>
   <v>       0.50000000       0.37500000       0.00000000 </v>
   <v>      -0.37500000       0.37500000       0.00000000 </v>
   <v>       0.50000000       0.50000000       0.00000000 </v>
   <v>       0.37500000       0.25000000       0.12500000 </v>
   <v>       0.50000000       0.25000000       0.12500000 </v>
   <v>      -0.37500000       0.25000000       0.12500000 </v>
   <v>       0.50000000       0.37500000       0.12500000 </v>
   <v>      -0.37500000       0.37500000       0.12500000 </v>
   <v>      -0.25000000       0.37500000       0.12500000 </v>
   <v>      -0.37500000       0.50000000       0.12500000 </v>
   <v>      -0.25000000       0.50000000       0.25000000 </v>
  </varray>
  <varray name="weights" >
   <v>       0.00195312 </v>
   <v>       0.01562500 </v>
   <v>       0.01562500 </v>
   <v>       0.01562500 </v>
   <v>       0.00781250 </v>
   <v>       0.01171875 </v>
   <v>       0.04687500 </v>
   <v>       0.04687500 </v>
   <v>       0.04687500 </v>
   <v>       0.04687500 </v>
   <v>       0.04687500 </v>
   <v>       0.02343750 </v>
   <v>       0.01171875 </v>
   <v>       0.04687500 </v>
   <v>       0.04687500 </v>
   <v>       0.04687500 </v>
   <v>       0.02343750 </v>
   <v>       0.01171875 </v>
   <v>       0.04687500 </v>
   <v>       0.02343750 </v>
   <v>       0.00585938 </v>
   <v>       0.04687500 </v>
   <v>       0.09375000 </v>
   <v>       0.04687500 </v>
   <v>       0.04687500 </v>
   <v>       0.09375000 </v>
   <v>       0.04687500 </v>
   <v>       0.02343750 </v>
   <v>       0.01171875 </v>
  </varray>
 </kpoints>
 <parameters>
  <separator name="general" >
   <i type="string" name="SYSTEM">unknown system</i>
   <i type="logical" name="LCOMPAT"> F  </i>
  </separator>
  <separator name="electronic" >
   <i type="string" name="PREC">accura</i>
   <i name="ENMAX">    400.00000000</i>
   <i name="ENAUG">    322.06900000</i>
   <i name="EDIFF">      0.00001000</i>
   <i type="int" name="IALGO">    58</i>
   <i type="int" name="IWAVPR">    10</i>
   <i type="int" name="NBANDS">     9</i>
   <i name="NELECT">      8.00000000</i>
   <i type="int" name="TURBO">     0</i>
   <i type="int" name="IRESTART">     0</i>
   <i type="int" name="NREBOOT">     0</i>
   <i type="int" name="NMIN">     0</i>
   <i name="EREF">      0.00000000</i>
   <separator name="electronic smearing" >
    <i type="int" name="ISMEAR">     0</i>
    <i name="SIGMA">      0.05000000</i>
    <i name="KSPACING">      0.50000000</i>
    <i type="logical" name="KGAMMA"> T  </i>
   </separator>
   <separator name="electronic projectors" >
    <i type="logical" name="LREAL"> F  </i>
    <v name="ROPT">      0.00000000</v>
    <i type="int" name="LMAXPAW">  -100</i>
    <i type="int" name="LMAXMIX">     2</i>
    <i type="logical" name="NLSPLINE"> F  </i>
   </separator>
   <separator name="electronic startup" >
    <i type="int" name="ISTART">     1</i>
    <i type="int" name="ICHARG">     1</i>
    <i type="int" name="INIWAV">     1</i>
   </separator>
   <separator name="electronic spin" >
    <i type="int" name="ISPIN">     1</i>
    <i type="logical" name="LNONCOLLINEAR"> F  </i>
    <v name="MAGMOM">      1.00000000      1.00000000</v>
    <i name="NUPDOWN">     -1.00000000</i>
    <i type="logical" name="LSORBIT"> F  </i>
    <v name="SAXIS">      0.00000000      0.00000000      1.00000000</v>
    <i type="logical" name="LSPIRAL"> F  </i>
    <v name="QSPIRAL">      0.00000000      0.00000000      0.00000000</v>
    <i type="logical" name="LZEROZ"> F  </i>
   </separator>
   <separator name="electronic exchange-correlation" >
    <i type="logical" name="LASPH"> F  </i>
    <i type="logical" name="LMETAGGA"> F  </i>
   </separator>
   <separator name="electronic convergence" >
    <i type="int" name="NELM">   100</i>
    <i type="int" name="NELMDL">     0</i>
    <i type="int" name="NELMIN">     2</i>
    <i name="ENINI">    400.00000000</i>
    <separator name="electronic convergence detail" >
     <i type="logical" name="LDIAG"> T  </i>
     <i type="logical" name="LSUBROT"> F  </i>
     <i name="WEIMIN">      0.00000000</i>
     <i name="EBREAK">      0.00000028</i>
     <i name="DEPER">      0.30000000</i>
     <i type="int" name="NRMM">     4</i>
     <i name="TIME">      0.40000000</i>
    </separator>
   </separator>
   <separator name="electronic mixer" >
    <i name="AMIX">      0.40000000</i>
    <i name="BMIX">      1.00000000</i>
    <i name="AMIN">      0.10000000</i>
    <i name="AMIX_MAG">      1.60000000</i>
    <i name="BMIX_MAG">      1.00000000</i>
    <separator name="electronic mixer details" >
     <i type="int" name="IMIX">     4</i>
     <i type="logical" name="MIXFIRST"> F  </i>
     <i type="int" name="MAXMIX">   -45</i>
     <i name="WC">    100.00000000</i>
     <i type="int" name="INIMIX">     1</i>
     <i type="int" name="MIXPRE">     1</i>
     <i type="int" name="MREMOVE">     5</i>
    </separator>
   </separator>
   <separator name="electronic dipolcorrection" >
    <i type="logical" name="LDIPOL"> F  </i>
    <i type="logical" name="LMONO"> F  </i>
    <i type="int" name="IDIPOL">     0</i>
    <i name="EPSILON">      1.00000000</i>
    <v name="DIPOL">   -100.00000000   -100.00000000   -100.00000000</v>
    <i name="EFIELD">      0.00000000</i>
   </separator>
  </separator>
  <separator name="grids" >
   <i type="int" name="NGX">    28</i>
   <i type="int" name="NGY">    28</i>
   <i type="int" name="NGZ">    28</i>
   <i type="int" name="NGXF">    56</i>
   <i type="int" name="NGYF">    56</i>
   <i type="int" name="NGZF">    56</i>
   <i type="logical" name="ADDGRID"> T  </i>
  </separator>
  <separator name="ionic" >
   <i type="int" name="NSW">     0</i>
   <i type="int" name="IBRION">    -1</i>
   <i type="int" name="MDALGO">     0</i>
   <i type="int" name="ISIF">     0</i>
   <i name="PSTRESS">      0.00000000</i>
   <i name="EDIFFG">      0.00010000</i>
   <i type="int" name="NFREE">     0</i>
   <i name="POTIM">      0.50000000</i>
   <i name="SMASS">     -3.00000000</i>
   <i name="SCALEE">      1.00000000</i>
  </separator>
  <separator name="ionic md" >
   <i name="TEBEG">      0.00010000</i>
   <i name="TEEND">      0.00010000</i>
   <i type="int" name="NBLOCK">     1</i>
   <i type="int" name="KBLOCK">     1</i>
   <i type="int" name="NPACO">   256</i>
   <i name="APACO">     16.00000000</i>
  </separator>
  <separator name="symmetry" >
   <i type="int" name="ISYM">     3</i>
   <i name="SYMPREC">      0.00001000</i>
  </separator>
  <separator name="dos" >
   <i type="int" name="LORBIT">     0</i>
   <v name="RWIGS">     -1.00000000</v>
   <i type="int" name="NEDOS">   301</i>
   <i name="EMIN">     10.00000000</i>
   <i name="EMAX">    -10.00000000</i>
   <i name="EFERMI">      0.00000000</i>
  </separator>
  <separator name="writing" >
   <i type="int" name="NWRITE">     2</i>
   <i type="logical" name="LWAVE"> T  </i>
   <i type="logical" name="LDOWNSAMPLE"> F  </i>
   <i type="logical" name="LCHARG"> T  </i>
   <i type="logical" name="LPARD"> F  </i>
   <i type="logical" name="LVTOT"> F  </i>
   <i type="logical" name="LVHAR"> F  </i>
   <i type="logical" name="LELF"> F  </i>
   <i type="logical" name="LOPTICS"> F  </i>
   <v name="STM">      0.00000000      0.00000000      0.00000000      0.00000000      0.00000000      0.00000000      0.00000000</v>
  </separator>
  <separator name="performance" >
   <i type="int" name="NPAR">     3</i>
   <i type="int" name="NSIM">     4</i>
   <i type="int" name="NBLK">    -1</i>
   <i type="logical" name="LPLANE"> T  </i>
   <i type="logical" name="LSCALAPACK"> T  </i>
   <i type="logical" name="LSCAAWARE"> F  </i>
   <i type="logical" name="LSCALU"> F  </i>
   <i type="logical" name="LASYNC"> F  </i>
   <i type="logical" name="LORBITALREAL"> F  </i>
  </separator>
  <separator name="miscellaneous" >
   <i type="int" name="IDIOT">     3</i>
   <i type="int" name="ISPECIAL">     0</i>
   <i type="logical" name="LMUSIC"> F  </i>
   <v name="POMASS">     28.08500000</v>
   <v name="DARWINR">      0.00000000</v>
   <v name="DARWINV">      1.00000000</v>
   <i type="logical" name="LCORR"> T  </i>
  </separator>
  <i type="logical" name="GGA_COMPAT"> T  </i>
  <i type="logical" name="LBERRY"> F  </i>
  <i type="int" name="ICORELEVEL">     0</i>
  <i type="logical" name="LDAU"> F  </i>
  <i type="int" name="I_CONSTRAINED_M">     0</i>
  <separator name="electronic exchange-correlation" >
   <i type="string" name="GGA">--</i>
   <i type="int" name="VOSKOWN">     0</i>
   <i type="logical" name="LHFCALC"> T  </i>
   <i type="string" name="PRECFOCK">fast</i>
   <i type="logical" name="LSYMGRAD"> F  </i>
   <i type="logical" name="LHFONE"> F  </i>
   <i type="logical" name="LRHFCALC"> F  </i>
   <i type="logical" name="LTHOMAS"> F  </i>
   <i type="logical" name="LMODELHF"> F  </i>
   <i name="ENCUT4O">     -1.00000000</i>
   <i type="int" name="EXXOEP">     0</i>
   <i type="int" name="FOURORBIT">     0</i>
   <i name="AEXX">      0.25000000</i>
   <i name="HFALPHA">     -1.00000000</i>
   <i name="MCALPHA">      0.00000000</i>
   <i name="ALDAX">      0.75000000</i>
   <i name="AGGAX">      0.75000000</i>
   <i name="ALDAC">      1.00000000</i>
   <i name="AGGAC">      1.00000000</i>
   <i type="int" name="NKREDX">     2</i>
   <i type="int" name="NKREDY">     2</i>
   <i type="int" name="NKREDZ">     2</i>
   <i type="logical" name="SHIFTRED"> F  </i>
   <i type="logical" name="ODDONLY"> F  </i>
   <i type="logical" name="EVENONLY"> F  </i>
   <i type="int" name="LMAXFOCK">     4</i>
   <i type="int" name="NMAXFOCKAE">     1</i>
   <i type="logical" name="LFOCKAEDFT"> F  </i>
   <i name="HFSCREEN">      0.20000000</i>
   <i name="HFSCREENC">      0.20000000</i>
   <i type="int" name="NBANDSGWLOW">     1</i>
  </separator>
  <separator name="vdW DFT" >
   <i type="logical" name="LUSE_VDW"> F  </i>
   <i name="Zab_VDW">     -0.84910000</i>
   <i name="PARAM1">      0.12340000</i>
   <i name="PARAM2">      1.00000000</i>
   <i name="PARAM3">      0.00000000</i>
  </separator>
  <separator name="model GW" >
   <i type="int" name="MODEL_GW">     0</i>
   <i name="MODEL_EPS0">     12.26980609</i>
   <i name="MODEL_ALPHA">      1.00000000</i>
  </separator>
  <separator name="linear response parameters" >
   <i type="logical" name="LEPSILON"> F  </i>
   <i type="logical" name="LRPA"> F  </i>
   <i type="logical" name="LNABLA"> F  </i>
   <i type="logical" name="LVEL"> F  </i>
   <i type="int" name="KINTER">     0</i>
   <i name="CSHIFT">      0.10000000</i>
   <i name="OMEGAMAX">     -1.00000000</i>
   <i name="DEG_THRESHOLD">      0.00200000</i>
   <i name="RTIME">     -0.10000000</i>
   <i name="WPLASMAI">      0.00000000</i>
   <v name="DFIELD">      0.00000000      0.00000000      0.00000000</v>
   <v name="WPLASMA">      0.00000000      0.00000000      0.00000000      0.00000000      0.00000000      0.00000000      0.00000000      0.00000000      0.00000000</v>
  </separator>
  <separator name="orbital magnetization" >
   <i type="logical" name="NUCIND"> F  </i>
   <v name="MAGPOS">      0.00000000      0.00000000      0.00000000</v>
   <i type="logical" name="LNICSALL"> T  </i>
   <i type="logical" name="ORBITALMAG"> F  </i>
   <i type="logical" name="LMAGBLOCH"> F  </i>
   <i type="logical" name="LCHIMAG"> F  </i>
   <i type="logical" name="LGAUGE"> T  </i>
   <i type="int" name="MAGATOM">     0</i>
   <v name="MAGDIPOL">      0.00000000      0.00000000      0.00000000</v>
   <v name="AVECCONST">      0.00000000      0.00000000      0.00000000</v>
  </separator>
  <separator name="response functions" >
   <i type="logical" name="LADDER"> F  </i>
   <i type="logical" name="LRPAFORCE"> F  </i>
   <i type="logical" name="LFXC"> F  </i>
   <i type="logical" name="LHARTREE"> T  </i>
   <i type="int" name="IBSE">     0</i>
   <v type="int" name="KPOINT">    -1     0     0     0</v>
   <i type="logical" name="LTCTE"> F  </i>
   <i type="logical" name="LTETE"> F  </i>
   <i type="logical" name="LTRIPLET"> F  </i>
   <i type="logical" name="LFXCEPS"> F  </i>
   <i type="logical" name="LFXHEG"> F  </i>
   <i type="int" name="NATURALO">     2</i>
   <i type="logical" name="L2ORDER"> F  </i>
   <i type="logical" name="LMP2LT"> F  </i>
   <i type="logical" name="LUSEW"> F  </i>
   <i name="ENCUTGW">     -2.00000000</i>
   <i name="ENCUTGWSOFT">     -2.00000000</i>
   <i name="ENCUTLF">     -1.00000000</i>
   <i type="int" name="LMAXMP2">    -1</i>
   <i name="SCISSOR">      0.00000000</i>
   <i type="int" name="NOMEGA">     0</i>
   <i type="int" name="NOMEGAR">     0</i>
   <i type="int" name="NBANDSGW">    -1</i>
   <i type="int" name="NBANDSO">    -1</i>
   <i type="int" name="NBANDSV">    -1</i>
   <i type="int" name="NELM">   100</i>
   <i type="int" name="NELMHF">     1</i>
   <i type="int" name="DIM">     3</i>
   <i type="int" name="ANTIRES">     0</i>
   <i name="OMEGAMAX">    -30.00000000</i>
   <i name="OMEGAMIN">    -30.00000000</i>
   <i name="OMEGATL">   -200.00000000</i>
   <i type="int" name="OMEGAGRID">   140</i>
   <i name="CSHIFT">     -0.10000000</i>
   <i type="logical" name="SELFENERGY"> F  </i>
   <i type="logical" name="LSPECTRAL"> F  </i>
   <i type="logical" name="LSPECTRALGW"> F  </i>
   <i type="logical" name="LSINGLES"> F  </i>
   <i type="logical" name="LFERMIGW"> F  </i>
   <i type="logical" name="ODDONLYGW"> F  </i>
   <i type="logical" name="EVENONLYGW"> F  </i>
   <i type="int" name="NKREDLFX">     1</i>
   <i type="int" name="NKREDLFY">     1</i>
   <i type="int" name="NKREDLFZ">     1</i>
   <i type="int" name="MAXMEM">  2800</i>
   <i type="int" name="TELESCOPE">     0</i>
   <i type="int" name="TAUPAR">     1</i>
   <i type="int" name="OMEGAPAR">    -1</i>
   <i name="LAMBDA">      1.00000000</i>
  </separator>
  <separator name="External order field" >
   <i name="OFIELD_KAPPA">      0.00000000</i>
   <v name="OFIELD_K">      0.00000000      0.00000000      0.00000000</v>
   <i name="OFIELD_Q6_NEAR">      0.00000000</i>
   <i name="OFIELD_Q6_FAR">      0.00000000</i>
   <i name="OFIELD_A">      0.00000000</i>
  </separator>
 </parameters>
 <atominfo>
  <atoms>       2 </atoms>
  <types>       1 </types>
  <array name="atoms" >
   <dimension dim="1">ion</dimension>
   <field type="string">element</field>
   <field type="int">atomtype</field>
   <set>
    <rc><c>Si</c><c>   1</c></rc>
    <rc><c>Si</c><c>   1</c></rc>
   </set>
  </array>
  <array name="atomtypes" >
   <dimension dim="1">type</dimension>
   <field type="int">atomspertype</field>
   <field type="string">element</field>
   <field>mass</field>
   <field>valence</field>
   <field type="string">pseudopotential</field>
   <set>
    <rc><c>   2</c><c>Si</c><c>     28.08500000</c><c>      4.00000000</c><c>  PAW_PBE Si 05Jan2001                  </c></rc>
   </set>
  </array>
 </atominfo>
 <structure name="initialpos" >
  <crystal>
   <varray name="basis" >
    <v>       0.00000000       2.73461054       2.73461054 </v>
    <v>       2.73461054      -0.00000000       2.73461054 </v>
    <v>       2.73461054       2.73461054       0.00000000 </v>
   </varray>
   <i name="volume">     40.89935362 </i>
   <varray name="rec_basis" >
    <v>      -0.18284139       0.18284139       0.18284139 </v>
    <v>       0.18284139      -0.18284139       0.18284139 </v>
    <v>       0.18284139       0.18284139      -0.18284139 </v>
   </varray>
  </crystal>
  <varray name="positions" >
   <v>       0.00000000       0.00000000       0.00000000 </v>
   <v>       0.25000000       0.25000000       0.25000000 </v>
  </varray>
 </structure>
 <calculation>
  <scstep>
   <time name="total">   35.89   35.89</time>
   <energy>
    <i name="alphaZ">      3.29228976 </i>
    <i name="ewald">   -226.92444198 </i>
    <i name="hartreedc">    -16.21267929 </i>
    <i name="XCdc">    -14.47504116 </i>
    <i name="pawpsdc">  10154.80981009 </i>
    <i name="pawaedc"> -10127.05637472 </i>
    <i name="eentropy">     -0.00105329 </i>
    <i name="bandstr">     55.51046576 </i>
    <i name="atom">    203.99733562 </i>
    <i name="e_fr_energy">     40.57996392 </i>
    <i name="e_wo_entrp">     40.58101721 </i>
    <i name="e_0_energy">     40.58049057 </i>
   </energy>
  </scstep>
  <scstep>
   <time name="total">   12.67   12.67</time>
   <energy>
    <i name="e_fr_energy">     23.20304747 </i>
    <i name="e_wo_entrp">     23.20340590 </i>
    <i name="e_0_energy">     23.20322668 </i>
   </energy>
  </scstep>
  <scstep>
   <time name="total">   12.99   13.00</time>
   <energy>
    <i name="e_fr_energy">     31.17342590 </i>
    <i name="e_wo_entrp">     31.17519363 </i>
    <i name="e_0_energy">     31.17430977 </i>
   </energy>
  </scstep>
  <scstep>
   <time name="total">   12.94   12.95</time>
   <energy>
    <i name="e_fr_energy">     23.69184670 </i>
    <i name="e_wo_entrp">     23.69252901 </i>
    <i name="e_0_energy">     23.69218785 </i>
   </energy>
  </scstep>
  <scstep>
   <time name="total">   12.77   12.77</time>
   <energy>
    <i name="e_fr_energy">     14.56515258 </i>
    <i name="e_wo_entrp">     14.56577014 </i>
    <i name="e_0_energy">     14.56546136 </i>
   </energy>
  </scstep>
  <scstep>
   <time name="total">   12.63   12.63</time>
   <energy>
    <i name="e_fr_energy">      6.89127315 </i>
    <i name="e_wo_entrp">      6.89286041 </i>
    <i name="e_0_energy">      6.89206678 </i>
   </energy>
  </scstep>
  <scstep>
   <time name="total">   12.62   12.62</time>
   <energy>
    <i name="e_fr_energy">      1.42030348 </i>
    <i name="e_wo_entrp">      1.42069232 </i>
    <i name="e_0_energy">      1.42049790 </i>
   </energy>
  </scstep>
  <scstep>
   <time name="total">   14.25   14.25</time>
   <energy>
    <i name="e_fr_energy">     -3.56905501 </i>
    <i name="e_wo_entrp">     -3.56677942 </i>
    <i name="e_0_energy">     -3.56791722 </i>
   </energy>
  </scstep>
  <scstep>
   <time name="total">   15.21   15.21</time>
   <energy>
    <i name="e_fr_energy">     -8.49109123 </i>
    <i name="e_wo_entrp">     -8.49003794 </i>
    <i name="e_0_energy">     -8.49056459 </i>
   </energy>
  </scstep>
  <scstep>
   <time name="total">   14.63   14.64</time>
   <energy>
    <i name="e_fr_energy">     -9.10102464 </i>
    <i name="e_wo_entrp">     -9.10035476 </i>
    <i name="e_0_energy">     -9.10068970 </i>
   </energy>
  </scstep>
  <scstep>
   <time name="total">   14.46   14.46</time>
   <energy>
    <i name="e_fr_energy">     -8.43303869 </i>
    <i name="e_wo_entrp">     -8.43303869 </i>
    <i name="e_0_energy">     -8.43303869 </i>
   </energy>
  </scstep>
  <scstep>
   <time name="total">   15.14   15.14</time>
   <energy>
    <i name="e_fr_energy">    -10.79610256 </i>
    <i name="e_wo_entrp">    -10.79610256 </i>
    <i name="e_0_energy">    -10.79610256 </i>
   </energy>
  </scstep>
  <scstep>
   <time name="total">   15.22   15.22</time>
   <energy>
    <i name="e_fr_energy">    -11.58087016 </i>
    <i name="e_wo_entrp">    -11.58087016 </i>
    <i name="e_0_energy">    -11.58087016 </i>
   </energy>
  </scstep>
  <scstep>
   <time name="total">   16.47   16.48</time>
   <energy>
    <i name="e_fr_energy">    -12.13760699 </i>
    <i name="e_wo_entrp">    -12.13760699 </i>
    <i name="e_0_energy">    -12.13760699 </i>
   </energy>
  </scstep>
  <scstep>
   <time name="total">   16.15   16.15</time>
   <energy>
    <i name="e_fr_energy">    -12.32409001 </i>
    <i name="e_wo_entrp">    -12.32409001 </i>
    <i name="e_0_energy">    -12.32409001 </i>
   </energy>
  </scstep>
  <scstep>
   <time name="total">   17.21   17.21</time>
   <energy>
    <i name="e_fr_energy">    -12.40726794 </i>
    <i name="e_wo_entrp">    -12.40726794 </i>
    <i name="e_0_energy">    -12.40726794 </i>
   </energy>
  </scstep>
  <scstep>
   <time name="total">   18.73   18.73</time>
   <energy>
    <i name="e_fr_energy">    -12.46381058 </i>
    <i name="e_wo_entrp">    -12.46381058 </i>
    <i name="e_0_energy">    -12.46381058 </i>
   </energy>
  </scstep>
  <scstep>
   <time name="total">   17.00   17.00</time>
   <energy>
    <i name="e_fr_energy">    -12.49641604 </i>
    <i name="e_wo_entrp">    -12.49641604 </i>
    <i name="e_0_energy">    -12.49641604 </i>
   </energy>
  </scstep>
  <scstep>
   <time name="total">   15.85   15.85</time>
   <energy>
    <i name="e_fr_energy">    -12.52045902 </i>
    <i name="e_wo_entrp">    -12.52045902 </i>
    <i name="e_0_energy">    -12.52045902 </i>
   </energy>
  </scstep>
  <scstep>
   <time name="total">   15.73   15.73</time>
   <energy>
    <i name="e_fr_energy">    -12.54071818 </i>
    <i name="e_wo_entrp">    -12.54071818 </i>
    <i name="e_0_energy">    -12.54071818 </i>
   </energy>
  </scstep>
  <scstep>
   <time name="total">   15.73   15.73</time>
   <energy>
    <i name="e_fr_energy">    -12.55439949 </i>
    <i name="e_wo_entrp">    -12.55439949 </i>
    <i name="e_0_energy">    -12.55439949 </i>
   </energy>
  </scstep>
  <scstep>
   <time name="total">   15.38   15.40</time>
   <energy>
    <i name="e_fr_energy">    -12.56286764 </i>
    <i name="e_wo_entrp">    -12.56286764 </i>
    <i name="e_0_energy">    -12.56286764 </i>
   </energy>
  </scstep>
  <scstep>
   <time name="total">   15.48   15.48</time>
   <energy>
    <i name="e_fr_energy">    -12.56915035 </i>
    <i name="e_wo_entrp">    -12.56915035 </i>
    <i name="e_0_energy">    -12.56915035 </i>
   </energy>
  </scstep>
  <scstep>
   <time name="total">   14.38   14.39</time>
   <energy>
    <i name="e_fr_energy">    -12.57407841 </i>
    <i name="e_wo_entrp">    -12.57407841 </i>
    <i name="e_0_energy">    -12.57407841 </i>
   </energy>
  </scstep>
  <scstep>
   <time name="total">   14.04   14.05</time>
   <energy>
    <i name="e_fr_energy">    -12.57755817 </i>
    <i name="e_wo_entrp">    -12.57755817 </i>
    <i name="e_0_energy">    -12.57755817 </i>
   </energy>
  </scstep>
  <scstep>
   <time name="total">   14.74   14.76</time>
   <energy>
    <i name="e_fr_energy">    -12.57980039 </i>
    <i name="e_wo_entrp">    -12.57980039 </i>
    <i name="e_0_energy">    -12.57980039 </i>
   </energy>
  </scstep>
  <scstep>
   <time name="total">   13.59   13.59</time>
   <energy>
    <i name="e_fr_energy">    -12.58121090 </i>
    <i name="e_wo_entrp">    -12.58121090 </i>
    <i name="e_0_energy">    -12.58121090 </i>
   </energy>
  </scstep>
  <scstep>
   <time name="total">   13.08   13.08</time>
   <energy>
    <i name="e_fr_energy">    -12.58210591 </i>
    <i name="e_wo_entrp">    -12.58210591 </i>
    <i name="e_0_energy">    -12.58210591 </i>
   </energy>
  </scstep>
  <scstep>
   <time name="total">   13.41   13.41</time>
   <energy>
    <i name="e_fr_energy">    -12.58264872 </i>
    <i name="e_wo_entrp">    -12.58264872 </i>
    <i name="e_0_energy">    -12.58264872 </i>
   </energy>
  </scstep>
  <scstep>
   <time name="total">   13.14   13.15</time>
   <energy>
    <i name="e_fr_energy">    -12.58296069 </i>
    <i name="e_wo_entrp">    -12.58296069 </i>
    <i name="e_0_energy">    -12.58296069 </i>
   </energy>
  </scstep>
  <scstep>
   <time name="total">   13.30   13.31</time>
   <energy>
    <i name="e_fr_energy">    -12.58315576 </i>
    <i name="e_wo_entrp">    -12.58315576 </i>
    <i name="e_0_energy">    -12.58315576 </i>
   </energy>
  </scstep>
  <scstep>
   <time name="total">   13.02   13.02</time>
   <energy>
    <i name="e_fr_energy">    -12.58329091 </i>
    <i name="e_wo_entrp">    -12.58329091 </i>
    <i name="e_0_energy">    -12.58329091 </i>
   </energy>
  </scstep>
  <scstep>
   <time name="total">   13.86   13.87</time>
   <energy>
    <i name="e_fr_energy">    -12.58338629 </i>
    <i name="e_wo_entrp">    -12.58338629 </i>
    <i name="e_0_energy">    -12.58338629 </i>
   </energy>
  </scstep>
  <scstep>
   <time name="total">   13.81   13.82</time>
   <energy>
    <i name="e_fr_energy">    -12.58344622 </i>
    <i name="e_wo_entrp">    -12.58344622 </i>
    <i name="e_0_energy">    -12.58344622 </i>
   </energy>
  </scstep>
  <scstep>
   <time name="total">   14.68   14.92</time>
   <energy>
    <i name="e_fr_energy">    -12.58347936 </i>
    <i name="e_wo_entrp">    -12.58347936 </i>
    <i name="e_0_energy">    -12.58347936 </i>
   </energy>
  </scstep>
  <scstep>
   <time name="total">   15.81   15.83</time>
   <energy>
    <i name="e_fr_energy">    -12.58349863 </i>
    <i name="e_wo_entrp">    -12.58349863 </i>
    <i name="e_0_energy">    -12.58349863 </i>
   </energy>
  </scstep>
  <scstep>
   <time name="total">   15.33   15.33</time>
   <energy>
    <i name="e_fr_energy">    -12.58351191 </i>
    <i name="e_wo_entrp">    -12.58351191 </i>
    <i name="e_0_energy">    -12.58351191 </i>
   </energy>
  </scstep>
  <scstep>
   <time name="total">   21.63   21.65</time>
   <energy>
    <i name="alphaZ">      3.29228976 </i>
    <i name="ewald">   -226.92444198 </i>
    <i name="hartreedc">    -15.21607370 </i>
    <i name="XCdc">    -14.44373735 </i>
    <i name="pawpsdc">   1618.71487441 </i>
    <i name="pawaedc">  -1591.06462912 </i>
    <i name="eentropy">     -0.00000000 </i>
    <i name="bandstr">     -2.16324424 </i>
    <i name="atom">    203.99733562 </i>
    <i name="e_fr_energy">    -12.58352126 </i>
    <i name="e_wo_entrp">    -12.58352126 </i>
    <i name="e_0_energy">    -12.58352126 </i>
   </energy>
  </scstep>
  <structure>
   <crystal>
    <varray name="basis" >
     <v>       0.00000000       2.73461054       2.73461054 </v>
     <v>       2.73461054      -0.00000000       2.73461054 </v>
     <v>       2.73461054       2.73461054       0.00000000 </v>
    </varray>
    <i name="volume">     40.89935362 </i>
    <varray name="rec_basis" >
     <v>      -0.18284139       0.18284139       0.18284139 </v>
     <v>       0.18284139      -0.18284139       0.18284139 </v>
     <v>       0.18284139       0.18284139      -0.18284139 </v>
    </varray>
   </crystal>
   <varray name="positions" >
    <v>       0.00000000       0.00000000       0.00000000 </v>
    <v>       0.25000000       0.25000000       0.25000000 </v>
   </varray>
  </structure>
  <varray name="forces" >
   <v>      -0.00000000      -0.00000000      -0.00000000 </v>
   <v>       0.00000000       0.00000000       0.00000000 </v>
  </varray>
  <energy>
   <i name="e_fr_energy">    -12.58352126 </i>
   <i name="e_wo_entrp">    -12.58352126 </i>
   <i name="e_0_energy">     -0.00000000 </i>
  </energy>
  <time name="totalsc">  590.53  590.93</time>
  <eigenvalues>
   <array>
    <dimension dim="1">band</dimension>
    <dimension dim="2">kpoint</dimension>
    <dimension dim="3">spin</dimension>
    <field>eigene</field>
    <field>occ</field>
    <set>
     <set comment="spin 1">
      <set comment="kpoint 1">
       <r>   -7.8880    1.0000 </r>
       <r>    5.2086    1.0000 </r>
       <r>    5.2087    1.0000 </r>
       <r>    5.2087    1.0000 </r>
       <r>    8.5963    0.0000 </r>
       <r>    8.5963    0.0000 </r>
       <r>    8.5963    0.0000 </r>
       <r>    9.3522    0.0000 </r>
       <r>   13.9913    0.0000 </r>
      </set>
      <set comment="kpoint 2">
       <r>   -7.6692    1.0000 </r>
       <r>    3.5932    1.0000 </r>
       <r>    4.9287    1.0000 </r>
       <r>    4.9287    1.0000 </r>
       <r>    8.5106    0.0000 </r>
       <r>    9.0171    0.0000 </r>
       <r>    9.0171    0.0000 </r>
       <r>   10.7370    0.0000 </r>
       <r>   13.7022    0.0000 </r>
      </set>
      <set comment="kpoint 3">
       <r>   -7.0181    1.0000 </r>
       <r>    0.9958    1.0000 </r>
       <r>    4.4183    1.0000 </r>
       <r>    4.4183    1.0000 </r>
       <r>    7.9788    0.0000 </r>
       <r>    9.5866    0.0000 </r>
       <r>    9.5866    0.0000 </r>
       <r>   13.0773    0.0000 </r>
       <r>   13.4616    0.0000 </r>
      </set>
      <set comment="kpoint 4">
       <r>   -6.0432    1.0000 </r>
       <r>   -1.2376    1.0000 </r>
       <r>    4.0496    1.0000 </r>
       <r>    4.0496    1.0000 </r>
       <r>    7.5969    0.0000 </r>
       <r>    9.5378    0.0000 </r>
       <r>    9.5378    0.0000 </r>
       <r>   14.0514    0.0000 </r>
       <r>   14.9172    0.0000 </r>
      </set>
      <set comment="kpoint 5">
       <r>   -5.3577    1.0000 </r>
       <r>   -2.3569    1.0000 </r>
       <r>    3.9267    1.0000 </r>
       <r>    3.9267    1.0000 </r>
       <r>    7.4537    0.0000 </r>
       <r>    9.4269    0.0000 </r>
       <r>    9.4269    0.0000 </r>
       <r>   13.8756    0.0000 </r>
       <r>   17.0146    0.0000 </r>
      </set>
      <set comment="kpoint 6">
       <r>   -7.5953    1.0000 </r>
       <r>    3.8594    1.0000 </r>
       <r>    4.4074    1.0000 </r>
       <r>    4.4074    1.0000 </r>
       <r>    8.0110    0.0000 </r>
       <r>    9.7458    0.0000 </r>
       <r>    9.7458    0.0000 </r>
       <r>   10.4348    0.0000 </r>
       <r>   12.7078    0.0000 </r>
      </set>
      <set comment="kpoint 7">
       <r>   -7.0841    1.0000 </r>
       <r>    1.7665    1.0000 </r>
       <r>    3.8459    1.0000 </r>
       <r>    3.9868    1.0000 </r>
       <r>    8.1086    0.0000 </r>
       <r>    9.7570    0.0000 </r>
       <r>   10.5616    0.0000 </r>
       <r>   10.8478    0.0000 </r>
       <r>   13.7217    0.0000 </r>
      </set>
      <set comment="kpoint 8">
       <r>   -6.1947    1.0000 </r>
       <r>   -0.5152    1.0000 </r>
       <r>    3.3453    1.0000 </r>
       <r>    3.5412    1.0000 </r>
       <r>    8.2076    0.0000 </r>
       <r>    9.6861    0.0000 </r>
       <r>   10.5731    0.0000 </r>
       <r>   11.6146    0.0000 </r>
       <r>   15.5933    0.0000 </r>
      </set>
      <set comment="kpoint 9">
       <r>   -5.2605    1.0000 </r>
       <r>   -2.1234    1.0000 </r>
       <r>    2.8549    1.0000 </r>
       <r>    3.5614    1.0000 </r>
       <r>    8.1581    0.0000 </r>
       <r>    9.5422    0.0000 </r>
       <r>   10.1939    0.0000 </r>
       <r>   13.6248    0.0000 </r>
       <r>   15.2174    0.0000 </r>
      </set>
      <set comment="kpoint 10">
       <r>   -5.5237    1.0000 </r>
       <r>   -1.7182    1.0000 </r>
       <r>    2.6608    1.0000 </r>
       <r>    3.8747    1.0000 </r>
       <r>    8.3297    0.0000 </r>
       <r>    9.6544    0.0000 </r>
       <r>    9.9595    0.0000 </r>
       <r>   14.1654    0.0000 </r>
       <r>   14.4059    0.0000 </r>
      </set>
      <set comment="kpoint 11">
       <r>   -6.5289    1.0000 </r>
       <r>    0.2105    1.0000 </r>
       <r>    2.8385    1.0000 </r>
       <r>    4.4072    1.0000 </r>
       <r>    8.7062    0.0000 </r>
       <r>    9.7646    0.0000 </r>
       <r>    9.8973    0.0000 </r>
       <r>   12.4671    0.0000 </r>
       <r>   12.6880    0.0000 </r>
      </set>
      <set comment="kpoint 12">
       <r>   -7.3044    1.0000 </r>
       <r>    2.3673    1.0000 </r>
       <r>    3.5913    1.0000 </r>
       <r>    4.9263    1.0000 </r>
       <r>    9.0933    0.0000 </r>
       <r>    9.1705    0.0000 </r>
       <r>    9.3263    0.0000 </r>
       <r>   11.6549    0.0000 </r>
       <r>   12.5416    0.0000 </r>
      </set>
      <set comment="kpoint 13">
       <r>   -6.7095    1.0000 </r>
       <r>    1.4041    1.0000 </r>
       <r>    3.2201    1.0000 </r>
       <r>    3.2201    1.0000 </r>
       <r>    7.0575    0.0000 </r>
       <r>    9.1798    0.0000 </r>
       <r>   11.9492    0.0000 </r>
       <r>   11.9493    0.0000 </r>
       <r>   14.2715    0.0000 </r>
      </set>
      <set comment="kpoint 14">
       <r>   -5.9349    1.0000 </r>
       <r>   -0.1636    1.0000 </r>
       <r>    2.4321    1.0000 </r>
       <r>    2.8603    1.0000 </r>
       <r>    7.2693    0.0000 </r>
       <r>    8.8964    0.0000 </r>
       <r>   12.1880    0.0000 </r>
       <r>   12.4995    0.0000 </r>
       <r>   16.5160    0.0000 </r>
      </set>
      <set comment="kpoint 15">
       <r>   -4.9268    1.0000 </r>
       <r>   -1.7536    1.0000 </r>
       <r>    1.4892    1.0000 </r>
       <r>    2.8633    1.0000 </r>
       <r>    7.4747    0.0000 </r>
       <r>   10.5280    0.0000 </r>
       <r>   11.9089    0.0000 </r>
       <r>   12.1378    0.0000 </r>
       <r>   16.5682    0.0000 </r>
      </set>
      <set comment="kpoint 16">
       <r>   -4.6988    1.0000 </r>
       <r>   -2.0361    1.0000 </r>
       <r>    0.9818    1.0000 </r>
       <r>    3.2032    1.0000 </r>
       <r>    7.8181    0.0000 </r>
       <r>   11.5677    0.0000 </r>
       <r>   11.6852    0.0000 </r>
       <r>   13.2157    0.0000 </r>
       <r>   14.3052    0.0000 </r>
      </set>
      <set comment="kpoint 17">
       <r>   -5.6625    1.0000 </r>
       <r>   -0.7621    1.0000 </r>
       <r>    1.2639    1.0000 </r>
       <r>    3.8090    1.0000 </r>
       <r>    8.4606    0.0000 </r>
       <r>   10.9801    0.0000 </r>
       <r>   11.1918    0.0000 </r>
       <r>   12.3300    0.0000 </r>
       <r>   12.6474    0.0000 </r>
      </set>
      <set comment="kpoint 18">
       <r>   -5.2737    1.0000 </r>
       <r>   -1.0562    1.0000 </r>
       <r>    2.4193    1.0000 </r>
       <r>    2.4193    1.0000 </r>
       <r>    6.5090    0.0000 </r>
       <r>    7.5001    0.0000 </r>
       <r>   14.3795    0.0000 </r>
       <r>   14.3798    0.0000 </r>
       <r>   16.9146    0.0000 </r>
      </set>
      <set comment="kpoint 19">
       <r>   -4.2932    1.0000 </r>
       <r>   -2.2617    1.0000 </r>
       <r>    1.5980    1.0000 </r>
       <r>    2.3358    1.0000 </r>
       <r>    6.8105    0.0000 </r>
       <r>    7.8981    0.0000 </r>
       <r>   14.6105    0.0000 </r>
       <r>   14.6845    0.0000 </r>
       <r>   17.1941    0.0000 </r>
      </set>
      <set comment="kpoint 20">
       <r>   -3.8160    1.0000 </r>
       <r>   -2.6930    1.0000 </r>
       <r>    0.6530    1.0000 </r>
       <r>    2.6147    1.0000 </r>
       <r>    7.1386    0.0000 </r>
       <r>   10.1921    0.0000 </r>
       <r>   13.7994    0.0000 </r>
       <r>   14.2926    0.0000 </r>
       <r>   14.5654    0.0000 </r>
      </set>
      <set comment="kpoint 21">
       <r>   -3.3540    1.0000 </r>
       <r>   -3.3540    1.0000 </r>
       <r>    2.1541    1.0000 </r>
       <r>    2.1542    1.0000 </r>
       <r>    6.6253    0.0000 </r>
       <r>    6.6254    0.0000 </r>
       <r>   16.5707    0.0000 </r>
       <r>   16.5708    0.0000 </r>
       <r>   17.4189    0.0000 </r>
      </set>
      <set comment="kpoint 22">
       <r>   -6.4430    1.0000 </r>
       <r>    0.5657    1.0000 </r>
       <r>    2.3973    1.0000 </r>
       <r>    3.7672    1.0000 </r>
       <r>    8.3980    0.0000 </r>
       <r>    9.9613    0.0000 </r>
       <r>   10.2519    0.0000 </r>
       <r>   11.6766    0.0000 </r>
       <r>   14.0634    0.0000 </r>
      </set>
      <set comment="kpoint 23">
       <r>   -5.4742    1.0000 </r>
       <r>   -1.1477    1.0000 </r>
       <r>    1.7209    1.0000 </r>
       <r>    3.2292    1.0000 </r>
       <r>    8.8589    0.0000 </r>
       <r>    9.5735    0.0000 </r>
       <r>   11.1524    0.0000 </r>
       <r>   12.1360    0.0000 </r>
       <r>   15.3578    0.0000 </r>
      </set>
      <set comment="kpoint 24">
       <r>   -4.7624    1.0000 </r>
       <r>   -2.1831    1.0000 </r>
       <r>    1.5684    1.0000 </r>
       <r>    2.9813    1.0000 </r>
       <r>    9.0581    0.0000 </r>
       <r>    9.1316    0.0000 </r>
       <r>   12.1114    0.0000 </r>
       <r>   13.3536    0.0000 </r>
       <r>   13.6791    0.0000 </r>
      </set>
      <set comment="kpoint 25">
       <r>   -5.0605    1.0000 </r>
       <r>   -1.3048    1.0000 </r>
       <r>    1.6819    1.0000 </r>
       <r>    2.3266    1.0000 </r>
       <r>    7.8640    0.0000 </r>
       <r>    8.6205    0.0000 </r>
       <r>   11.9352    0.0000 </r>
       <r>   14.3284    0.0000 </r>
       <r>   16.6136    0.0000 </r>
      </set>
      <set comment="kpoint 26">
       <r>   -4.1046    1.0000 </r>
       <r>   -2.3744    1.0000 </r>
       <r>    0.9167    1.0000 </r>
       <r>    2.1168    1.0000 </r>
       <r>    8.3386    0.0000 </r>
       <r>   10.3425    0.0000 </r>
       <r>   11.4436    0.0000 </r>
       <r>   13.7194    0.0000 </r>
       <r>   14.7390    0.0000 </r>
      </set>
      <set comment="kpoint 27">
       <r>   -4.4868    1.0000 </r>
       <r>   -1.9718    1.0000 </r>
       <r>    0.7316    1.0000 </r>
       <r>    2.5234    1.0000 </r>
       <r>    8.8440    0.0000 </r>
       <r>   10.6390    0.0000 </r>
       <r>   11.3562    0.0000 </r>
       <r>   13.2810    0.0000 </r>
       <r>   14.1934    0.0000 </r>
      </set>
      <set comment="kpoint 28">
       <r>   -3.2698    1.0000 </r>
       <r>   -3.2698    1.0000 </r>
       <r>    1.6173    1.0000 </r>
       <r>    1.6174    1.0000 </r>
       <r>    7.8969    0.0000 </r>
       <r>    7.8969    0.0000 </r>
       <r>   14.1502    0.0000 </r>
       <r>   14.1502    0.0000 </r>
       <r>   17.0260    0.0000 </r>
      </set>
      <set comment="kpoint 29">
       <r>   -3.1838    1.0000 </r>
       <r>   -3.1838    1.0000 </r>
       <r>    1.1545    1.0000 </r>
       <r>    1.1545    1.0000 </r>
       <r>   10.3140    0.0000 </r>
       <r>   10.3140    0.0000 </r>
       <r>   11.1718    0.0000 </r>
       <r>   11.1719    0.0000 </r>
       <r>   17.0324    0.0000 </r>
      </set>
     </set>
    </set>
   </array>
  </eigenvalues>
  <separator name="orbital magnetization" >
   <v name="MAGDIPOLOUT">      0.00000000      0.00000000      0.00000000</v>
  </separator>
  <dos>
   <i name="efermi">      5.42077291 </i>
   <total>
    <array>
     <dimension dim="1">gridpoints</dimension>
     <dimension dim="2">spin</dimension>
     <field>energy</field>
     <field>total</field>
     <field>integrated</field>
     <set>
      <set comment="spin 1">
       <r>    -9.1533     0.0000     0.0000 </r>
       <r>    -9.0605     0.0000     0.0000 </r>
       <r>    -8.9678     0.0000     0.0000 </r>
       <r>    -8.8750     0.0000     0.0000 </r>
       <r>    -8.7822     0.0000     0.0000 </r>
       <r>    -8.6894     0.0000     0.0000 </r>
       <r>    -8.5966     0.0000     0.0000 </r>
       <r>    -8.5038     0.0000     0.0000 </r>
       <r>    -8.4110     0.0000     0.0000 </r>
       <r>    -8.3182     0.0000     0.0000 </r>
       <r>    -8.2254     0.0000     0.0000 </r>
       <r>    -8.1326     0.0000     0.0000 </r>
       <r>    -8.0398     0.0000     0.0000 </r>
       <r>    -7.9470     0.0020     0.0002 </r>
       <r>    -7.8542     0.0329     0.0032 </r>
       <r>    -7.7615     0.0087     0.0040 </r>
       <r>    -7.6687     0.1737     0.0202 </r>
       <r>    -7.5759     0.3392     0.0516 </r>
       <r>    -7.4831     0.0748     0.0586 </r>
       <r>    -7.3903     0.0040     0.0589 </r>
       <r>    -7.2975     0.2876     0.0856 </r>
       <r>    -7.2047     0.2129     0.1054 </r>
       <r>    -7.1119     0.2201     0.1258 </r>
       <r>    -7.0191     0.9221     0.2114 </r>
       <r>    -6.9263     0.2041     0.2303 </r>
       <r>    -6.8335     0.0017     0.2305 </r>
       <r>    -6.7407     0.0476     0.2349 </r>
       <r>    -6.6480     0.1950     0.2530 </r>
       <r>    -6.5552     0.2422     0.2755 </r>
       <r>    -6.4624     1.0425     0.3722 </r>
       <r>    -6.3696     0.7268     0.4396 </r>
       <r>    -6.2768     0.0293     0.4424 </r>
       <r>    -6.1840     0.6146     0.4994 </r>
       <r>    -6.0912     0.4131     0.5377 </r>
       <r>    -5.9984     0.3110     0.5666 </r>
       <r>    -5.9056     0.8022     0.6410 </r>
       <r>    -5.8128     0.2060     0.6601 </r>
       <r>    -5.7200     0.0264     0.6626 </r>
       <r>    -5.6272     0.4002     0.6997 </r>
       <r>    -5.5345     0.5525     0.7510 </r>
       <r>    -5.4417     2.1869     0.9539 </r>
       <r>    -5.3489     0.4813     0.9986 </r>
       <r>    -5.2561     0.7873     1.0716 </r>
       <r>    -5.1633     0.5317     1.1210 </r>
       <r>    -5.0705     0.3941     1.1575 </r>
       <r>    -4.9777     0.6836     1.2210 </r>
       <r>    -4.8849     0.8253     1.2975 </r>
       <r>    -4.7921     0.3255     1.3277 </r>
       <r>    -4.6993     1.2651     1.4451 </r>
       <r>    -4.6065     0.5449     1.4957 </r>
       <r>    -4.5137     0.2298     1.5170 </r>
       <r>    -4.4210     0.7534     1.5869 </r>
       <r>    -4.3282     0.1943     1.6050 </r>
       <r>    -4.2354     0.7961     1.6788 </r>
       <r>    -4.1426     0.3369     1.7101 </r>
       <r>    -4.0498     1.6127     1.8597 </r>
       <r>    -3.9570     0.1223     1.8711 </r>
       <r>    -3.8642     0.0437     1.8751 </r>
       <r>    -3.7714     0.4092     1.9131 </r>
       <r>    -3.6786     0.0523     1.9180 </r>
       <r>    -3.5858     0.0000     1.9180 </r>
       <r>    -3.4930     0.0000     1.9180 </r>
       <r>    -3.4002     0.0242     1.9202 </r>
       <r>    -3.3075     0.3496     1.9527 </r>
       <r>    -3.2147     0.9255     2.0385 </r>
       <r>    -3.1219     0.4485     2.0802 </r>
       <r>    -3.0291     0.0202     2.0820 </r>
       <r>    -2.9363     0.0000     2.0820 </r>
       <r>    -2.8435     0.0000     2.0820 </r>
       <r>    -2.7507     0.0259     2.0844 </r>
       <r>    -2.6579     0.3981     2.1214 </r>
       <r>    -2.5651     0.0812     2.1289 </r>
       <r>    -2.4723     0.0058     2.1294 </r>
       <r>    -2.3795     0.9315     2.2159 </r>
       <r>    -2.2867     1.4777     2.3530 </r>
       <r>    -2.1940     1.1632     2.4609 </r>
       <r>    -2.1012     1.3978     2.5906 </r>
       <r>    -2.0084     1.1872     2.7008 </r>
       <r>    -1.9156     1.0206     2.7955 </r>
       <r>    -1.8228     0.0838     2.8033 </r>
       <r>    -1.7300     1.1021     2.9055 </r>
       <r>    -1.6372     0.8801     2.9872 </r>
       <r>    -1.5444     0.0116     2.9883 </r>
       <r>    -1.4516     0.0000     2.9883 </r>
       <r>    -1.3588     0.0638     2.9942 </r>
       <r>    -1.2660     0.8802     3.0759 </r>
       <r>    -1.1732     0.8656     3.1562 </r>
       <r>    -1.0805     1.5624     3.3012 </r>
       <r>    -0.9877     0.2417     3.3236 </r>
       <r>    -0.8949     0.0067     3.3242 </r>
       <r>    -0.8021     0.0653     3.3303 </r>
       <r>    -0.7093     0.4058     3.3679 </r>
       <r>    -0.6165     0.0362     3.3713 </r>
       <r>    -0.5237     0.4074     3.4091 </r>
       <r>    -0.4309     0.5922     3.4640 </r>
       <r>    -0.3381     0.0086     3.4648 </r>
       <r>    -0.2453     0.0105     3.4658 </r>
       <r>    -0.1525     0.6187     3.5232 </r>
       <r>    -0.0597     0.3794     3.5584 </r>
       <r>     0.0331     0.0017     3.5586 </r>
       <r>     0.1258     0.0084     3.5594 </r>
       <r>     0.2186     0.5890     3.6140 </r>
       <r>     0.3114     0.4107     3.6521 </r>
       <r>     0.4042     0.0022     3.6523 </r>
       <r>     0.4970     0.0263     3.6548 </r>
       <r>     0.5898     0.7526     3.7246 </r>
       <r>     0.6826     0.7183     3.7913 </r>
       <r>     0.7754     0.9198     3.8766 </r>
       <r>     0.8682     0.2812     3.9027 </r>
       <r>     0.9610     1.9714     4.0856 </r>
       <r>     1.0538     1.1868     4.1958 </r>
       <r>     1.1466     0.2449     4.2185 </r>
       <r>     1.2393     0.4163     4.2571 </r>
       <r>     1.3321     0.3780     4.2922 </r>
       <r>     1.4249     0.2256     4.3131 </r>
       <r>     1.5177     0.9237     4.3988 </r>
       <r>     1.6105     2.1107     4.5947 </r>
       <r>     1.7033     2.4309     4.8203 </r>
       <r>     1.7961     2.4147     5.0443 </r>
       <r>     1.8889     0.2377     5.0664 </r>
       <r>     1.9817     0.0004     5.0664 </r>
       <r>     2.0745     0.2366     5.0884 </r>
       <r>     2.1673     1.7917     5.2546 </r>
       <r>     2.2601     0.2915     5.2817 </r>
       <r>     2.3528     1.7303     5.4422 </r>
       <r>     2.4456     2.7244     5.6950 </r>
       <r>     2.5384     1.2278     5.8090 </r>
       <r>     2.6312     0.8781     5.8904 </r>
       <r>     2.7240     0.9331     5.9770 </r>
       <r>     2.8168     0.6569     6.0380 </r>
       <r>     2.9096     3.1802     6.3331 </r>
       <r>     3.0024     0.9729     6.4234 </r>
       <r>     3.0952     0.2795     6.4493 </r>
       <r>     3.1880     0.6736     6.5118 </r>
       <r>     3.2808     2.7137     6.7636 </r>
       <r>     3.3736     0.9437     6.8512 </r>
       <r>     3.4663     0.2356     6.8730 </r>
       <r>     3.5591     1.3086     6.9945 </r>
       <r>     3.6519     1.4894     7.1327 </r>
       <r>     3.7447     0.3287     7.1632 </r>
       <r>     3.8375     1.7279     7.3235 </r>
       <r>     3.9303     1.9407     7.5036 </r>
       <r>     4.0231     1.1800     7.6131 </r>
       <r>     4.1159     0.6551     7.6739 </r>
       <r>     4.2087     0.0206     7.6758 </r>
       <r>     4.3015     0.0024     7.6760 </r>
       <r>     4.3943     0.7052     7.7414 </r>
       <r>     4.4871     1.4458     7.8756 </r>
       <r>     4.5798     0.0356     7.8789 </r>
       <r>     4.6726     0.0000     7.8789 </r>
       <r>     4.7654     0.0000     7.8789 </r>
       <r>     4.8582     0.0293     7.8816 </r>
       <r>     4.9510     0.8494     7.9604 </r>
       <r>     5.0438     0.2994     7.9882 </r>
       <r>     5.1366     0.0032     7.9885 </r>
       <r>     5.2294     0.0884     7.9967 </r>
       <r>     5.3222     0.0351     8.0000 </r>
       <r>     5.4150     0.0001     8.0000 </r>
       <r>     5.5078     0.0000     8.0000 </r>
       <r>     5.6006     0.0000     8.0000 </r>
       <r>     5.6933     0.0000     8.0000 </r>
       <r>     5.7861     0.0000     8.0000 </r>
       <r>     5.8789     0.0000     8.0000 </r>
       <r>     5.9717     0.0000     8.0000 </r>
       <r>     6.0645     0.0000     8.0000 </r>
       <r>     6.1573     0.0000     8.0000 </r>
       <r>     6.2501     0.0000     8.0000 </r>
       <r>     6.3429     0.0000     8.0000 </r>
       <r>     6.4357     0.0048     8.0004 </r>
       <r>     6.5285     0.1751     8.0167 </r>
       <r>     6.6213     0.1872     8.0341 </r>
       <r>     6.7141     0.1398     8.0470 </r>
       <r>     6.8069     0.4624     8.0899 </r>
       <r>     6.8996     0.5403     8.1401 </r>
       <r>     6.9924     0.0142     8.1414 </r>
       <r>     7.0852     0.2227     8.1621 </r>
       <r>     7.1780     0.4648     8.2052 </r>
       <r>     7.2708     0.5847     8.2594 </r>
       <r>     7.3636     0.4855     8.3045 </r>
       <r>     7.4564     0.4238     8.3438 </r>
       <r>     7.5492     1.0000     8.4366 </r>
       <r>     7.6420     0.3121     8.4656 </r>
       <r>     7.7348     0.0436     8.4696 </r>
       <r>     7.8276     0.8037     8.5442 </r>
       <r>     7.9204     2.6643     8.7914 </r>
       <r>     8.0131     0.9796     8.8823 </r>
       <r>     8.1059     0.7200     8.9491 </r>
       <r>     8.1987     1.7475     9.1113 </r>
       <r>     8.2915     1.0559     9.2093 </r>
       <r>     8.3843     2.8134     9.4703 </r>
       <r>     8.4771     1.2975     9.5907 </r>
       <r>     8.5699     0.5430     9.6411 </r>
       <r>     8.6627     1.0362     9.7373 </r>
       <r>     8.7555     0.9484     9.8253 </r>
       <r>     8.8483     1.4859     9.9632 </r>
       <r>     8.9411     2.5117    10.1962 </r>
       <r>     9.0339     0.8516    10.2752 </r>
       <r>     9.1266     1.8590    10.4477 </r>
       <r>     9.2194     1.2819    10.5667 </r>
       <r>     9.3122     0.2613    10.5909 </r>
       <r>     9.4050     0.4481    10.6325 </r>
       <r>     9.4978     0.4772    10.6768 </r>
       <r>     9.5906     3.1222    10.9665 </r>
       <r>     9.6834     2.3566    11.1852 </r>
       <r>     9.7762     2.4485    11.4124 </r>
       <r>     9.8690     0.9974    11.5049 </r>
       <r>     9.9618     1.7958    11.6716 </r>
       <r>    10.0546     1.0059    11.7649 </r>
       <r>    10.1474     0.1564    11.7794 </r>
       <r>    10.2401     1.6128    11.9291 </r>
       <r>    10.3329     1.9051    12.1059 </r>
       <r>    10.4257     1.4687    12.2421 </r>
       <r>    10.5185     0.7406    12.3109 </r>
       <r>    10.6113     2.4477    12.5380 </r>
       <r>    10.7041     1.0481    12.6352 </r>
       <r>    10.7969     0.3712    12.6697 </r>
       <r>    10.8897     0.8332    12.7470 </r>
       <r>    10.9825     0.3827    12.7825 </r>
       <r>    11.0753     0.2686    12.8074 </r>
       <r>    11.1681     1.6848    12.9638 </r>
       <r>    11.2609     1.3022    13.0846 </r>
       <r>    11.3536     0.5020    13.1312 </r>
       <r>    11.4464     1.5917    13.2789 </r>
       <r>    11.5392     1.1745    13.3879 </r>
       <r>    11.6320     1.7520    13.5504 </r>
       <r>    11.7248     2.3394    13.7675 </r>
       <r>    11.8176     0.2377    13.7896 </r>
       <r>    11.9104     0.8295    13.8665 </r>
       <r>    12.0032     1.6289    14.0177 </r>
       <r>    12.0960     0.7820    14.0902 </r>
       <r>    12.1888     3.6089    14.4251 </r>
       <r>    12.2816     0.7617    14.4958 </r>
       <r>    12.3744     0.4179    14.5346 </r>
       <r>    12.4671     0.7450    14.6037 </r>
       <r>    12.5599     1.6319    14.7551 </r>
       <r>    12.6527     0.6560    14.8160 </r>
       <r>    12.7455     1.2196    14.9292 </r>
       <r>    12.8383     0.0898    14.9375 </r>
       <r>    12.9311     0.0000    14.9375 </r>
       <r>    13.0239     0.0220    14.9395 </r>
       <r>    13.1167     0.2726    14.9648 </r>
       <r>    13.2095     0.4984    15.0111 </r>
       <r>    13.3023     1.3548    15.1368 </r>
       <r>    13.3951     1.1074    15.2396 </r>
       <r>    13.4879     0.3722    15.2741 </r>
       <r>    13.5806     0.1870    15.2915 </r>
       <r>    13.6734     1.6093    15.4408 </r>
       <r>    13.7662     3.4465    15.7606 </r>
       <r>    13.8590     0.7584    15.8310 </r>
       <r>    13.9518     0.1423    15.8442 </r>
       <r>    14.0446     0.4797    15.8887 </r>
       <r>    14.1374     1.5199    16.0297 </r>
       <r>    14.2302     2.2898    16.2422 </r>
       <r>    14.3230     1.9477    16.4229 </r>
       <r>    14.4158     1.9930    16.6079 </r>
       <r>    14.5086     0.5067    16.6549 </r>
       <r>    14.6014     0.8113    16.7302 </r>
       <r>    14.6942     1.4884    16.8683 </r>
       <r>    14.7869     2.0409    17.0577 </r>
       <r>    14.8797     0.2270    17.0787 </r>
       <r>    14.9725     0.2683    17.1036 </r>
       <r>    15.0653     0.0198    17.1055 </r>
       <r>    15.1581     0.0472    17.1098 </r>
       <r>    15.2509     0.7920    17.1833 </r>
       <r>    15.3437     0.8684    17.2639 </r>
       <r>    15.4365     1.2971    17.3843 </r>
       <r>    15.5293     0.0616    17.3900 </r>
       <r>    15.6221     0.7646    17.4609 </r>
       <r>    15.7149     0.2101    17.4804 </r>
       <r>    15.8077     0.0003    17.4805 </r>
       <r>    15.9004     0.0000    17.4805 </r>
       <r>    15.9932     0.0000    17.4805 </r>
       <r>    16.0860     0.0000    17.4805 </r>
       <r>    16.1788     0.0000    17.4805 </r>
       <r>    16.2716     0.0000    17.4805 </r>
       <r>    16.3644     0.0000    17.4805 </r>
       <r>    16.4572     0.0495    17.4851 </r>
       <r>    16.5500     1.2038    17.5968 </r>
       <r>    16.6428     1.8007    17.7639 </r>
       <r>    16.7356     0.2292    17.7851 </r>
       <r>    16.8284     0.0021    17.7853 </r>
       <r>    16.9212     0.1446    17.7987 </r>
       <r>    17.0139     0.4494    17.8404 </r>
       <r>    17.1067     0.5787    17.8941 </r>
       <r>    17.1995     0.5705    17.9471 </r>
       <r>    17.2923     0.4412    17.9880 </r>
       <r>    17.3851     0.0242    17.9903 </r>
       <r>    17.4779     0.0988    17.9994 </r>
       <r>    17.5707     0.0060    18.0000 </r>
       <r>    17.6635     0.0000    18.0000 </r>
       <r>    17.7563     0.0000    18.0000 </r>
       <r>    17.8491     0.0000    18.0000 </r>
       <r>    17.9419     0.0000    18.0000 </r>
       <r>    18.0347     0.0000    18.0000 </r>
       <r>    18.1274     0.0000    18.0000 </r>
       <r>    18.2202     0.0000    18.0000 </r>
       <r>    18.3130     0.0000    18.0000 </r>
       <r>    18.4058     0.0000    18.0000 </r>
       <r>    18.4986     0.0000    18.0000 </r>
       <r>    18.5914     0.0000    18.0000 </r>
       <r>    18.6842     0.0000    18.0000 </r>
      </set>
     </set>
    </array>
   </total>
  </dos>
 </calculation>
 <structure name="finalpos" >
  <crystal>
   <varray name="basis" >
    <v>       0.00000000       2.73461054       2.73461054 </v>
    <v>       2.73461054      -0.00000000       2.73461054 </v>
    <v>       2.73461054       2.73461054       0.00000000 </v>
   </varray>
   <i name="volume">     40.89935362 </i>
   <varray name="rec_basis" >
    <v>      -0.18284139       0.18284139       0.18284139 </v>
    <v>       0.18284139      -0.18284139       0.18284139 </v>
    <v>       0.18284139       0.18284139      -0.18284139 </v>
   </varray>
  </crystal>
  <varray name="positions" >
   <v>       0.00000000       0.00000000       0.00000000 </v>
   <v>       0.25000000       0.25000000       0.25000000 </v>
  </varray>
 </structure>
</modeling>
