Si diamond cubic                        
   5.4310000000000000     
     0.0000000000000000    0.5035187879126845    0.5035187879126845
     0.5035187879126845   -0.0000000000000000    0.5035187879126845
     0.5035187879126845    0.5035187879126845    0.0000000000000000
   Si
     2
Direct
  0.0000000000000000  0.0000000000000000  0.0000000000000000
  0.2500000000000000  0.2500000000000000  0.2500000000000000

  0.00000000E+00  0.00000000E+00  0.00000000E+00
  0.00000000E+00  0.00000000E+00  0.00000000E+00
