   2   2   1   0
  0.2044968E+02  0.3867323E-09  0.3867323E-09  0.3867323E-09  0.5000000E-15
   1.0000000000000000E-004
  CAR 
 unknown system                          
     19.42567404     -9.19258447  301      5.50408370      1.00000000
     -9.193  0.0000E+00  0.0000E+00
     -9.097  0.0000E+00  0.0000E+00
     -9.002  0.0000E+00  0.0000E+00
     -8.906  0.0000E+00  0.0000E+00
     -8.811  0.0000E+00  0.0000E+00
     -8.716  0.0000E+00  0.0000E+00
     -8.620  0.0000E+00  0.0000E+00
     -8.525  0.0000E+00  0.0000E+00
     -8.429  0.0000E+00  0.0000E+00
     -8.334  0.0000E+00  0.0000E+00
     -8.239  0.0000E+00  0.0000E+00
     -8.143  0.2319E-13  0.2213E-14
     -8.048  0.2067E-06  0.1971E-07
     -7.952  0.1760E-02  0.1679E-03
     -7.857  0.3250E-01  0.3269E-02
     -7.762  0.8172E-02  0.4048E-02
     -7.666  0.1793E+00  0.2115E-01
     -7.571  0.3297E+00  0.5260E-01
     -7.475  0.6275E-01  0.5858E-01
     -7.380  0.7316E-02  0.5928E-01
     -7.285  0.3360E+00  0.9134E-01
     -7.189  0.1492E+00  0.1056E+00
     -7.094  0.3838E+00  0.1422E+00
     -6.999  0.8301E+00  0.2214E+00
     -6.903  0.9521E-01  0.2305E+00
     -6.808  0.9706E-03  0.2305E+00
     -6.712  0.1207E+00  0.2421E+00
     -6.617  0.1296E+00  0.2544E+00
     -6.522  0.5805E+00  0.3098E+00
     -6.426  0.1057E+01  0.4107E+00
     -6.331  0.3214E+00  0.4413E+00
     -6.235  0.1251E+00  0.4533E+00
     -6.140  0.8009E+00  0.5297E+00
     -6.045  0.2312E+00  0.5517E+00
     -5.949  0.5036E+00  0.5998E+00
     -5.854  0.6233E+00  0.6592E+00
     -5.758  0.1133E-01  0.6603E+00
     -5.663  0.2409E+00  0.6833E+00
     -5.568  0.3593E+00  0.7176E+00
     -5.472  0.1790E+01  0.8883E+00
     -5.377  0.1087E+01  0.9920E+00
     -5.281  0.4844E+00  0.1038E+01
     -5.186  0.8476E+00  0.1119E+01
     -5.091  0.2072E+00  0.1139E+01
     -4.995  0.7865E+00  0.1214E+01
     -4.900  0.7634E+00  0.1287E+01
     -4.804  0.3526E+00  0.1320E+01
     -4.709  0.1240E+01  0.1439E+01
     -4.614  0.5972E+00  0.1496E+01
     -4.518  0.2013E+00  0.1515E+01
     -4.423  0.7552E+00  0.1587E+01
     -4.327  0.1890E+00  0.1605E+01
     -4.232  0.7819E+00  0.1680E+01
     -4.137  0.3916E+00  0.1717E+01
     -4.041  0.1542E+01  0.1864E+01
     -3.946  0.7499E-01  0.1871E+01
     -3.851  0.8562E-01  0.1879E+01
     -3.755  0.3865E+00  0.1916E+01
     -3.660  0.1922E-01  0.1918E+01
     -3.564  0.2021E-05  0.1918E+01
     -3.469  0.1303E-03  0.1918E+01
     -3.374  0.7090E-01  0.1925E+01
     -3.278  0.5725E+00  0.1979E+01
     -3.183  0.8008E+00  0.2056E+01
     -3.087  0.2731E+00  0.2082E+01
     -2.992  0.2427E-02  0.2082E+01
     -2.897  0.3687E-07  0.2082E+01
     -2.801  0.8689E-03  0.2082E+01
     -2.706  0.2023E+00  0.2101E+01
     -2.610  0.2850E+00  0.2129E+01
     -2.515  0.3298E-02  0.2129E+01
     -2.420  0.2015E+00  0.2148E+01
     -2.324  0.1796E+01  0.2319E+01
     -2.229  0.1060E+01  0.2421E+01
     -2.133  0.1366E+01  0.2551E+01
     -2.038  0.1103E+01  0.2656E+01
     -1.943  0.1305E+01  0.2781E+01
     -1.847  0.2145E+00  0.2801E+01
     -1.752  0.6512E+00  0.2863E+01
     -1.656  0.1270E+01  0.2984E+01
     -1.561  0.4103E-01  0.2988E+01
     -1.466  0.7188E-05  0.2988E+01
     -1.370  0.3533E-01  0.2992E+01
     -1.275  0.8161E+00  0.3070E+01
     -1.179  0.7953E+00  0.3145E+01
     -1.084  0.1625E+01  0.3300E+01
     -0.989  0.2458E+00  0.3324E+01
     -0.893  0.4154E-02  0.3324E+01
     -0.798  0.5714E-01  0.3330E+01
     -0.703  0.4017E+00  0.3368E+01
     -0.607  0.3659E-01  0.3371E+01
     -0.512  0.5100E+00  0.3420E+01
     -0.416  0.4658E+00  0.3465E+01
     -0.321  0.2880E-02  0.3465E+01
     -0.226  0.4125E-01  0.3469E+01
     -0.130  0.7783E+00  0.3543E+01
     -0.035  0.1630E+00  0.3559E+01
      0.061  0.1268E-03  0.3559E+01
      0.156  0.4848E-01  0.3563E+01
      0.251  0.7892E+00  0.3639E+01
      0.347  0.1450E+00  0.3652E+01
      0.442  0.3616E-03  0.3652E+01
      0.538  0.2213E+00  0.3673E+01
      0.633  0.8545E+00  0.3755E+01
      0.728  0.7709E+00  0.3829E+01
      0.824  0.6095E+00  0.3887E+01
      0.919  0.1028E+01  0.3985E+01
      1.015  0.1929E+01  0.4169E+01
      1.110  0.3841E+00  0.4205E+01
      1.205  0.4318E+00  0.4247E+01
      1.301  0.4296E+00  0.4288E+01
      1.396  0.1397E+00  0.4301E+01
      1.492  0.7298E+00  0.4371E+01
      1.587  0.1888E+01  0.4551E+01
      1.682  0.2409E+01  0.4780E+01
      1.778  0.2583E+01  0.5027E+01
      1.873  0.4132E+00  0.5066E+01
      1.969  0.1022E-02  0.5066E+01
      2.064  0.2469E+00  0.5090E+01
      2.159  0.1678E+01  0.5250E+01
      2.255  0.3228E+00  0.5281E+01
      2.350  0.1496E+01  0.5424E+01
      2.446  0.2840E+01  0.5694E+01
      2.541  0.1322E+01  0.5821E+01
      2.636  0.8291E+00  0.5900E+01
      2.732  0.8464E+00  0.5980E+01
      2.827  0.1057E+01  0.6081E+01
      2.922  0.2673E+01  0.6336E+01
      3.018  0.1128E+01  0.6444E+01
      3.113  0.6193E-01  0.6450E+01
      3.209  0.1287E+01  0.6573E+01
      3.304  0.2368E+01  0.6799E+01
      3.399  0.7432E+00  0.6869E+01
      3.495  0.6599E-01  0.6876E+01
      3.590  0.1911E+01  0.7058E+01
      3.686  0.8644E+00  0.7141E+01
      3.781  0.8415E+00  0.7221E+01
      3.876  0.1643E+01  0.7378E+01
      3.972  0.1928E+01  0.7562E+01
      4.067  0.7240E+00  0.7631E+01
      4.163  0.4626E+00  0.7675E+01
      4.258  0.1127E-01  0.7676E+01
      4.353  0.3172E-01  0.7679E+01
      4.449  0.1362E+01  0.7809E+01
      4.544  0.7317E+00  0.7879E+01
      4.640  0.3756E-02  0.7879E+01
      4.735  0.4372E-07  0.7879E+01
      4.830  0.5785E-03  0.7879E+01
      4.926  0.2833E+00  0.7906E+01
      5.021  0.8316E+00  0.7985E+01
      5.117  0.3113E-01  0.7988E+01
      5.212  0.1489E-01  0.7990E+01
      5.307  0.1002E+00  0.7999E+01
      5.403  0.7750E-02  0.8000E+01
      5.498  0.1452E-05  0.8000E+01
      5.594  0.2666E-12  0.8000E+01
      5.689  0.0000E+00  0.8000E+01
      5.784  0.0000E+00  0.8000E+01
      5.880  0.0000E+00  0.8000E+01
      5.975  0.0000E+00  0.8000E+01
      6.070  0.0000E+00  0.8000E+01
      6.166  0.0000E+00  0.8000E+01
      6.261  0.2116E-10  0.8000E+01
      6.357  0.2798E-04  0.8000E+01
      6.452  0.3968E-01  0.8004E+01
      6.547  0.2150E+00  0.8024E+01
      6.643  0.2127E+00  0.8045E+01
      6.738  0.9934E-01  0.8054E+01
      6.834  0.8072E+00  0.8131E+01
      6.929  0.1007E+00  0.8141E+01
      7.024  0.1108E+00  0.8151E+01
      7.120  0.3839E+00  0.8188E+01
      7.215  0.3697E+00  0.8223E+01
      7.311  0.7990E+00  0.8299E+01
      7.406  0.2164E+00  0.8320E+01
      7.501  0.1103E+01  0.8425E+01
      7.597  0.4065E+00  0.8464E+01
      7.692  0.5206E-01  0.8469E+01
      7.788  0.4097E+00  0.8508E+01
      7.883  0.1646E+01  0.8665E+01
      7.978  0.2213E+01  0.8876E+01
      8.074  0.6093E+00  0.8934E+01
      8.169  0.1736E+01  0.9100E+01
      8.265  0.9386E+00  0.9189E+01
      8.360  0.2115E+01  0.9391E+01
      8.455  0.2070E+01  0.9589E+01
      8.551  0.4929E+00  0.9636E+01
      8.646  0.8240E+00  0.9714E+01
      8.742  0.1153E+01  0.9824E+01
      8.837  0.7561E+00  0.9896E+01
      8.932  0.2983E+01  0.1018E+02
      9.028  0.8348E+00  0.1026E+02
      9.123  0.1849E+01  0.1044E+02
      9.218  0.1308E+01  0.1056E+02
      9.314  0.3363E+00  0.1059E+02
      9.409  0.4674E+00  0.1064E+02
      9.505  0.5114E+00  0.1069E+02
      9.600  0.3096E+01  0.1098E+02
      9.695  0.2298E+01  0.1120E+02
      9.791  0.2268E+01  0.1142E+02
      9.886  0.1168E+01  0.1153E+02
      9.982  0.1587E+01  0.1168E+02
     10.077  0.8830E+00  0.1177E+02
     10.172  0.2713E+00  0.1179E+02
     10.268  0.1814E+01  0.1196E+02
     10.363  0.2199E+01  0.1217E+02
     10.459  0.8754E+00  0.1226E+02
     10.554  0.1152E+01  0.1237E+02
     10.649  0.2334E+01  0.1259E+02
     10.745  0.6466E+00  0.1265E+02
     10.840  0.5165E+00  0.1270E+02
     10.936  0.6450E+00  0.1276E+02
     11.031  0.4102E+00  0.1280E+02
     11.126  0.5527E+00  0.1285E+02
     11.222  0.2221E+01  0.1307E+02
     11.317  0.3402E+00  0.1310E+02
     11.413  0.1234E+01  0.1322E+02
     11.508  0.1583E+01  0.1337E+02
     11.603  0.1287E+01  0.1349E+02
     11.699  0.2440E+01  0.1372E+02
     11.794  0.6935E+00  0.1379E+02
     11.890  0.3998E+00  0.1383E+02
     11.985  0.1873E+01  0.1401E+02
     12.080  0.6252E+00  0.1407E+02
     12.176  0.3542E+01  0.1440E+02
     12.271  0.9571E+00  0.1449E+02
     12.367  0.4105E+00  0.1453E+02
     12.462  0.6264E+00  0.1459E+02
     12.557  0.1583E+01  0.1474E+02
     12.653  0.7224E+00  0.1481E+02
     12.748  0.1220E+01  0.1493E+02
     12.843  0.8129E-01  0.1494E+02
     12.939  0.3289E-04  0.1494E+02
     13.034  0.3560E-01  0.1494E+02
     13.130  0.2796E+00  0.1497E+02
     13.225  0.7353E+00  0.1504E+02
     13.320  0.1341E+01  0.1517E+02
     13.416  0.8888E+00  0.1525E+02
     13.511  0.4488E+00  0.1529E+02
     13.607  0.5450E+00  0.1535E+02
     13.702  0.2303E+01  0.1556E+02
     13.797  0.2437E+01  0.1580E+02
     13.893  0.4559E+00  0.1584E+02
     13.988  0.1145E+00  0.1585E+02
     14.084  0.1083E+01  0.1596E+02
     14.179  0.2019E+01  0.1615E+02
     14.274  0.1740E+01  0.1631E+02
     14.370  0.2270E+01  0.1653E+02
     14.465  0.1222E+01  0.1665E+02
     14.561  0.4293E+00  0.1669E+02
     14.656  0.1265E+01  0.1681E+02
     14.751  0.2081E+01  0.1701E+02
     14.847  0.7077E+00  0.1707E+02
     14.942  0.2298E+00  0.1710E+02
     15.038  0.9430E-01  0.1711E+02
     15.133  0.8371E-02  0.1711E+02
     15.228  0.6009E+00  0.1716E+02
     15.324  0.7398E+00  0.1723E+02
     15.419  0.1530E+01  0.1738E+02
     15.515  0.8243E-01  0.1739E+02
     15.610  0.6609E+00  0.1745E+02
     15.705  0.3080E+00  0.1748E+02
     15.801  0.7179E-03  0.1748E+02
     15.896  0.2010E-08  0.1748E+02
     15.991  0.0000E+00  0.1748E+02
     16.087  0.0000E+00  0.1748E+02
     16.182  0.2275E-09  0.1748E+02
     16.278  0.2019E-03  0.1748E+02
     16.373  0.1982E+00  0.1750E+02
     16.468  0.7569E+00  0.1757E+02
     16.564  0.7872E+00  0.1765E+02
     16.659  0.1415E+01  0.1778E+02
     16.755  0.3613E-01  0.1779E+02
     16.850  0.6441E-01  0.1779E+02
     16.945  0.1870E+00  0.1781E+02
     17.041  0.5713E+00  0.1786E+02
     17.136  0.4091E+00  0.1790E+02
     17.232  0.8097E+00  0.1798E+02
     17.327  0.8787E-01  0.1799E+02
     17.422  0.5240E-01  0.1799E+02
     17.518  0.6950E-01  0.1800E+02
     17.613  0.7260E-03  0.1800E+02
     17.709  0.1125E-07  0.1800E+02
     17.804  0.1500E-15  0.1800E+02
     17.899  0.0000E+00  0.1800E+02
     17.995  0.0000E+00  0.1800E+02
     18.090  0.0000E+00  0.1800E+02
     18.186  0.0000E+00  0.1800E+02
     18.281  0.0000E+00  0.1800E+02
     18.376  0.0000E+00  0.1800E+02
     18.472  0.0000E+00  0.1800E+02
     18.567  0.0000E+00  0.1800E+02
     18.663  0.0000E+00  0.1800E+02
     18.758  0.0000E+00  0.1800E+02
     18.853  0.0000E+00  0.1800E+02
     18.949  0.0000E+00  0.1800E+02
     19.044  0.0000E+00  0.1800E+02
     19.139  0.0000E+00  0.1800E+02
     19.235  0.0000E+00  0.1800E+02
     19.330  0.0000E+00  0.1800E+02
     19.426  0.0000E+00  0.1800E+02
     19.42567404     -9.19258447  301      5.50408370      1.00000000
     -9.193  0.0000E+00  0.0000E+00  0.0000E+00  0.0000E+00  0.0000E+00  0.0000E+00  0.0000E+00  0.0000E+00  0.0000E+00
     -9.097  0.0000E+00  0.0000E+00  0.0000E+00  0.0000E+00  0.0000E+00  0.0000E+00  0.0000E+00  0.0000E+00  0.0000E+00
     -9.002  0.0000E+00  0.0000E+00  0.0000E+00  0.0000E+00  0.0000E+00  0.0000E+00  0.0000E+00  0.0000E+00  0.0000E+00
     -8.906  0.0000E+00  0.0000E+00  0.0000E+00  0.0000E+00  0.0000E+00  0.0000E+00  0.0000E+00  0.0000E+00  0.0000E+00
     -8.811  0.0000E+00  0.0000E+00  0.0000E+00  0.0000E+00  0.0000E+00  0.0000E+00  0.0000E+00  0.0000E+00  0.0000E+00
     -8.716  0.0000E+00  0.0000E+00  0.0000E+00  0.0000E+00  0.0000E+00  0.0000E+00  0.0000E+00  0.0000E+00  0.0000E+00
     -8.620  0.0000E+00  0.0000E+00  0.0000E+00  0.0000E+00  0.0000E+00  0.0000E+00  0.0000E+00  0.0000E+00  0.0000E+00
     -8.525  0.0000E+00  0.0000E+00  0.0000E+00  0.0000E+00  0.0000E+00  0.0000E+00  0.0000E+00  0.0000E+00  0.0000E+00
     -8.429  0.0000E+00  0.0000E+00  0.0000E+00  0.0000E+00  0.0000E+00  0.0000E+00  0.0000E+00  0.0000E+00  0.0000E+00
     -8.334  0.0000E+00  0.0000E+00  0.0000E+00  0.0000E+00  0.0000E+00  0.0000E+00  0.0000E+00  0.0000E+00  0.0000E+00
     -8.239  0.0000E+00  0.0000E+00  0.0000E+00  0.0000E+00  0.0000E+00  0.0000E+00  0.0000E+00  0.0000E+00  0.0000E+00
     -8.143  0.5061E-14  0.3224E-27  0.3503E-27  0.4050E-27  0.0000E+00  0.0000E+00  0.0000E+00  0.0000E+00  0.0000E+00
     -8.048  0.4509E-07  0.2873E-20  0.3121E-20  0.3608E-20  0.0000E+00  0.0000E+00  0.0000E+00  0.0000E+00  0.0000E+00
     -7.952  0.3840E-03  0.2461E-16  0.2673E-16  0.3088E-16  0.0000E+00  0.0000E+00  0.0000E+00  0.0000E+00  0.0000E+00
     -7.857  0.7092E-02  0.1334E-10  0.1334E-10  0.1334E-10  0.0000E+00  0.0000E+00  0.0000E+00  0.0000E+00  0.0000E+00
     -7.762  0.1781E-02  0.1086E-05  0.1086E-05  0.1086E-05  0.0000E+00  0.0000E+00  0.0000E+00  0.0000E+00  0.0000E+00
     -7.666  0.3892E-01  0.1267E-03  0.1421E-03  0.1267E-03  0.0000E+00  0.0000E+00  0.0000E+00  0.0000E+00  0.0000E+00
     -7.571  0.7152E-01  0.1101E-03  0.6397E-03  0.1101E-03  0.0000E+00  0.0000E+00  0.0000E+00  0.0000E+00  0.0000E+00
     -7.475  0.1360E-01  0.6328E-06  0.1842E-03  0.6328E-06  0.0000E+00  0.0000E+00  0.0000E+00  0.0000E+00  0.0000E+00
     -7.380  0.1578E-02  0.2019E-04  0.9316E-06  0.2019E-04  0.0000E+00  0.0000E+00  0.0000E+00  0.0000E+00  0.0000E+00
     -7.285  0.7245E-01  0.9394E-03  0.3039E-04  0.9394E-03  0.0000E+00  0.0000E+00  0.0000E+00  0.0000E+00  0.0000E+00
     -7.189  0.3217E-01  0.4143E-03  0.2221E-04  0.4143E-03  0.0000E+00  0.0000E+00  0.0000E+00  0.0000E+00  0.0000E+00
     -7.094  0.8239E-01  0.2763E-03  0.2447E-02  0.2763E-03  0.0000E+00  0.0000E+00  0.0000E+00  0.0000E+00  0.0000E+00
     -6.999  0.1783E+00  0.1035E-02  0.4467E-02  0.1035E-02  0.0000E+00  0.0000E+00  0.0000E+00  0.0000E+00  0.0000E+00
     -6.903  0.2047E-01  0.2391E-03  0.2846E-03  0.2391E-03  0.0000E+00  0.0000E+00  0.0000E+00  0.0000E+00  0.0000E+00
     -6.808  0.2066E-03  0.3943E-06  0.1005E-04  0.3943E-06  0.0000E+00  0.0000E+00  0.0000E+00  0.0000E+00  0.0000E+00
     -6.712  0.2565E-01  0.5970E-09  0.1415E-02  0.5971E-09  0.0000E+00  0.0000E+00  0.0000E+00  0.0000E+00  0.0000E+00
     -6.617  0.2754E-01  0.3552E-04  0.1452E-02  0.3552E-04  0.0000E+00  0.0000E+00  0.0000E+00  0.0000E+00  0.0000E+00
     -6.522  0.1242E+00  0.3205E-02  0.7479E-03  0.3183E-02  0.0000E+00  0.0000E+00  0.0000E+00  0.0000E+00  0.0000E+00
     -6.426  0.2254E+00  0.3737E-02  0.7561E-02  0.2577E-02  0.0000E+00  0.0000E+00  0.0000E+00  0.0000E+00  0.0000E+00
     -6.331  0.6834E-01  0.7262E-03  0.3505E-02  0.1561E-03  0.0000E+00  0.0000E+00  0.0000E+00  0.0000E+00  0.0000E+00
     -6.235  0.2678E-01  0.2952E-03  0.1254E-02  0.2937E-03  0.0000E+00  0.0000E+00  0.0000E+00  0.0000E+00  0.0000E+00
     -6.140  0.1715E+00  0.1894E-02  0.8018E-02  0.1894E-02  0.0000E+00  0.0000E+00  0.0000E+00  0.0000E+00  0.0000E+00
     -6.045  0.5004E-01  0.9523E-03  0.1422E-02  0.9523E-03  0.0000E+00  0.0000E+00  0.0000E+00  0.0000E+00  0.0000E+00
     -5.949  0.1069E+00  0.9519E-03  0.6850E-02  0.9519E-03  0.0000E+00  0.0000E+00  0.0000E+00  0.0000E+00  0.0000E+00
     -5.854  0.1310E+00  0.3983E-03  0.1090E-01  0.3983E-03  0.0000E+00  0.0000E+00  0.0000E+00  0.0000E+00  0.0000E+00
     -5.758  0.2386E-02  0.1983E-04  0.1736E-03  0.1983E-04  0.0000E+00  0.0000E+00  0.0000E+00  0.0000E+00  0.0000E+00
     -5.663  0.5142E-01  0.2024E-02  0.5723E-03  0.2024E-02  0.0000E+00  0.0000E+00  0.0000E+00  0.0000E+00  0.0000E+00
     -5.568  0.7733E-01  0.2830E-02  0.1048E-02  0.2821E-02  0.0000E+00  0.0000E+00  0.0000E+00  0.0000E+00  0.0000E+00
     -5.472  0.3871E+00  0.9251E-02  0.1693E-01  0.7984E-02  0.0000E+00  0.0000E+00  0.0000E+00  0.0000E+00  0.0000E+00
     -5.377  0.2334E+00  0.4320E-02  0.1447E-01  0.3069E-02  0.0000E+00  0.0000E+00  0.0000E+00  0.0000E+00  0.0000E+00
     -5.281  0.1071E+00  0.1560E-02  0.5765E-02  0.1551E-02  0.0000E+00  0.0000E+00  0.0000E+00  0.0000E+00  0.0000E+00
     -5.186  0.1874E+00  0.2788E-02  0.1011E-01  0.2788E-02  0.0000E+00  0.0000E+00  0.0000E+00  0.0000E+00  0.0000E+00
     -5.091  0.4345E-01  0.3006E-03  0.4638E-02  0.3647E-03  0.0000E+00  0.0000E+00  0.0000E+00  0.0000E+00  0.0000E+00
     -4.995  0.1639E+00  0.9717E-03  0.1859E-01  0.1234E-02  0.0000E+00  0.0000E+00  0.0000E+00  0.0000E+00  0.0000E+00
     -4.900  0.1631E+00  0.1740E-02  0.1548E-01  0.1752E-02  0.0000E+00  0.0000E+00  0.0000E+00  0.0000E+00  0.0000E+00
     -4.804  0.7655E-01  0.9365E-03  0.5756E-02  0.1678E-02  0.0000E+00  0.0000E+00  0.0000E+00  0.0000E+00  0.0000E+00
     -4.709  0.2751E+00  0.5828E-02  0.1138E-01  0.1073E-01  0.0000E+00  0.0000E+00  0.0000E+00  0.0000E+00  0.0000E+00
     -4.614  0.1314E+00  0.4199E-02  0.5360E-02  0.4573E-02  0.0000E+00  0.0000E+00  0.0000E+00  0.0000E+00  0.0000E+00
     -4.518  0.4326E-01  0.7637E-03  0.1630E-02  0.3235E-02  0.0000E+00  0.0000E+00  0.0000E+00  0.0000E+00  0.0000E+00
     -4.423  0.1622E+00  0.2794E-02  0.6100E-02  0.1230E-01  0.0000E+00  0.0000E+00  0.0000E+00  0.0000E+00  0.0000E+00
     -4.327  0.3890E-01  0.2362E-03  0.5464E-02  0.6284E-03  0.0000E+00  0.0000E+00  0.0000E+00  0.0000E+00  0.0000E+00
     -4.232  0.1595E+00  0.5992E-03  0.2581E-01  0.6010E-03  0.0000E+00  0.0000E+00  0.0000E+00  0.0000E+00  0.0000E+00
     -4.137  0.8323E-01  0.4979E-03  0.9474E-02  0.2595E-02  0.0000E+00  0.0000E+00  0.0000E+00  0.0000E+00  0.0000E+00
     -4.041  0.3294E+00  0.2057E-02  0.3562E-01  0.1134E-01  0.0000E+00  0.0000E+00  0.0000E+00  0.0000E+00  0.0000E+00
     -3.946  0.1602E-01  0.1003E-03  0.1732E-02  0.5512E-03  0.0000E+00  0.0000E+00  0.0000E+00  0.0000E+00  0.0000E+00
     -3.851  0.1852E-01  0.4162E-03  0.1996E-02  0.4163E-03  0.0000E+00  0.0000E+00  0.0000E+00  0.0000E+00  0.0000E+00
     -3.755  0.8358E-01  0.1879E-02  0.9007E-02  0.1879E-02  0.0000E+00  0.0000E+00  0.0000E+00  0.0000E+00  0.0000E+00
     -3.660  0.4156E-02  0.9342E-04  0.4478E-03  0.9342E-04  0.0000E+00  0.0000E+00  0.0000E+00  0.0000E+00  0.0000E+00
     -3.564  0.4370E-06  0.9823E-08  0.4710E-07  0.9823E-08  0.0000E+00  0.0000E+00  0.0000E+00  0.0000E+00  0.0000E+00
     -3.469  0.2565E-04  0.3715E-12  0.5896E-05  0.4322E-10  0.0000E+00  0.0000E+00  0.0000E+00  0.0000E+00  0.0000E+00
     -3.374  0.1396E-01  0.6910E-07  0.3202E-02  0.8079E-05  0.0000E+00  0.0000E+00  0.0000E+00  0.0000E+00  0.0000E+00
     -3.278  0.1145E+00  0.1661E-04  0.2347E-01  0.1972E-02  0.0000E+00  0.0000E+00  0.0000E+00  0.0000E+00  0.0000E+00
     -3.183  0.1626E+00  0.2393E-04  0.2745E-01  0.7514E-02  0.0000E+00  0.0000E+00  0.0000E+00  0.0000E+00  0.0000E+00
     -3.087  0.5658E-01  0.2798E-06  0.5930E-02  0.5699E-02  0.0000E+00  0.0000E+00  0.0000E+00  0.0000E+00  0.0000E+00
     -2.992  0.5026E-03  0.4953E-11  0.5167E-04  0.5167E-04  0.0000E+00  0.0000E+00  0.0000E+00  0.0000E+00  0.0000E+00
     -2.897  0.7528E-08  0.2799E-10  0.8947E-09  0.7110E-09  0.0000E+00  0.0000E+00  0.0000E+00  0.0000E+00  0.0000E+00
     -2.801  0.1619E-03  0.5035E-05  0.3807E-04  0.5035E-05  0.0000E+00  0.0000E+00  0.0000E+00  0.0000E+00  0.0000E+00
     -2.706  0.3770E-01  0.1172E-02  0.8862E-02  0.1172E-02  0.0000E+00  0.0000E+00  0.0000E+00  0.0000E+00  0.0000E+00
     -2.610  0.5311E-01  0.1651E-02  0.1248E-01  0.1651E-02  0.0000E+00  0.0000E+00  0.0000E+00  0.0000E+00  0.0000E+00
     -2.515  0.6146E-03  0.1907E-04  0.1439E-03  0.1996E-04  0.0000E+00  0.0000E+00  0.0000E+00  0.0000E+00  0.0000E+00
     -2.420  0.3685E-01  0.1175E-02  0.7058E-02  0.3817E-02  0.0000E+00  0.0000E+00  0.0000E+00  0.0000E+00  0.0000E+00
     -2.324  0.3243E+00  0.1173E-01  0.6347E-01  0.3392E-01  0.0000E+00  0.0000E+00  0.0000E+00  0.0000E+00  0.0000E+00
     -2.229  0.1955E+00  0.5251E-02  0.4965E-01  0.8265E-02  0.0000E+00  0.0000E+00  0.0000E+00  0.0000E+00  0.0000E+00
     -2.133  0.1858E+00  0.2935E-01  0.4418E-01  0.3692E-01  0.0000E+00  0.0000E+00  0.0000E+00  0.0000E+00  0.0000E+00
     -2.038  0.1461E+00  0.2663E-01  0.3693E-01  0.2787E-01  0.0000E+00  0.0000E+00  0.0000E+00  0.0000E+00  0.0000E+00
     -1.943  0.2210E+00  0.1475E-01  0.4815E-01  0.2660E-01  0.0000E+00  0.0000E+00  0.0000E+00  0.0000E+00  0.0000E+00
     -1.847  0.3873E-01  0.1422E-02  0.7667E-02  0.4680E-02  0.0000E+00  0.0000E+00  0.0000E+00  0.0000E+00  0.0000E+00
     -1.752  0.9612E-01  0.1397E-01  0.2376E-01  0.1397E-01  0.0000E+00  0.0000E+00  0.0000E+00  0.0000E+00  0.0000E+00
     -1.656  0.1698E+00  0.3111E-01  0.4582E-01  0.3111E-01  0.0000E+00  0.0000E+00  0.0000E+00  0.0000E+00  0.0000E+00
     -1.561  0.4976E-02  0.1116E-02  0.1464E-02  0.1116E-02  0.0000E+00  0.0000E+00  0.0000E+00  0.0000E+00  0.0000E+00
     -1.466  0.1068E-05  0.1160E-06  0.3097E-06  0.1540E-06  0.0000E+00  0.0000E+00  0.0000E+00  0.0000E+00  0.0000E+00
     -1.370  0.6478E-02  0.9771E-04  0.1822E-02  0.4962E-03  0.0000E+00  0.0000E+00  0.0000E+00  0.0000E+00  0.0000E+00
     -1.275  0.1460E+00  0.3735E-02  0.4117E-01  0.1239E-01  0.0000E+00  0.0000E+00  0.0000E+00  0.0000E+00  0.0000E+00
     -1.179  0.1135E+00  0.1573E-01  0.2933E-01  0.2284E-01  0.0000E+00  0.0000E+00  0.0000E+00  0.0000E+00  0.0000E+00
     -1.084  0.2410E+00  0.2954E-01  0.5516E-01  0.5169E-01  0.0000E+00  0.0000E+00  0.0000E+00  0.0000E+00  0.0000E+00
     -0.989  0.4223E-01  0.1393E-02  0.1443E-01  0.2456E-02  0.0000E+00  0.0000E+00  0.0000E+00  0.0000E+00  0.0000E+00
     -0.893  0.7565E-03  0.6955E-06  0.2898E-03  0.8023E-06  0.0000E+00  0.0000E+00  0.0000E+00  0.0000E+00  0.0000E+00
     -0.798  0.8893E-02  0.1298E-02  0.2229E-02  0.1298E-02  0.0000E+00  0.0000E+00  0.0000E+00  0.0000E+00  0.0000E+00
     -0.703  0.6251E-01  0.9121E-02  0.1567E-01  0.9121E-02  0.0000E+00  0.0000E+00  0.0000E+00  0.0000E+00  0.0000E+00
     -0.607  0.5546E-02  0.8705E-03  0.1412E-02  0.8705E-03  0.0000E+00  0.0000E+00  0.0000E+00  0.0000E+00  0.0000E+00
     -0.512  0.6068E-01  0.1653E-01  0.1800E-01  0.1653E-01  0.0000E+00  0.0000E+00  0.0000E+00  0.0000E+00  0.0000E+00
     -0.416  0.5542E-01  0.1510E-01  0.1645E-01  0.1510E-01  0.0000E+00  0.0000E+00  0.0000E+00  0.0000E+00  0.0000E+00
     -0.321  0.3428E-03  0.9326E-04  0.1018E-03  0.9326E-04  0.0000E+00  0.0000E+00  0.0000E+00  0.0000E+00  0.0000E+00
     -0.226  0.6712E-02  0.4642E-03  0.2623E-02  0.4642E-03  0.0000E+00  0.0000E+00  0.0000E+00  0.0000E+00  0.0000E+00
     -0.130  0.1267E+00  0.8759E-02  0.4949E-01  0.8759E-02  0.0000E+00  0.0000E+00  0.0000E+00  0.0000E+00  0.0000E+00
     -0.035  0.2653E-01  0.1835E-02  0.1037E-01  0.1835E-02  0.0000E+00  0.0000E+00  0.0000E+00  0.0000E+00  0.0000E+00
      0.061  0.2032E-04  0.1581E-05  0.7890E-05  0.1581E-05  0.0000E+00  0.0000E+00  0.0000E+00  0.0000E+00  0.0000E+00
      0.156  0.5661E-02  0.1664E-02  0.1854E-02  0.1664E-02  0.0000E+00  0.0000E+00  0.0000E+00  0.0000E+00  0.0000E+00
      0.251  0.9217E-01  0.2710E-01  0.3019E-01  0.2710E-01  0.0000E+00  0.0000E+00  0.0000E+00  0.0000E+00  0.0000E+00
      0.347  0.1693E-01  0.4977E-02  0.5545E-02  0.4977E-02  0.0000E+00  0.0000E+00  0.0000E+00  0.0000E+00  0.0000E+00
      0.442  0.4950E-04  0.8290E-05  0.1818E-04  0.1040E-04  0.0000E+00  0.0000E+00  0.0000E+00  0.0000E+00  0.0000E+00
      0.538  0.3172E-01  0.4260E-02  0.1199E-01  0.5971E-02  0.0000E+00  0.0000E+00  0.0000E+00  0.0000E+00  0.0000E+00
      0.633  0.1055E+00  0.2094E-01  0.4501E-01  0.2660E-01  0.0000E+00  0.0000E+00  0.0000E+00  0.0000E+00  0.0000E+00
      0.728  0.5907E-02  0.4149E-01  0.4300E-01  0.3452E-01  0.0000E+00  0.0000E+00  0.0000E+00  0.0000E+00  0.0000E+00
      0.824  0.3490E-02  0.3231E-01  0.4100E-01  0.2123E-01  0.0000E+00  0.0000E+00  0.0000E+00  0.0000E+00  0.0000E+00
      0.919  0.7643E-02  0.5919E-01  0.4601E-01  0.5641E-01  0.0000E+00  0.0000E+00  0.0000E+00  0.0000E+00  0.0000E+00
      1.015  0.4306E-01  0.9421E-01  0.1052E+00  0.9162E-01  0.0000E+00  0.0000E+00  0.0000E+00  0.0000E+00  0.0000E+00
      1.110  0.1502E-01  0.1744E-01  0.2230E-01  0.1572E-01  0.0000E+00  0.0000E+00  0.0000E+00  0.0000E+00  0.0000E+00
      1.205  0.4493E-03  0.2971E-01  0.2107E-01  0.1947E-01  0.0000E+00  0.0000E+00  0.0000E+00  0.0000E+00  0.0000E+00
      1.301  0.5047E-02  0.1646E-01  0.3507E-01  0.1575E-01  0.0000E+00  0.0000E+00  0.0000E+00  0.0000E+00  0.0000E+00
      1.396  0.1290E-01  0.2276E-02  0.1302E-01  0.2276E-02  0.0000E+00  0.0000E+00  0.0000E+00  0.0000E+00  0.0000E+00
      1.492  0.3851E-01  0.2654E-01  0.5147E-01  0.2696E-01  0.0000E+00  0.0000E+00  0.0000E+00  0.0000E+00  0.0000E+00
      1.587  0.3603E-01  0.1028E+00  0.8070E-01  0.1223E+00  0.0000E+00  0.0000E+00  0.0000E+00  0.0000E+00  0.0000E+00
      1.682  0.2805E-01  0.1538E+00  0.5952E-01  0.1906E+00  0.0000E+00  0.0000E+00  0.0000E+00  0.0000E+00  0.0000E+00
      1.778  0.1120E+00  0.1051E+00  0.1026E+00  0.1831E+00  0.0000E+00  0.0000E+00  0.0000E+00  0.0000E+00  0.0000E+00
      1.873  0.3758E-01  0.1361E-01  0.2327E-01  0.1724E-01  0.0000E+00  0.0000E+00  0.0000E+00  0.0000E+00  0.0000E+00
      1.969  0.9635E-04  0.3900E-04  0.5763E-04  0.3709E-04  0.0000E+00  0.0000E+00  0.0000E+00  0.0000E+00  0.0000E+00
      2.064  0.3649E-03  0.2190E-01  0.5337E-02  0.1708E-01  0.0000E+00  0.0000E+00  0.0000E+00  0.0000E+00  0.0000E+00
      2.159  0.2366E-02  0.1496E+00  0.3460E-01  0.1183E+00  0.0000E+00  0.0000E+00  0.0000E+00  0.0000E+00  0.0000E+00
      2.255  0.3110E-03  0.3050E-01  0.3680E-02  0.2664E-01  0.0000E+00  0.0000E+00  0.0000E+00  0.0000E+00  0.0000E+00
      2.350  0.2357E-01  0.1298E+00  0.3139E-01  0.1058E+00  0.0000E+00  0.0000E+00  0.0000E+00  0.0000E+00  0.0000E+00
      2.446  0.4481E-01  0.2066E+00  0.5327E-01  0.2438E+00  0.0000E+00  0.0000E+00  0.0000E+00  0.0000E+00  0.0000E+00
      2.541  0.6330E-02  0.1146E+00  0.2359E-01  0.1052E+00  0.0000E+00  0.0000E+00  0.0000E+00  0.0000E+00  0.0000E+00
      2.636  0.1394E-01  0.5274E-01  0.4707E-01  0.4939E-01  0.0000E+00  0.0000E+00  0.0000E+00  0.0000E+00  0.0000E+00
      2.732  0.1744E-01  0.4742E-01  0.5703E-01  0.4742E-01  0.0000E+00  0.0000E+00  0.0000E+00  0.0000E+00  0.0000E+00
      2.827  0.2633E-01  0.4109E-01  0.1013E+00  0.4109E-01  0.0000E+00  0.0000E+00  0.0000E+00  0.0000E+00  0.0000E+00
      2.922  0.2938E-01  0.2024E+00  0.1084E+00  0.1938E+00  0.0000E+00  0.0000E+00  0.0000E+00  0.0000E+00  0.0000E+00
      3.018  0.9048E-03  0.1187E+00  0.3490E-01  0.6647E-01  0.0000E+00  0.0000E+00  0.0000E+00  0.0000E+00  0.0000E+00
      3.113  0.6447E-04  0.6686E-02  0.2724E-02  0.2585E-02  0.0000E+00  0.0000E+00  0.0000E+00  0.0000E+00  0.0000E+00
      3.209  0.3495E-02  0.1352E+00  0.5799E-01  0.6000E-01  0.0000E+00  0.0000E+00  0.0000E+00  0.0000E+00  0.0000E+00
      3.304  0.1264E-01  0.2272E+00  0.8878E-01  0.1483E+00  0.0000E+00  0.0000E+00  0.0000E+00  0.0000E+00  0.0000E+00
      3.399  0.2312E-01  0.2977E-01  0.7245E-01  0.2917E-01  0.0000E+00  0.0000E+00  0.0000E+00  0.0000E+00  0.0000E+00
      3.495  0.1087E-02  0.4670E-02  0.3206E-02  0.4670E-02  0.0000E+00  0.0000E+00  0.0000E+00  0.0000E+00  0.0000E+00
      3.590  0.1669E-01  0.1597E+00  0.5727E-01  0.1597E+00  0.0000E+00  0.0000E+00  0.0000E+00  0.0000E+00  0.0000E+00
      3.686  0.5964E-02  0.7495E-01  0.2578E-01  0.7138E-01  0.0000E+00  0.0000E+00  0.0000E+00  0.0000E+00  0.0000E+00
      3.781  0.7884E-02  0.9083E-01  0.5159E-01  0.2452E-01  0.0000E+00  0.0000E+00  0.0000E+00  0.0000E+00  0.0000E+00
      3.876  0.2006E-01  0.1504E+00  0.4122E-01  0.1367E+00  0.0000E+00  0.0000E+00  0.0000E+00  0.0000E+00  0.0000E+00
      3.972  0.1580E-01  0.1630E+00  0.6531E-01  0.1630E+00  0.0000E+00  0.0000E+00  0.0000E+00  0.0000E+00  0.0000E+00
      4.067  0.9548E-02  0.4473E-01  0.5507E-01  0.4473E-01  0.0000E+00  0.0000E+00  0.0000E+00  0.0000E+00  0.0000E+00
      4.163  0.3963E-04  0.3321E-01  0.3326E-01  0.3321E-01  0.0000E+00  0.0000E+00  0.0000E+00  0.0000E+00  0.0000E+00
      4.258  0.2120E-09  0.8101E-03  0.8099E-03  0.8102E-03  0.0000E+00  0.0000E+00  0.0000E+00  0.0000E+00  0.0000E+00
      4.353  0.4091E-13  0.3316E-02  0.1162E-03  0.3316E-02  0.0000E+00  0.0000E+00  0.0000E+00  0.0000E+00  0.0000E+00
      4.449  0.1452E-11  0.1346E+00  0.2113E-01  0.1346E+00  0.0000E+00  0.0000E+00  0.0000E+00  0.0000E+00  0.0000E+00
      4.544  0.5428E-12  0.6549E-01  0.2509E-01  0.6550E-01  0.0000E+00  0.0000E+00  0.0000E+00  0.0000E+00  0.0000E+00
      4.640  0.1202E-14  0.2884E-03  0.2244E-03  0.2884E-03  0.0000E+00  0.0000E+00  0.0000E+00  0.0000E+00  0.0000E+00
      4.735  0.7262E-20  0.3213E-08  0.2905E-08  0.3214E-08  0.0000E+00  0.0000E+00  0.0000E+00  0.0000E+00  0.0000E+00
      4.830  0.7048E-16  0.6007E-04  0.6328E-05  0.6006E-04  0.0000E+00  0.0000E+00  0.0000E+00  0.0000E+00  0.0000E+00
      4.926  0.3307E-13  0.2671E-01  0.8040E-02  0.2671E-01  0.0000E+00  0.0000E+00  0.0000E+00  0.0000E+00  0.0000E+00
      5.021  0.9326E-13  0.7128E-01  0.3662E-01  0.7128E-01  0.0000E+00  0.0000E+00  0.0000E+00  0.0000E+00  0.0000E+00
      5.117  0.3353E-14  0.2412E-02  0.1840E-02  0.2412E-02  0.0000E+00  0.0000E+00  0.0000E+00  0.0000E+00  0.0000E+00
      5.212  0.1203E-14  0.1067E-02  0.1067E-02  0.1067E-02  0.0000E+00  0.0000E+00  0.0000E+00  0.0000E+00  0.0000E+00
      5.307  0.8098E-14  0.7183E-02  0.7183E-02  0.7183E-02  0.0000E+00  0.0000E+00  0.0000E+00  0.0000E+00  0.0000E+00
      5.403  0.6261E-15  0.5555E-03  0.5555E-03  0.5555E-03  0.0000E+00  0.0000E+00  0.0000E+00  0.0000E+00  0.0000E+00
      5.498  0.1173E-18  0.1041E-06  0.1041E-06  0.1041E-06  0.0000E+00  0.0000E+00  0.0000E+00  0.0000E+00  0.0000E+00
      5.594  0.2153E-25  0.1911E-13  0.1911E-13  0.1911E-13  0.0000E+00  0.0000E+00  0.0000E+00  0.0000E+00  0.0000E+00
      5.689  0.0000E+00  0.0000E+00  0.0000E+00  0.0000E+00  0.0000E+00  0.0000E+00  0.0000E+00  0.0000E+00  0.0000E+00
      5.784  0.0000E+00  0.0000E+00  0.0000E+00  0.0000E+00  0.0000E+00  0.0000E+00  0.0000E+00  0.0000E+00  0.0000E+00
      5.880  0.0000E+00  0.0000E+00  0.0000E+00  0.0000E+00  0.0000E+00  0.0000E+00  0.0000E+00  0.0000E+00  0.0000E+00
      5.975  0.0000E+00  0.0000E+00  0.0000E+00  0.0000E+00  0.0000E+00  0.0000E+00  0.0000E+00  0.0000E+00  0.0000E+00
      6.070  0.0000E+00  0.0000E+00  0.0000E+00  0.0000E+00  0.0000E+00  0.0000E+00  0.0000E+00  0.0000E+00  0.0000E+00
      6.166  0.0000E+00  0.0000E+00  0.0000E+00  0.0000E+00  0.0000E+00  0.0000E+00  0.0000E+00  0.0000E+00  0.0000E+00
      6.261  0.1120E-11  0.1912E-23  0.1036E-11  0.3121E-23  0.0000E+00  0.0000E+00  0.0000E+00  0.0000E+00  0.0000E+00
      6.357  0.1480E-05  0.2527E-17  0.1369E-05  0.4126E-17  0.0000E+00  0.0000E+00  0.0000E+00  0.0000E+00  0.0000E+00
      6.452  0.2100E-02  0.3584E-14  0.1941E-02  0.5851E-14  0.0000E+00  0.0000E+00  0.0000E+00  0.0000E+00  0.0000E+00
      6.547  0.1136E-01  0.2525E-13  0.1023E-01  0.3922E-13  0.0000E+00  0.0000E+00  0.0000E+00  0.0000E+00  0.0000E+00
      6.643  0.1108E-01  0.2494E-07  0.7432E-02  0.2494E-07  0.0000E+00  0.0000E+00  0.0000E+00  0.0000E+00  0.0000E+00
      6.738  0.5114E-02  0.1035E-03  0.3648E-02  0.1035E-03  0.0000E+00  0.0000E+00  0.0000E+00  0.0000E+00  0.0000E+00
      6.834  0.4141E-01  0.1109E-02  0.3029E-01  0.1109E-02  0.0000E+00  0.0000E+00  0.0000E+00  0.0000E+00  0.0000E+00
      6.929  0.5162E-02  0.1376E-03  0.3800E-02  0.1376E-03  0.0000E+00  0.0000E+00  0.0000E+00  0.0000E+00  0.0000E+00
      7.024  0.4843E-02  0.1589E-05  0.8241E-02  0.1589E-05  0.0000E+00  0.0000E+00  0.0000E+00  0.0000E+00  0.0000E+00
      7.120  0.1905E-01  0.2076E-03  0.1962E-01  0.2076E-03  0.0000E+00  0.0000E+00  0.0000E+00  0.0000E+00  0.0000E+00
      7.215  0.1846E-01  0.1113E-02  0.1625E-01  0.1113E-02  0.0000E+00  0.0000E+00  0.0000E+00  0.0000E+00  0.0000E+00
      7.311  0.3560E-01  0.5637E-02  0.4339E-01  0.5637E-02  0.0000E+00  0.0000E+00  0.0000E+00  0.0000E+00  0.0000E+00
      7.406  0.1756E-01  0.9528E-03  0.8258E-02  0.9528E-03  0.0000E+00  0.0000E+00  0.0000E+00  0.0000E+00  0.0000E+00
      7.501  0.7283E-01  0.2627E-02  0.4204E-01  0.2627E-02  0.0000E+00  0.0000E+00  0.0000E+00  0.0000E+00  0.0000E+00
      7.597  0.5454E-01  0.2444E-02  0.7556E-02  0.2444E-02  0.0000E+00  0.0000E+00  0.0000E+00  0.0000E+00  0.0000E+00
      7.692  0.9147E-02  0.4380E-03  0.5198E-03  0.4380E-03  0.0000E+00  0.0000E+00  0.0000E+00  0.0000E+00  0.0000E+00
      7.788  0.2327E-01  0.7529E-03  0.1903E-01  0.7297E-03  0.0000E+00  0.0000E+00  0.0000E+00  0.0000E+00  0.0000E+00
      7.883  0.7604E-01  0.2381E-01  0.6038E-01  0.1973E-01  0.0000E+00  0.0000E+00  0.0000E+00  0.0000E+00  0.0000E+00
      7.978  0.1149E+00  0.4185E-01  0.6902E-01  0.3377E-01  0.0000E+00  0.0000E+00  0.0000E+00  0.0000E+00  0.0000E+00
      8.074  0.3163E-01  0.5740E-02  0.4531E-01  0.5533E-02  0.0000E+00  0.0000E+00  0.0000E+00  0.0000E+00  0.0000E+00
      8.169  0.1240E+00  0.1126E-01  0.1122E+00  0.1126E-01  0.0000E+00  0.0000E+00  0.0000E+00  0.0000E+00  0.0000E+00
      8.265  0.7698E-01  0.5877E-02  0.5377E-01  0.5595E-02  0.0000E+00  0.0000E+00  0.0000E+00  0.0000E+00  0.0000E+00
      8.360  0.1459E+00  0.3616E-01  0.8676E-01  0.1610E-01  0.0000E+00  0.0000E+00  0.0000E+00  0.0000E+00  0.0000E+00
      8.455  0.9501E-01  0.3991E-01  0.9614E-01  0.3323E-01  0.0000E+00  0.0000E+00  0.0000E+00  0.0000E+00  0.0000E+00
      8.551  0.3553E-01  0.9843E-02  0.2211E-01  0.1034E-01  0.0000E+00  0.0000E+00  0.0000E+00  0.0000E+00  0.0000E+00
      8.646  0.3574E-01  0.1815E-01  0.2426E-01  0.1040E-01  0.0000E+00  0.0000E+00  0.0000E+00  0.0000E+00  0.0000E+00
      8.742  0.1089E+00  0.8148E-02  0.6497E-01  0.3972E-02  0.0000E+00  0.0000E+00  0.0000E+00  0.0000E+00  0.0000E+00
      8.837  0.3756E-01  0.1762E-01  0.3042E-01  0.1011E-01  0.0000E+00  0.0000E+00  0.0000E+00  0.0000E+00  0.0000E+00
      8.932  0.1246E+00  0.6300E-01  0.1055E+00  0.4651E-01  0.0000E+00  0.0000E+00  0.0000E+00  0.0000E+00  0.0000E+00
      9.028  0.2850E-01  0.2456E-01  0.3781E-01  0.2646E-01  0.0000E+00  0.0000E+00  0.0000E+00  0.0000E+00  0.0000E+00
      9.123  0.1147E+00  0.3857E-01  0.8650E-01  0.4690E-01  0.0000E+00  0.0000E+00  0.0000E+00  0.0000E+00  0.0000E+00
      9.218  0.2356E-01  0.5495E-01  0.2419E-01  0.4179E-01  0.0000E+00  0.0000E+00  0.0000E+00  0.0000E+00  0.0000E+00
      9.314  0.1170E-01  0.1262E-01  0.1575E-01  0.1236E-01  0.0000E+00  0.0000E+00  0.0000E+00  0.0000E+00  0.0000E+00
      9.409  0.1705E-01  0.1098E-01  0.2833E-01  0.1098E-01  0.0000E+00  0.0000E+00  0.0000E+00  0.0000E+00  0.0000E+00
      9.505  0.6880E-02  0.1609E-01  0.1655E-01  0.1621E-01  0.0000E+00  0.0000E+00  0.0000E+00  0.0000E+00  0.0000E+00
      9.600  0.8987E-01  0.1074E+00  0.7802E-01  0.1143E+00  0.0000E+00  0.0000E+00  0.0000E+00  0.0000E+00  0.0000E+00
      9.695  0.8597E-01  0.7435E-01  0.6855E-01  0.7795E-01  0.0000E+00  0.0000E+00  0.0000E+00  0.0000E+00  0.0000E+00
      9.791  0.1013E+00  0.1217E+00  0.3772E-01  0.1218E+00  0.0000E+00  0.0000E+00  0.0000E+00  0.0000E+00  0.0000E+00
      9.886  0.2544E-01  0.5106E-01  0.4057E-01  0.5132E-01  0.0000E+00  0.0000E+00  0.0000E+00  0.0000E+00  0.0000E+00
      9.982  0.6297E-01  0.3620E-01  0.5685E-01  0.6321E-01  0.0000E+00  0.0000E+00  0.0000E+00  0.0000E+00  0.0000E+00
     10.077  0.4362E-01  0.2354E-01  0.1423E-01  0.4516E-01  0.0000E+00  0.0000E+00  0.0000E+00  0.0000E+00  0.0000E+00
     10.172  0.3450E-02  0.1141E-01  0.1775E-02  0.1126E-01  0.0000E+00  0.0000E+00  0.0000E+00  0.0000E+00  0.0000E+00
     10.268  0.9322E-02  0.8759E-01  0.5431E-02  0.6374E-01  0.0000E+00  0.0000E+00  0.0000E+00  0.0000E+00  0.0000E+00
     10.363  0.2442E-01  0.1300E+00  0.1299E-01  0.3227E-01  0.0000E+00  0.0000E+00  0.0000E+00  0.0000E+00  0.0000E+00
     10.459  0.5609E-01  0.3820E-01  0.1957E-01  0.1082E-01  0.0000E+00  0.0000E+00  0.0000E+00  0.0000E+00  0.0000E+00
     10.554  0.2096E-01  0.5069E-01  0.1046E-01  0.5042E-01  0.0000E+00  0.0000E+00  0.0000E+00  0.0000E+00  0.0000E+00
     10.649  0.1562E-01  0.1409E+00  0.1862E-01  0.1246E+00  0.0000E+00  0.0000E+00  0.0000E+00  0.0000E+00  0.0000E+00
     10.745  0.4874E-01  0.3006E-01  0.1629E-01  0.1959E-01  0.0000E+00  0.0000E+00  0.0000E+00  0.0000E+00  0.0000E+00
     10.840  0.3685E-01  0.1101E-01  0.1224E-01  0.1097E-01  0.0000E+00  0.0000E+00  0.0000E+00  0.0000E+00  0.0000E+00
     10.936  0.1386E-01  0.1484E-01  0.1267E-01  0.1484E-01  0.0000E+00  0.0000E+00  0.0000E+00  0.0000E+00  0.0000E+00
     11.031  0.1982E-03  0.2986E-01  0.1758E-03  0.2986E-01  0.0000E+00  0.0000E+00  0.0000E+00  0.0000E+00  0.0000E+00
     11.126  0.2147E-01  0.1673E-01  0.1494E-01  0.1801E-01  0.0000E+00  0.0000E+00  0.0000E+00  0.0000E+00  0.0000E+00
     11.222  0.9331E-01  0.4676E-01  0.9099E-01  0.6120E-01  0.0000E+00  0.0000E+00  0.0000E+00  0.0000E+00  0.0000E+00
     11.317  0.1409E-01  0.5878E-02  0.1900E-01  0.5691E-02  0.0000E+00  0.0000E+00  0.0000E+00  0.0000E+00  0.0000E+00
     11.413  0.5818E-01  0.3729E-01  0.3615E-01  0.3564E-01  0.0000E+00  0.0000E+00  0.0000E+00  0.0000E+00  0.0000E+00
     11.508  0.7609E-01  0.4287E-01  0.5344E-01  0.6790E-01  0.0000E+00  0.0000E+00  0.0000E+00  0.0000E+00  0.0000E+00
     11.603  0.4984E-01  0.3179E-01  0.4951E-01  0.3296E-01  0.0000E+00  0.0000E+00  0.0000E+00  0.0000E+00  0.0000E+00
     11.699  0.6706E-01  0.1210E+00  0.2743E-01  0.1287E+00  0.0000E+00  0.0000E+00  0.0000E+00  0.0000E+00  0.0000E+00
     11.794  0.1061E-01  0.4114E-01  0.2769E-02  0.4345E-01  0.0000E+00  0.0000E+00  0.0000E+00  0.0000E+00  0.0000E+00
     11.890  0.2327E-01  0.1728E-01  0.1677E-01  0.1601E-01  0.0000E+00  0.0000E+00  0.0000E+00  0.0000E+00  0.0000E+00
     11.985  0.7782E-01  0.9964E-01  0.5279E-01  0.8981E-01  0.0000E+00  0.0000E+00  0.0000E+00  0.0000E+00  0.0000E+00
     12.080  0.1125E-01  0.3143E-01  0.1404E-01  0.3196E-01  0.0000E+00  0.0000E+00  0.0000E+00  0.0000E+00  0.0000E+00
     12.176  0.5763E-01  0.1662E+00  0.7038E-01  0.1854E+00  0.0000E+00  0.0000E+00  0.0000E+00  0.0000E+00  0.0000E+00
     12.271  0.3033E-01  0.5098E-01  0.1914E-01  0.5338E-01  0.0000E+00  0.0000E+00  0.0000E+00  0.0000E+00  0.0000E+00
     12.367  0.3184E-01  0.1885E-01  0.1020E-01  0.1885E-01  0.0000E+00  0.0000E+00  0.0000E+00  0.0000E+00  0.0000E+00
     12.462  0.3112E-01  0.2616E-01  0.1742E-01  0.2616E-01  0.0000E+00  0.0000E+00  0.0000E+00  0.0000E+00  0.0000E+00
     12.557  0.3144E-01  0.7348E-01  0.1892E-01  0.7348E-01  0.0000E+00  0.0000E+00  0.0000E+00  0.0000E+00  0.0000E+00
     12.653  0.9732E-03  0.6512E-02  0.2132E-03  0.6512E-02  0.0000E+00  0.0000E+00  0.0000E+00  0.0000E+00  0.0000E+00
     12.748  0.8150E-02  0.7481E-02  0.5228E-03  0.7482E-02  0.0000E+00  0.0000E+00  0.0000E+00  0.0000E+00  0.0000E+00
     12.843  0.1107E-02  0.4494E-03  0.7102E-04  0.4495E-03  0.0000E+00  0.0000E+00  0.0000E+00  0.0000E+00  0.0000E+00
     12.939  0.2055E-05  0.7405E-06  0.6990E-06  0.7398E-06  0.0000E+00  0.0000E+00  0.0000E+00  0.0000E+00  0.0000E+00
     13.034  0.4147E-02  0.1731E-02  0.1727E-02  0.1729E-02  0.0000E+00  0.0000E+00  0.0000E+00  0.0000E+00  0.0000E+00
     13.130  0.3161E-01  0.1356E-01  0.1328E-01  0.1354E-01  0.0000E+00  0.0000E+00  0.0000E+00  0.0000E+00  0.0000E+00
     13.225  0.2276E-01  0.3108E-01  0.1674E-01  0.3475E-01  0.0000E+00  0.0000E+00  0.0000E+00  0.0000E+00  0.0000E+00
     13.320  0.2809E-01  0.4172E-01  0.1944E-01  0.7169E-01  0.0000E+00  0.0000E+00  0.0000E+00  0.0000E+00  0.0000E+00
     13.416  0.1527E-01  0.4951E-01  0.8136E-02  0.1410E-01  0.0000E+00  0.0000E+00  0.0000E+00  0.0000E+00  0.0000E+00
     13.511  0.5350E-03  0.2344E-02  0.1768E-02  0.3225E-02  0.0000E+00  0.0000E+00  0.0000E+00  0.0000E+00  0.0000E+00
     13.607  0.4233E-02  0.1343E-01  0.9837E-02  0.1449E-01  0.0000E+00  0.0000E+00  0.0000E+00  0.0000E+00  0.0000E+00
     13.702  0.7347E-01  0.7049E-01  0.1001E+00  0.9136E-01  0.0000E+00  0.0000E+00  0.0000E+00  0.0000E+00  0.0000E+00
     13.797  0.1105E+00  0.9034E-01  0.1027E+00  0.8268E-01  0.0000E+00  0.0000E+00  0.0000E+00  0.0000E+00  0.0000E+00
     13.893  0.2860E-02  0.2600E-01  0.3668E-02  0.2565E-01  0.0000E+00  0.0000E+00  0.0000E+00  0.0000E+00  0.0000E+00
     13.988  0.4418E-02  0.1673E-02  0.2278E-02  0.1404E-02  0.0000E+00  0.0000E+00  0.0000E+00  0.0000E+00  0.0000E+00
     14.084  0.3876E-01  0.1683E-01  0.3925E-01  0.8960E-02  0.0000E+00  0.0000E+00  0.0000E+00  0.0000E+00  0.0000E+00
     14.179  0.4323E-01  0.8240E-01  0.1143E+00  0.4657E-01  0.0000E+00  0.0000E+00  0.0000E+00  0.0000E+00  0.0000E+00
     14.274  0.5478E-01  0.6476E-01  0.1372E+00  0.3542E-01  0.0000E+00  0.0000E+00  0.0000E+00  0.0000E+00  0.0000E+00
     14.370  0.6143E-01  0.8680E-01  0.1139E+00  0.1163E+00  0.0000E+00  0.0000E+00  0.0000E+00  0.0000E+00  0.0000E+00
     14.465  0.1810E-02  0.4874E-01  0.3703E-02  0.5215E-01  0.0000E+00  0.0000E+00  0.0000E+00  0.0000E+00  0.0000E+00
     14.561  0.1667E-01  0.2723E-01  0.1159E-01  0.2720E-01  0.0000E+00  0.0000E+00  0.0000E+00  0.0000E+00  0.0000E+00
     14.656  0.1810E-01  0.8134E-01  0.1743E-01  0.8170E-01  0.0000E+00  0.0000E+00  0.0000E+00  0.0000E+00  0.0000E+00
     14.751  0.3808E-01  0.8855E-01  0.7727E-01  0.1116E+00  0.0000E+00  0.0000E+00  0.0000E+00  0.0000E+00  0.0000E+00
     14.847  0.9583E-02  0.2352E-01  0.2905E-01  0.3609E-01  0.0000E+00  0.0000E+00  0.0000E+00  0.0000E+00  0.0000E+00
     14.942  0.2662E-04  0.3333E-02  0.3791E-02  0.2611E-02  0.0000E+00  0.0000E+00  0.0000E+00  0.0000E+00  0.0000E+00
     15.038  0.1062E-07  0.1352E-02  0.1535E-02  0.1038E-02  0.0000E+00  0.0000E+00  0.0000E+00  0.0000E+00  0.0000E+00
     15.133  0.8305E-04  0.8998E-04  0.2133E-03  0.8936E-04  0.0000E+00  0.0000E+00  0.0000E+00  0.0000E+00  0.0000E+00
     15.228  0.6101E-02  0.6411E-02  0.1544E-01  0.6415E-02  0.0000E+00  0.0000E+00  0.0000E+00  0.0000E+00  0.0000E+00
     15.324  0.1265E-01  0.8347E-02  0.2443E-01  0.1298E-01  0.0000E+00  0.0000E+00  0.0000E+00  0.0000E+00  0.0000E+00
     15.419  0.3694E-01  0.1822E-01  0.6190E-01  0.3751E-01  0.0000E+00  0.0000E+00  0.0000E+00  0.0000E+00  0.0000E+00
     15.515  0.1727E-02  0.1070E-02  0.3123E-02  0.1935E-02  0.0000E+00  0.0000E+00  0.0000E+00  0.0000E+00  0.0000E+00
     15.610  0.2749E-02  0.1233E-01  0.1609E-01  0.1187E-01  0.0000E+00  0.0000E+00  0.0000E+00  0.0000E+00  0.0000E+00
     15.705  0.1281E-02  0.5747E-02  0.7500E-02  0.5531E-02  0.0000E+00  0.0000E+00  0.0000E+00  0.0000E+00  0.0000E+00
     15.801  0.2986E-05  0.1339E-04  0.1748E-04  0.1289E-04  0.0000E+00  0.0000E+00  0.0000E+00  0.0000E+00  0.0000E+00
     15.896  0.8361E-11  0.3750E-10  0.4894E-10  0.3609E-10  0.0000E+00  0.0000E+00  0.0000E+00  0.0000E+00  0.0000E+00
     15.991  0.0000E+00  0.0000E+00  0.0000E+00  0.0000E+00  0.0000E+00  0.0000E+00  0.0000E+00  0.0000E+00  0.0000E+00
     16.087  0.0000E+00  0.0000E+00  0.0000E+00  0.0000E+00  0.0000E+00  0.0000E+00  0.0000E+00  0.0000E+00  0.0000E+00
     16.182  0.2374E-13  0.2753E-11  0.2471E-13  0.2309E-11  0.0000E+00  0.0000E+00  0.0000E+00  0.0000E+00  0.0000E+00
     16.278  0.2107E-07  0.2443E-05  0.2193E-07  0.2049E-05  0.0000E+00  0.0000E+00  0.0000E+00  0.0000E+00  0.0000E+00
     16.373  0.2068E-04  0.2399E-02  0.2153E-04  0.2012E-02  0.0000E+00  0.0000E+00  0.0000E+00  0.0000E+00  0.0000E+00
     16.468  0.1016E-03  0.9249E-02  0.3304E-03  0.7775E-02  0.0000E+00  0.0000E+00  0.0000E+00  0.0000E+00  0.0000E+00
     16.564  0.5832E-02  0.3084E-01  0.6173E-01  0.2712E-01  0.0000E+00  0.0000E+00  0.0000E+00  0.0000E+00  0.0000E+00
     16.659  0.1241E-01  0.5513E-01  0.1282E+00  0.4129E-01  0.0000E+00  0.0000E+00  0.0000E+00  0.0000E+00  0.0000E+00
     16.755  0.3630E-03  0.1306E-02  0.3668E-02  0.7514E-03  0.0000E+00  0.0000E+00  0.0000E+00  0.0000E+00  0.0000E+00
     16.850  0.3318E-06  0.9145E-07  0.6114E-06  0.4817E-07  0.0000E+00  0.0000E+00  0.0000E+00  0.0000E+00  0.0000E+00
     16.945  0.3553E-05  0.2466E-03  0.1473E-03  0.3049E-03  0.0000E+00  0.0000E+00  0.0000E+00  0.0000E+00  0.0000E+00
     17.041  0.1725E-03  0.1652E-01  0.1396E-01  0.2398E-01  0.0000E+00  0.0000E+00  0.0000E+00  0.0000E+00  0.0000E+00
     17.136  0.1402E-02  0.1348E-01  0.1655E-01  0.1976E-01  0.0000E+00  0.0000E+00  0.0000E+00  0.0000E+00  0.0000E+00
     17.232  0.1220E-01  0.3434E-01  0.5217E-01  0.3008E-01  0.0000E+00  0.0000E+00  0.0000E+00  0.0000E+00  0.0000E+00
     17.327  0.1322E-02  0.3719E-02  0.5648E-02  0.3254E-02  0.0000E+00  0.0000E+00  0.0000E+00  0.0000E+00  0.0000E+00
     17.422  0.3896E-06  0.9912E-04  0.1665E-05  0.5321E-03  0.0000E+00  0.0000E+00  0.0000E+00  0.0000E+00  0.0000E+00
     17.518  0.2063E-10  0.1301E-03  0.9101E-10  0.7049E-03  0.0000E+00  0.0000E+00  0.0000E+00  0.0000E+00  0.0000E+00
     17.613  0.2143E-12  0.1359E-05  0.9455E-12  0.7363E-05  0.0000E+00  0.0000E+00  0.0000E+00  0.0000E+00  0.0000E+00
     17.709  0.3321E-17  0.2106E-10  0.1465E-16  0.1141E-09  0.0000E+00  0.0000E+00  0.0000E+00  0.0000E+00  0.0000E+00
     17.804  0.4428E-25  0.2808E-18  0.1954E-24  0.1522E-17  0.0000E+00  0.0000E+00  0.0000E+00  0.0000E+00  0.0000E+00
     17.899  0.0000E+00  0.0000E+00  0.0000E+00  0.0000E+00  0.0000E+00  0.0000E+00  0.0000E+00  0.0000E+00  0.0000E+00
     17.995  0.0000E+00  0.0000E+00  0.0000E+00  0.0000E+00  0.0000E+00  0.0000E+00  0.0000E+00  0.0000E+00  0.0000E+00
     18.090  0.0000E+00  0.0000E+00  0.0000E+00  0.0000E+00  0.0000E+00  0.0000E+00  0.0000E+00  0.0000E+00  0.0000E+00
     18.186  0.0000E+00  0.0000E+00  0.0000E+00  0.0000E+00  0.0000E+00  0.0000E+00  0.0000E+00  0.0000E+00  0.0000E+00
     18.281  0.0000E+00  0.0000E+00  0.0000E+00  0.0000E+00  0.0000E+00  0.0000E+00  0.0000E+00  0.0000E+00  0.0000E+00
     18.376  0.0000E+00  0.0000E+00  0.0000E+00  0.0000E+00  0.0000E+00  0.0000E+00  0.0000E+00  0.0000E+00  0.0000E+00
     18.472  0.0000E+00  0.0000E+00  0.0000E+00  0.0000E+00  0.0000E+00  0.0000E+00  0.0000E+00  0.0000E+00  0.0000E+00
     18.567  0.0000E+00  0.0000E+00  0.0000E+00  0.0000E+00  0.0000E+00  0.0000E+00  0.0000E+00  0.0000E+00  0.0000E+00
     18.663  0.0000E+00  0.0000E+00  0.0000E+00  0.0000E+00  0.0000E+00  0.0000E+00  0.0000E+00  0.0000E+00  0.0000E+00
     18.758  0.0000E+00  0.0000E+00  0.0000E+00  0.0000E+00  0.0000E+00  0.0000E+00  0.0000E+00  0.0000E+00  0.0000E+00
     18.853  0.0000E+00  0.0000E+00  0.0000E+00  0.0000E+00  0.0000E+00  0.0000E+00  0.0000E+00  0.0000E+00  0.0000E+00
     18.949  0.0000E+00  0.0000E+00  0.0000E+00  0.0000E+00  0.0000E+00  0.0000E+00  0.0000E+00  0.0000E+00  0.0000E+00
     19.044  0.0000E+00  0.0000E+00  0.0000E+00  0.0000E+00  0.0000E+00  0.0000E+00  0.0000E+00  0.0000E+00  0.0000E+00
     19.139  0.0000E+00  0.0000E+00  0.0000E+00  0.0000E+00  0.0000E+00  0.0000E+00  0.0000E+00  0.0000E+00  0.0000E+00
     19.235  0.0000E+00  0.0000E+00  0.0000E+00  0.0000E+00  0.0000E+00  0.0000E+00  0.0000E+00  0.0000E+00  0.0000E+00
     19.330  0.0000E+00  0.0000E+00  0.0000E+00  0.0000E+00  0.0000E+00  0.0000E+00  0.0000E+00  0.0000E+00  0.0000E+00
     19.426  0.0000E+00  0.0000E+00  0.0000E+00  0.0000E+00  0.0000E+00  0.0000E+00  0.0000E+00  0.0000E+00  0.0000E+00
     19.42567404     -9.19258447  301      5.50408370      1.00000000
     -9.193  0.0000E+00  0.0000E+00  0.0000E+00  0.0000E+00  0.0000E+00  0.0000E+00  0.0000E+00  0.0000E+00  0.0000E+00
     -9.097  0.0000E+00  0.0000E+00  0.0000E+00  0.0000E+00  0.0000E+00  0.0000E+00  0.0000E+00  0.0000E+00  0.0000E+00
     -9.002  0.0000E+00  0.0000E+00  0.0000E+00  0.0000E+00  0.0000E+00  0.0000E+00  0.0000E+00  0.0000E+00  0.0000E+00
     -8.906  0.0000E+00  0.0000E+00  0.0000E+00  0.0000E+00  0.0000E+00  0.0000E+00  0.0000E+00  0.0000E+00  0.0000E+00
     -8.811  0.0000E+00  0.0000E+00  0.0000E+00  0.0000E+00  0.0000E+00  0.0000E+00  0.0000E+00  0.0000E+00  0.0000E+00
     -8.716  0.0000E+00  0.0000E+00  0.0000E+00  0.0000E+00  0.0000E+00  0.0000E+00  0.0000E+00  0.0000E+00  0.0000E+00
     -8.620  0.0000E+00  0.0000E+00  0.0000E+00  0.0000E+00  0.0000E+00  0.0000E+00  0.0000E+00  0.0000E+00  0.0000E+00
     -8.525  0.0000E+00  0.0000E+00  0.0000E+00  0.0000E+00  0.0000E+00  0.0000E+00  0.0000E+00  0.0000E+00  0.0000E+00
     -8.429  0.0000E+00  0.0000E+00  0.0000E+00  0.0000E+00  0.0000E+00  0.0000E+00  0.0000E+00  0.0000E+00  0.0000E+00
     -8.334  0.0000E+00  0.0000E+00  0.0000E+00  0.0000E+00  0.0000E+00  0.0000E+00  0.0000E+00  0.0000E+00  0.0000E+00
     -8.239  0.0000E+00  0.0000E+00  0.0000E+00  0.0000E+00  0.0000E+00  0.0000E+00  0.0000E+00  0.0000E+00  0.0000E+00
     -8.143  0.5061E-14  0.5906E-27  0.3101E-27  0.1960E-26  0.0000E+00  0.0000E+00  0.0000E+00  0.0000E+00  0.0000E+00
     -8.048  0.4509E-07  0.5262E-20  0.2763E-20  0.1746E-19  0.0000E+00  0.0000E+00  0.0000E+00  0.0000E+00  0.0000E+00
     -7.952  0.3840E-03  0.4496E-16  0.2368E-16  0.1489E-15  0.0000E+00  0.0000E+00  0.0000E+00  0.0000E+00  0.0000E+00
     -7.857  0.7092E-02  0.1334E-10  0.1334E-10  0.1334E-10  0.0000E+00  0.0000E+00  0.0000E+00  0.0000E+00  0.0000E+00
     -7.762  0.1781E-02  0.1086E-05  0.1086E-05  0.1086E-05  0.0000E+00  0.0000E+00  0.0000E+00  0.0000E+00  0.0000E+00
     -7.666  0.3892E-01  0.1267E-03  0.1421E-03  0.1267E-03  0.0000E+00  0.0000E+00  0.0000E+00  0.0000E+00  0.0000E+00
     -7.571  0.7152E-01  0.1101E-03  0.6397E-03  0.1101E-03  0.0000E+00  0.0000E+00  0.0000E+00  0.0000E+00  0.0000E+00
     -7.475  0.1360E-01  0.6328E-06  0.1842E-03  0.6328E-06  0.0000E+00  0.0000E+00  0.0000E+00  0.0000E+00  0.0000E+00
     -7.380  0.1578E-02  0.2019E-04  0.9316E-06  0.2019E-04  0.0000E+00  0.0000E+00  0.0000E+00  0.0000E+00  0.0000E+00
     -7.285  0.7245E-01  0.9394E-03  0.3039E-04  0.9394E-03  0.0000E+00  0.0000E+00  0.0000E+00  0.0000E+00  0.0000E+00
     -7.189  0.3217E-01  0.4143E-03  0.2221E-04  0.4143E-03  0.0000E+00  0.0000E+00  0.0000E+00  0.0000E+00  0.0000E+00
     -7.094  0.8239E-01  0.2763E-03  0.2448E-02  0.2763E-03  0.0000E+00  0.0000E+00  0.0000E+00  0.0000E+00  0.0000E+00
     -6.999  0.1783E+00  0.1035E-02  0.4467E-02  0.1035E-02  0.0000E+00  0.0000E+00  0.0000E+00  0.0000E+00  0.0000E+00
     -6.903  0.2047E-01  0.2391E-03  0.2846E-03  0.2391E-03  0.0000E+00  0.0000E+00  0.0000E+00  0.0000E+00  0.0000E+00
     -6.808  0.2066E-03  0.3943E-06  0.1005E-04  0.3943E-06  0.0000E+00  0.0000E+00  0.0000E+00  0.0000E+00  0.0000E+00
     -6.712  0.2565E-01  0.5970E-09  0.1415E-02  0.5971E-09  0.0000E+00  0.0000E+00  0.0000E+00  0.0000E+00  0.0000E+00
     -6.617  0.2754E-01  0.3552E-04  0.1452E-02  0.3552E-04  0.0000E+00  0.0000E+00  0.0000E+00  0.0000E+00  0.0000E+00
     -6.522  0.1242E+00  0.3205E-02  0.7480E-03  0.3183E-02  0.0000E+00  0.0000E+00  0.0000E+00  0.0000E+00  0.0000E+00
     -6.426  0.2254E+00  0.3737E-02  0.7561E-02  0.2577E-02  0.0000E+00  0.0000E+00  0.0000E+00  0.0000E+00  0.0000E+00
     -6.331  0.6834E-01  0.7262E-03  0.3505E-02  0.1561E-03  0.0000E+00  0.0000E+00  0.0000E+00  0.0000E+00  0.0000E+00
     -6.235  0.2678E-01  0.2952E-03  0.1254E-02  0.2938E-03  0.0000E+00  0.0000E+00  0.0000E+00  0.0000E+00  0.0000E+00
     -6.140  0.1715E+00  0.1894E-02  0.8018E-02  0.1894E-02  0.0000E+00  0.0000E+00  0.0000E+00  0.0000E+00  0.0000E+00
     -6.045  0.5004E-01  0.9523E-03  0.1422E-02  0.9523E-03  0.0000E+00  0.0000E+00  0.0000E+00  0.0000E+00  0.0000E+00
     -5.949  0.1069E+00  0.9519E-03  0.6850E-02  0.9519E-03  0.0000E+00  0.0000E+00  0.0000E+00  0.0000E+00  0.0000E+00
     -5.854  0.1309E+00  0.3983E-03  0.1090E-01  0.3983E-03  0.0000E+00  0.0000E+00  0.0000E+00  0.0000E+00  0.0000E+00
     -5.758  0.2385E-02  0.1983E-04  0.1736E-03  0.1983E-04  0.0000E+00  0.0000E+00  0.0000E+00  0.0000E+00  0.0000E+00
     -5.663  0.5142E-01  0.2024E-02  0.5723E-03  0.2024E-02  0.0000E+00  0.0000E+00  0.0000E+00  0.0000E+00  0.0000E+00
     -5.568  0.7733E-01  0.2830E-02  0.1048E-02  0.2821E-02  0.0000E+00  0.0000E+00  0.0000E+00  0.0000E+00  0.0000E+00
     -5.472  0.3870E+00  0.9251E-02  0.1693E-01  0.7985E-02  0.0000E+00  0.0000E+00  0.0000E+00  0.0000E+00  0.0000E+00
     -5.377  0.2334E+00  0.4320E-02  0.1447E-01  0.3069E-02  0.0000E+00  0.0000E+00  0.0000E+00  0.0000E+00  0.0000E+00
     -5.281  0.1071E+00  0.1560E-02  0.5765E-02  0.1551E-02  0.0000E+00  0.0000E+00  0.0000E+00  0.0000E+00  0.0000E+00
     -5.186  0.1874E+00  0.2788E-02  0.1011E-01  0.2788E-02  0.0000E+00  0.0000E+00  0.0000E+00  0.0000E+00  0.0000E+00
     -5.091  0.4345E-01  0.3006E-03  0.4638E-02  0.3647E-03  0.0000E+00  0.0000E+00  0.0000E+00  0.0000E+00  0.0000E+00
     -4.995  0.1639E+00  0.9717E-03  0.1859E-01  0.1234E-02  0.0000E+00  0.0000E+00  0.0000E+00  0.0000E+00  0.0000E+00
     -4.900  0.1631E+00  0.1740E-02  0.1548E-01  0.1752E-02  0.0000E+00  0.0000E+00  0.0000E+00  0.0000E+00  0.0000E+00
     -4.804  0.7655E-01  0.9365E-03  0.5756E-02  0.1679E-02  0.0000E+00  0.0000E+00  0.0000E+00  0.0000E+00  0.0000E+00
     -4.709  0.2751E+00  0.5828E-02  0.1138E-01  0.1073E-01  0.0000E+00  0.0000E+00  0.0000E+00  0.0000E+00  0.0000E+00
     -4.614  0.1314E+00  0.4199E-02  0.5360E-02  0.4573E-02  0.0000E+00  0.0000E+00  0.0000E+00  0.0000E+00  0.0000E+00
     -4.518  0.4326E-01  0.7637E-03  0.1630E-02  0.3235E-02  0.0000E+00  0.0000E+00  0.0000E+00  0.0000E+00  0.0000E+00
     -4.423  0.1622E+00  0.2794E-02  0.6100E-02  0.1230E-01  0.0000E+00  0.0000E+00  0.0000E+00  0.0000E+00  0.0000E+00
     -4.327  0.3890E-01  0.2363E-03  0.5464E-02  0.6284E-03  0.0000E+00  0.0000E+00  0.0000E+00  0.0000E+00  0.0000E+00
     -4.232  0.1595E+00  0.5993E-03  0.2581E-01  0.6010E-03  0.0000E+00  0.0000E+00  0.0000E+00  0.0000E+00  0.0000E+00
     -4.137  0.8323E-01  0.4979E-03  0.9474E-02  0.2595E-02  0.0000E+00  0.0000E+00  0.0000E+00  0.0000E+00  0.0000E+00
     -4.041  0.3293E+00  0.2057E-02  0.3562E-01  0.1134E-01  0.0000E+00  0.0000E+00  0.0000E+00  0.0000E+00  0.0000E+00
     -3.946  0.1602E-01  0.1003E-03  0.1732E-02  0.5512E-03  0.0000E+00  0.0000E+00  0.0000E+00  0.0000E+00  0.0000E+00
     -3.851  0.1852E-01  0.4162E-03  0.1996E-02  0.4163E-03  0.0000E+00  0.0000E+00  0.0000E+00  0.0000E+00  0.0000E+00
     -3.755  0.8358E-01  0.1879E-02  0.9008E-02  0.1879E-02  0.0000E+00  0.0000E+00  0.0000E+00  0.0000E+00  0.0000E+00
     -3.660  0.4156E-02  0.9342E-04  0.4479E-03  0.9342E-04  0.0000E+00  0.0000E+00  0.0000E+00  0.0000E+00  0.0000E+00
     -3.564  0.4370E-06  0.9823E-08  0.4711E-07  0.9823E-08  0.0000E+00  0.0000E+00  0.0000E+00  0.0000E+00  0.0000E+00
     -3.469  0.2558E-04  0.3696E-12  0.5914E-05  0.4344E-10  0.0000E+00  0.0000E+00  0.0000E+00  0.0000E+00  0.0000E+00
     -3.374  0.1394E-01  0.6892E-07  0.3206E-02  0.8102E-05  0.0000E+00  0.0000E+00  0.0000E+00  0.0000E+00  0.0000E+00
     -3.278  0.1145E+00  0.1660E-04  0.2348E-01  0.1973E-02  0.0000E+00  0.0000E+00  0.0000E+00  0.0000E+00  0.0000E+00
     -3.183  0.1626E+00  0.2395E-04  0.2744E-01  0.7516E-02  0.0000E+00  0.0000E+00  0.0000E+00  0.0000E+00  0.0000E+00
     -3.087  0.5662E-01  0.2805E-06  0.5926E-02  0.5695E-02  0.0000E+00  0.0000E+00  0.0000E+00  0.0000E+00  0.0000E+00
     -2.992  0.5040E-03  0.4978E-11  0.5153E-04  0.5153E-04  0.0000E+00  0.0000E+00  0.0000E+00  0.0000E+00  0.0000E+00
     -2.897  0.7562E-08  0.2799E-10  0.8912E-09  0.7076E-09  0.0000E+00  0.0000E+00  0.0000E+00  0.0000E+00  0.0000E+00
     -2.801  0.1619E-03  0.5034E-05  0.3806E-04  0.5034E-05  0.0000E+00  0.0000E+00  0.0000E+00  0.0000E+00  0.0000E+00
     -2.706  0.3770E-01  0.1172E-02  0.8862E-02  0.1172E-02  0.0000E+00  0.0000E+00  0.0000E+00  0.0000E+00  0.0000E+00
     -2.610  0.5311E-01  0.1651E-02  0.1248E-01  0.1651E-02  0.0000E+00  0.0000E+00  0.0000E+00  0.0000E+00  0.0000E+00
     -2.515  0.6146E-03  0.1907E-04  0.1439E-03  0.1996E-04  0.0000E+00  0.0000E+00  0.0000E+00  0.0000E+00  0.0000E+00
     -2.420  0.3685E-01  0.1175E-02  0.7058E-02  0.3817E-02  0.0000E+00  0.0000E+00  0.0000E+00  0.0000E+00  0.0000E+00
     -2.324  0.3243E+00  0.1173E-01  0.6347E-01  0.3392E-01  0.0000E+00  0.0000E+00  0.0000E+00  0.0000E+00  0.0000E+00
     -2.229  0.1955E+00  0.5251E-02  0.4965E-01  0.8264E-02  0.0000E+00  0.0000E+00  0.0000E+00  0.0000E+00  0.0000E+00
     -2.133  0.1858E+00  0.2935E-01  0.4418E-01  0.3692E-01  0.0000E+00  0.0000E+00  0.0000E+00  0.0000E+00  0.0000E+00
     -2.038  0.1461E+00  0.2663E-01  0.3693E-01  0.2787E-01  0.0000E+00  0.0000E+00  0.0000E+00  0.0000E+00  0.0000E+00
     -1.943  0.2210E+00  0.1474E-01  0.4815E-01  0.2660E-01  0.0000E+00  0.0000E+00  0.0000E+00  0.0000E+00  0.0000E+00
     -1.847  0.3873E-01  0.1422E-02  0.7667E-02  0.4680E-02  0.0000E+00  0.0000E+00  0.0000E+00  0.0000E+00  0.0000E+00
     -1.752  0.9612E-01  0.1397E-01  0.2376E-01  0.1397E-01  0.0000E+00  0.0000E+00  0.0000E+00  0.0000E+00  0.0000E+00
     -1.656  0.1698E+00  0.3111E-01  0.4582E-01  0.3111E-01  0.0000E+00  0.0000E+00  0.0000E+00  0.0000E+00  0.0000E+00
     -1.561  0.4976E-02  0.1116E-02  0.1464E-02  0.1116E-02  0.0000E+00  0.0000E+00  0.0000E+00  0.0000E+00  0.0000E+00
     -1.466  0.1068E-05  0.1160E-06  0.3097E-06  0.1540E-06  0.0000E+00  0.0000E+00  0.0000E+00  0.0000E+00  0.0000E+00
     -1.370  0.6478E-02  0.9771E-04  0.1822E-02  0.4962E-03  0.0000E+00  0.0000E+00  0.0000E+00  0.0000E+00  0.0000E+00
     -1.275  0.1460E+00  0.3734E-02  0.4117E-01  0.1239E-01  0.0000E+00  0.0000E+00  0.0000E+00  0.0000E+00  0.0000E+00
     -1.179  0.1135E+00  0.1573E-01  0.2933E-01  0.2283E-01  0.0000E+00  0.0000E+00  0.0000E+00  0.0000E+00  0.0000E+00
     -1.084  0.2410E+00  0.2953E-01  0.5516E-01  0.5169E-01  0.0000E+00  0.0000E+00  0.0000E+00  0.0000E+00  0.0000E+00
     -0.989  0.4223E-01  0.1393E-02  0.1443E-01  0.2456E-02  0.0000E+00  0.0000E+00  0.0000E+00  0.0000E+00  0.0000E+00
     -0.893  0.7565E-03  0.6955E-06  0.2898E-03  0.8023E-06  0.0000E+00  0.0000E+00  0.0000E+00  0.0000E+00  0.0000E+00
     -0.798  0.8893E-02  0.1298E-02  0.2229E-02  0.1298E-02  0.0000E+00  0.0000E+00  0.0000E+00  0.0000E+00  0.0000E+00
     -0.703  0.6251E-01  0.9121E-02  0.1567E-01  0.9121E-02  0.0000E+00  0.0000E+00  0.0000E+00  0.0000E+00  0.0000E+00
     -0.607  0.5546E-02  0.8704E-03  0.1412E-02  0.8704E-03  0.0000E+00  0.0000E+00  0.0000E+00  0.0000E+00  0.0000E+00
     -0.512  0.6068E-01  0.1653E-01  0.1800E-01  0.1653E-01  0.0000E+00  0.0000E+00  0.0000E+00  0.0000E+00  0.0000E+00
     -0.416  0.5542E-01  0.1510E-01  0.1645E-01  0.1510E-01  0.0000E+00  0.0000E+00  0.0000E+00  0.0000E+00  0.0000E+00
     -0.321  0.3428E-03  0.9326E-04  0.1018E-03  0.9326E-04  0.0000E+00  0.0000E+00  0.0000E+00  0.0000E+00  0.0000E+00
     -0.226  0.6712E-02  0.4642E-03  0.2623E-02  0.4642E-03  0.0000E+00  0.0000E+00  0.0000E+00  0.0000E+00  0.0000E+00
     -0.130  0.1267E+00  0.8759E-02  0.4949E-01  0.8759E-02  0.0000E+00  0.0000E+00  0.0000E+00  0.0000E+00  0.0000E+00
     -0.035  0.2653E-01  0.1835E-02  0.1037E-01  0.1835E-02  0.0000E+00  0.0000E+00  0.0000E+00  0.0000E+00  0.0000E+00
      0.061  0.2032E-04  0.1581E-05  0.7890E-05  0.1581E-05  0.0000E+00  0.0000E+00  0.0000E+00  0.0000E+00  0.0000E+00
      0.156  0.5662E-02  0.1664E-02  0.1854E-02  0.1664E-02  0.0000E+00  0.0000E+00  0.0000E+00  0.0000E+00  0.0000E+00
      0.251  0.9217E-01  0.2710E-01  0.3019E-01  0.2710E-01  0.0000E+00  0.0000E+00  0.0000E+00  0.0000E+00  0.0000E+00
      0.347  0.1693E-01  0.4977E-02  0.5545E-02  0.4977E-02  0.0000E+00  0.0000E+00  0.0000E+00  0.0000E+00  0.0000E+00
      0.442  0.4950E-04  0.8290E-05  0.1818E-04  0.1040E-04  0.0000E+00  0.0000E+00  0.0000E+00  0.0000E+00  0.0000E+00
      0.538  0.3172E-01  0.4260E-02  0.1199E-01  0.5971E-02  0.0000E+00  0.0000E+00  0.0000E+00  0.0000E+00  0.0000E+00
      0.633  0.1055E+00  0.2094E-01  0.4501E-01  0.2660E-01  0.0000E+00  0.0000E+00  0.0000E+00  0.0000E+00  0.0000E+00
      0.728  0.5907E-02  0.4149E-01  0.4300E-01  0.3452E-01  0.0000E+00  0.0000E+00  0.0000E+00  0.0000E+00  0.0000E+00
      0.824  0.3490E-02  0.3231E-01  0.4100E-01  0.2123E-01  0.0000E+00  0.0000E+00  0.0000E+00  0.0000E+00  0.0000E+00
      0.919  0.7643E-02  0.5919E-01  0.4601E-01  0.5640E-01  0.0000E+00  0.0000E+00  0.0000E+00  0.0000E+00  0.0000E+00
      1.015  0.4306E-01  0.9421E-01  0.1052E+00  0.9162E-01  0.0000E+00  0.0000E+00  0.0000E+00  0.0000E+00  0.0000E+00
      1.110  0.1502E-01  0.1744E-01  0.2230E-01  0.1572E-01  0.0000E+00  0.0000E+00  0.0000E+00  0.0000E+00  0.0000E+00
      1.205  0.4493E-03  0.2971E-01  0.2107E-01  0.1947E-01  0.0000E+00  0.0000E+00  0.0000E+00  0.0000E+00  0.0000E+00
      1.301  0.5048E-02  0.1646E-01  0.3507E-01  0.1575E-01  0.0000E+00  0.0000E+00  0.0000E+00  0.0000E+00  0.0000E+00
      1.396  0.1290E-01  0.2276E-02  0.1302E-01  0.2276E-02  0.0000E+00  0.0000E+00  0.0000E+00  0.0000E+00  0.0000E+00
      1.492  0.3851E-01  0.2654E-01  0.5147E-01  0.2696E-01  0.0000E+00  0.0000E+00  0.0000E+00  0.0000E+00  0.0000E+00
      1.587  0.3603E-01  0.1028E+00  0.8070E-01  0.1223E+00  0.0000E+00  0.0000E+00  0.0000E+00  0.0000E+00  0.0000E+00
      1.682  0.2805E-01  0.1538E+00  0.5952E-01  0.1906E+00  0.0000E+00  0.0000E+00  0.0000E+00  0.0000E+00  0.0000E+00
      1.778  0.1120E+00  0.1051E+00  0.1026E+00  0.1831E+00  0.0000E+00  0.0000E+00  0.0000E+00  0.0000E+00  0.0000E+00
      1.873  0.3758E-01  0.1361E-01  0.2327E-01  0.1723E-01  0.0000E+00  0.0000E+00  0.0000E+00  0.0000E+00  0.0000E+00
      1.969  0.9635E-04  0.3900E-04  0.5763E-04  0.3709E-04  0.0000E+00  0.0000E+00  0.0000E+00  0.0000E+00  0.0000E+00
      2.064  0.3649E-03  0.2190E-01  0.5337E-02  0.1708E-01  0.0000E+00  0.0000E+00  0.0000E+00  0.0000E+00  0.0000E+00
      2.159  0.2366E-02  0.1496E+00  0.3460E-01  0.1183E+00  0.0000E+00  0.0000E+00  0.0000E+00  0.0000E+00  0.0000E+00
      2.255  0.3110E-03  0.3050E-01  0.3680E-02  0.2664E-01  0.0000E+00  0.0000E+00  0.0000E+00  0.0000E+00  0.0000E+00
      2.350  0.2357E-01  0.1298E+00  0.3139E-01  0.1058E+00  0.0000E+00  0.0000E+00  0.0000E+00  0.0000E+00  0.0000E+00
      2.446  0.4481E-01  0.2066E+00  0.5327E-01  0.2438E+00  0.0000E+00  0.0000E+00  0.0000E+00  0.0000E+00  0.0000E+00
      2.541  0.6330E-02  0.1146E+00  0.2359E-01  0.1052E+00  0.0000E+00  0.0000E+00  0.0000E+00  0.0000E+00  0.0000E+00
      2.636  0.1394E-01  0.5274E-01  0.4707E-01  0.4939E-01  0.0000E+00  0.0000E+00  0.0000E+00  0.0000E+00  0.0000E+00
      2.732  0.1744E-01  0.4742E-01  0.5703E-01  0.4742E-01  0.0000E+00  0.0000E+00  0.0000E+00  0.0000E+00  0.0000E+00
      2.827  0.2633E-01  0.4109E-01  0.1013E+00  0.4109E-01  0.0000E+00  0.0000E+00  0.0000E+00  0.0000E+00  0.0000E+00
      2.922  0.2938E-01  0.2024E+00  0.1084E+00  0.1938E+00  0.0000E+00  0.0000E+00  0.0000E+00  0.0000E+00  0.0000E+00
      3.018  0.9048E-03  0.1187E+00  0.3490E-01  0.6646E-01  0.0000E+00  0.0000E+00  0.0000E+00  0.0000E+00  0.0000E+00
      3.113  0.6447E-04  0.6686E-02  0.2724E-02  0.2585E-02  0.0000E+00  0.0000E+00  0.0000E+00  0.0000E+00  0.0000E+00
      3.209  0.3495E-02  0.1352E+00  0.5799E-01  0.6000E-01  0.0000E+00  0.0000E+00  0.0000E+00  0.0000E+00  0.0000E+00
      3.304  0.1264E-01  0.2272E+00  0.8878E-01  0.1483E+00  0.0000E+00  0.0000E+00  0.0000E+00  0.0000E+00  0.0000E+00
      3.399  0.2312E-01  0.2976E-01  0.7244E-01  0.2917E-01  0.0000E+00  0.0000E+00  0.0000E+00  0.0000E+00  0.0000E+00
      3.495  0.1087E-02  0.4670E-02  0.3206E-02  0.4670E-02  0.0000E+00  0.0000E+00  0.0000E+00  0.0000E+00  0.0000E+00
      3.590  0.1669E-01  0.1597E+00  0.5727E-01  0.1597E+00  0.0000E+00  0.0000E+00  0.0000E+00  0.0000E+00  0.0000E+00
      3.686  0.5964E-02  0.7495E-01  0.2578E-01  0.7138E-01  0.0000E+00  0.0000E+00  0.0000E+00  0.0000E+00  0.0000E+00
      3.781  0.7884E-02  0.9083E-01  0.5159E-01  0.2452E-01  0.0000E+00  0.0000E+00  0.0000E+00  0.0000E+00  0.0000E+00
      3.876  0.2006E-01  0.1504E+00  0.4121E-01  0.1367E+00  0.0000E+00  0.0000E+00  0.0000E+00  0.0000E+00  0.0000E+00
      3.972  0.1580E-01  0.1630E+00  0.6531E-01  0.1630E+00  0.0000E+00  0.0000E+00  0.0000E+00  0.0000E+00  0.0000E+00
      4.067  0.9548E-02  0.4473E-01  0.5507E-01  0.4473E-01  0.0000E+00  0.0000E+00  0.0000E+00  0.0000E+00  0.0000E+00
      4.163  0.3963E-04  0.3320E-01  0.3326E-01  0.3321E-01  0.0000E+00  0.0000E+00  0.0000E+00  0.0000E+00  0.0000E+00
      4.258  0.2120E-09  0.8101E-03  0.8099E-03  0.8102E-03  0.0000E+00  0.0000E+00  0.0000E+00  0.0000E+00  0.0000E+00
      4.353  0.2336E-13  0.3316E-02  0.1162E-03  0.3316E-02  0.0000E+00  0.0000E+00  0.0000E+00  0.0000E+00  0.0000E+00
      4.449  0.7881E-12  0.1346E+00  0.2113E-01  0.1346E+00  0.0000E+00  0.0000E+00  0.0000E+00  0.0000E+00  0.0000E+00
      4.544  0.2843E-12  0.6549E-01  0.2508E-01  0.6549E-01  0.0000E+00  0.0000E+00  0.0000E+00  0.0000E+00  0.0000E+00
      4.640  0.6235E-15  0.2884E-03  0.2244E-03  0.2884E-03  0.0000E+00  0.0000E+00  0.0000E+00  0.0000E+00  0.0000E+00
      4.735  0.4027E-20  0.3213E-08  0.2905E-08  0.3214E-08  0.0000E+00  0.0000E+00  0.0000E+00  0.0000E+00  0.0000E+00
      4.830  0.4797E-16  0.6006E-04  0.6328E-05  0.6006E-04  0.0000E+00  0.0000E+00  0.0000E+00  0.0000E+00  0.0000E+00
      4.926  0.2948E-13  0.2671E-01  0.8040E-02  0.2671E-01  0.0000E+00  0.0000E+00  0.0000E+00  0.0000E+00  0.0000E+00
      5.021  0.1023E-12  0.7128E-01  0.3662E-01  0.7128E-01  0.0000E+00  0.0000E+00  0.0000E+00  0.0000E+00  0.0000E+00
      5.117  0.4399E-14  0.2412E-02  0.1840E-02  0.2412E-02  0.0000E+00  0.0000E+00  0.0000E+00  0.0000E+00  0.0000E+00
      5.212  0.1317E-14  0.1067E-02  0.1067E-02  0.1067E-02  0.0000E+00  0.0000E+00  0.0000E+00  0.0000E+00  0.0000E+00
      5.307  0.8863E-14  0.7183E-02  0.7183E-02  0.7183E-02  0.0000E+00  0.0000E+00  0.0000E+00  0.0000E+00  0.0000E+00
      5.403  0.6853E-15  0.5555E-03  0.5555E-03  0.5555E-03  0.0000E+00  0.0000E+00  0.0000E+00  0.0000E+00  0.0000E+00
      5.498  0.1284E-18  0.1041E-06  0.1041E-06  0.1041E-06  0.0000E+00  0.0000E+00  0.0000E+00  0.0000E+00  0.0000E+00
      5.594  0.2357E-25  0.1911E-13  0.1911E-13  0.1911E-13  0.0000E+00  0.0000E+00  0.0000E+00  0.0000E+00  0.0000E+00
      5.689  0.0000E+00  0.0000E+00  0.0000E+00  0.0000E+00  0.0000E+00  0.0000E+00  0.0000E+00  0.0000E+00  0.0000E+00
      5.784  0.0000E+00  0.0000E+00  0.0000E+00  0.0000E+00  0.0000E+00  0.0000E+00  0.0000E+00  0.0000E+00  0.0000E+00
      5.880  0.0000E+00  0.0000E+00  0.0000E+00  0.0000E+00  0.0000E+00  0.0000E+00  0.0000E+00  0.0000E+00  0.0000E+00
      5.975  0.0000E+00  0.0000E+00  0.0000E+00  0.0000E+00  0.0000E+00  0.0000E+00  0.0000E+00  0.0000E+00  0.0000E+00
      6.070  0.0000E+00  0.0000E+00  0.0000E+00  0.0000E+00  0.0000E+00  0.0000E+00  0.0000E+00  0.0000E+00  0.0000E+00
      6.166  0.0000E+00  0.0000E+00  0.0000E+00  0.0000E+00  0.0000E+00  0.0000E+00  0.0000E+00  0.0000E+00  0.0000E+00
      6.261  0.1120E-11  0.2816E-24  0.1036E-11  0.2990E-24  0.0000E+00  0.0000E+00  0.0000E+00  0.0000E+00  0.0000E+00
      6.357  0.1480E-05  0.3723E-18  0.1369E-05  0.3953E-18  0.0000E+00  0.0000E+00  0.0000E+00  0.0000E+00  0.0000E+00
      6.452  0.2100E-02  0.5282E-15  0.1941E-02  0.5607E-15  0.0000E+00  0.0000E+00  0.0000E+00  0.0000E+00  0.0000E+00
      6.547  0.1136E-01  0.9614E-14  0.1023E-01  0.9663E-14  0.0000E+00  0.0000E+00  0.0000E+00  0.0000E+00  0.0000E+00
      6.643  0.1108E-01  0.2494E-07  0.7432E-02  0.2494E-07  0.0000E+00  0.0000E+00  0.0000E+00  0.0000E+00  0.0000E+00
      6.738  0.5114E-02  0.1035E-03  0.3648E-02  0.1035E-03  0.0000E+00  0.0000E+00  0.0000E+00  0.0000E+00  0.0000E+00
      6.834  0.4141E-01  0.1109E-02  0.3029E-01  0.1109E-02  0.0000E+00  0.0000E+00  0.0000E+00  0.0000E+00  0.0000E+00
      6.929  0.5162E-02  0.1376E-03  0.3800E-02  0.1376E-03  0.0000E+00  0.0000E+00  0.0000E+00  0.0000E+00  0.0000E+00
      7.024  0.4843E-02  0.1589E-05  0.8241E-02  0.1589E-05  0.0000E+00  0.0000E+00  0.0000E+00  0.0000E+00  0.0000E+00
      7.120  0.1905E-01  0.2076E-03  0.1962E-01  0.2076E-03  0.0000E+00  0.0000E+00  0.0000E+00  0.0000E+00  0.0000E+00
      7.215  0.1846E-01  0.1113E-02  0.1625E-01  0.1113E-02  0.0000E+00  0.0000E+00  0.0000E+00  0.0000E+00  0.0000E+00
      7.311  0.3560E-01  0.5636E-02  0.4339E-01  0.5636E-02  0.0000E+00  0.0000E+00  0.0000E+00  0.0000E+00  0.0000E+00
      7.406  0.1756E-01  0.9528E-03  0.8258E-02  0.9528E-03  0.0000E+00  0.0000E+00  0.0000E+00  0.0000E+00  0.0000E+00
      7.501  0.7283E-01  0.2627E-02  0.4204E-01  0.2627E-02  0.0000E+00  0.0000E+00  0.0000E+00  0.0000E+00  0.0000E+00
      7.597  0.5454E-01  0.2444E-02  0.7556E-02  0.2444E-02  0.0000E+00  0.0000E+00  0.0000E+00  0.0000E+00  0.0000E+00
      7.692  0.9147E-02  0.4380E-03  0.5198E-03  0.4380E-03  0.0000E+00  0.0000E+00  0.0000E+00  0.0000E+00  0.0000E+00
      7.788  0.2327E-01  0.7529E-03  0.1903E-01  0.7297E-03  0.0000E+00  0.0000E+00  0.0000E+00  0.0000E+00  0.0000E+00
      7.883  0.7605E-01  0.2381E-01  0.6038E-01  0.1973E-01  0.0000E+00  0.0000E+00  0.0000E+00  0.0000E+00  0.0000E+00
      7.978  0.1149E+00  0.4185E-01  0.6902E-01  0.3377E-01  0.0000E+00  0.0000E+00  0.0000E+00  0.0000E+00  0.0000E+00
      8.074  0.3163E-01  0.5740E-02  0.4531E-01  0.5533E-02  0.0000E+00  0.0000E+00  0.0000E+00  0.0000E+00  0.0000E+00
      8.169  0.1240E+00  0.1126E-01  0.1122E+00  0.1126E-01  0.0000E+00  0.0000E+00  0.0000E+00  0.0000E+00  0.0000E+00
      8.265  0.7699E-01  0.5877E-02  0.5377E-01  0.5595E-02  0.0000E+00  0.0000E+00  0.0000E+00  0.0000E+00  0.0000E+00
      8.360  0.1459E+00  0.3616E-01  0.8676E-01  0.1610E-01  0.0000E+00  0.0000E+00  0.0000E+00  0.0000E+00  0.0000E+00
      8.455  0.9501E-01  0.3991E-01  0.9614E-01  0.3323E-01  0.0000E+00  0.0000E+00  0.0000E+00  0.0000E+00  0.0000E+00
      8.551  0.3553E-01  0.9843E-02  0.2211E-01  0.1034E-01  0.0000E+00  0.0000E+00  0.0000E+00  0.0000E+00  0.0000E+00
      8.646  0.3574E-01  0.1815E-01  0.2426E-01  0.1040E-01  0.0000E+00  0.0000E+00  0.0000E+00  0.0000E+00  0.0000E+00
      8.742  0.1089E+00  0.8148E-02  0.6497E-01  0.3972E-02  0.0000E+00  0.0000E+00  0.0000E+00  0.0000E+00  0.0000E+00
      8.837  0.3756E-01  0.1762E-01  0.3042E-01  0.1011E-01  0.0000E+00  0.0000E+00  0.0000E+00  0.0000E+00  0.0000E+00
      8.932  0.1246E+00  0.6300E-01  0.1055E+00  0.4651E-01  0.0000E+00  0.0000E+00  0.0000E+00  0.0000E+00  0.0000E+00
      9.028  0.2851E-01  0.2456E-01  0.3781E-01  0.2646E-01  0.0000E+00  0.0000E+00  0.0000E+00  0.0000E+00  0.0000E+00
      9.123  0.1147E+00  0.3857E-01  0.8650E-01  0.4690E-01  0.0000E+00  0.0000E+00  0.0000E+00  0.0000E+00  0.0000E+00
      9.218  0.2355E-01  0.5496E-01  0.2419E-01  0.4179E-01  0.0000E+00  0.0000E+00  0.0000E+00  0.0000E+00  0.0000E+00
      9.314  0.1170E-01  0.1262E-01  0.1575E-01  0.1236E-01  0.0000E+00  0.0000E+00  0.0000E+00  0.0000E+00  0.0000E+00
      9.409  0.1705E-01  0.1098E-01  0.2833E-01  0.1098E-01  0.0000E+00  0.0000E+00  0.0000E+00  0.0000E+00  0.0000E+00
      9.505  0.6880E-02  0.1609E-01  0.1655E-01  0.1621E-01  0.0000E+00  0.0000E+00  0.0000E+00  0.0000E+00  0.0000E+00
      9.600  0.8987E-01  0.1074E+00  0.7802E-01  0.1143E+00  0.0000E+00  0.0000E+00  0.0000E+00  0.0000E+00  0.0000E+00
      9.695  0.8597E-01  0.7435E-01  0.6855E-01  0.7795E-01  0.0000E+00  0.0000E+00  0.0000E+00  0.0000E+00  0.0000E+00
      9.791  0.1013E+00  0.1217E+00  0.3772E-01  0.1218E+00  0.0000E+00  0.0000E+00  0.0000E+00  0.0000E+00  0.0000E+00
      9.886  0.2544E-01  0.5106E-01  0.4057E-01  0.5132E-01  0.0000E+00  0.0000E+00  0.0000E+00  0.0000E+00  0.0000E+00
      9.982  0.6297E-01  0.3620E-01  0.5685E-01  0.6321E-01  0.0000E+00  0.0000E+00  0.0000E+00  0.0000E+00  0.0000E+00
     10.077  0.4362E-01  0.2354E-01  0.1423E-01  0.4516E-01  0.0000E+00  0.0000E+00  0.0000E+00  0.0000E+00  0.0000E+00
     10.172  0.3450E-02  0.1141E-01  0.1775E-02  0.1126E-01  0.0000E+00  0.0000E+00  0.0000E+00  0.0000E+00  0.0000E+00
     10.268  0.9322E-02  0.8759E-01  0.5431E-02  0.6374E-01  0.0000E+00  0.0000E+00  0.0000E+00  0.0000E+00  0.0000E+00
     10.363  0.2442E-01  0.1300E+00  0.1299E-01  0.3227E-01  0.0000E+00  0.0000E+00  0.0000E+00  0.0000E+00  0.0000E+00
     10.459  0.5609E-01  0.3820E-01  0.1957E-01  0.1082E-01  0.0000E+00  0.0000E+00  0.0000E+00  0.0000E+00  0.0000E+00
     10.554  0.2096E-01  0.5069E-01  0.1046E-01  0.5042E-01  0.0000E+00  0.0000E+00  0.0000E+00  0.0000E+00  0.0000E+00
     10.649  0.1562E-01  0.1409E+00  0.1862E-01  0.1246E+00  0.0000E+00  0.0000E+00  0.0000E+00  0.0000E+00  0.0000E+00
     10.745  0.4874E-01  0.3006E-01  0.1629E-01  0.1959E-01  0.0000E+00  0.0000E+00  0.0000E+00  0.0000E+00  0.0000E+00
     10.840  0.3685E-01  0.1101E-01  0.1224E-01  0.1097E-01  0.0000E+00  0.0000E+00  0.0000E+00  0.0000E+00  0.0000E+00
     10.936  0.1386E-01  0.1484E-01  0.1267E-01  0.1484E-01  0.0000E+00  0.0000E+00  0.0000E+00  0.0000E+00  0.0000E+00
     11.031  0.1982E-03  0.2986E-01  0.1758E-03  0.2986E-01  0.0000E+00  0.0000E+00  0.0000E+00  0.0000E+00  0.0000E+00
     11.126  0.2147E-01  0.1673E-01  0.1494E-01  0.1801E-01  0.0000E+00  0.0000E+00  0.0000E+00  0.0000E+00  0.0000E+00
     11.222  0.9331E-01  0.4676E-01  0.9099E-01  0.6120E-01  0.0000E+00  0.0000E+00  0.0000E+00  0.0000E+00  0.0000E+00
     11.317  0.1409E-01  0.5878E-02  0.1900E-01  0.5692E-02  0.0000E+00  0.0000E+00  0.0000E+00  0.0000E+00  0.0000E+00
     11.413  0.5818E-01  0.3729E-01  0.3615E-01  0.3564E-01  0.0000E+00  0.0000E+00  0.0000E+00  0.0000E+00  0.0000E+00
     11.508  0.7609E-01  0.4287E-01  0.5344E-01  0.6790E-01  0.0000E+00  0.0000E+00  0.0000E+00  0.0000E+00  0.0000E+00
     11.603  0.4984E-01  0.3179E-01  0.4951E-01  0.3296E-01  0.0000E+00  0.0000E+00  0.0000E+00  0.0000E+00  0.0000E+00
     11.699  0.6706E-01  0.1210E+00  0.2743E-01  0.1287E+00  0.0000E+00  0.0000E+00  0.0000E+00  0.0000E+00  0.0000E+00
     11.794  0.1061E-01  0.4114E-01  0.2769E-02  0.4345E-01  0.0000E+00  0.0000E+00  0.0000E+00  0.0000E+00  0.0000E+00
     11.890  0.2327E-01  0.1728E-01  0.1677E-01  0.1601E-01  0.0000E+00  0.0000E+00  0.0000E+00  0.0000E+00  0.0000E+00
     11.985  0.7782E-01  0.9964E-01  0.5279E-01  0.8981E-01  0.0000E+00  0.0000E+00  0.0000E+00  0.0000E+00  0.0000E+00
     12.080  0.1125E-01  0.3143E-01  0.1404E-01  0.3196E-01  0.0000E+00  0.0000E+00  0.0000E+00  0.0000E+00  0.0000E+00
     12.176  0.5763E-01  0.1662E+00  0.7038E-01  0.1854E+00  0.0000E+00  0.0000E+00  0.0000E+00  0.0000E+00  0.0000E+00
     12.271  0.3033E-01  0.5098E-01  0.1914E-01  0.5338E-01  0.0000E+00  0.0000E+00  0.0000E+00  0.0000E+00  0.0000E+00
     12.367  0.3184E-01  0.1885E-01  0.1020E-01  0.1885E-01  0.0000E+00  0.0000E+00  0.0000E+00  0.0000E+00  0.0000E+00
     12.462  0.3112E-01  0.2616E-01  0.1742E-01  0.2616E-01  0.0000E+00  0.0000E+00  0.0000E+00  0.0000E+00  0.0000E+00
     12.557  0.3144E-01  0.7348E-01  0.1892E-01  0.7348E-01  0.0000E+00  0.0000E+00  0.0000E+00  0.0000E+00  0.0000E+00
     12.653  0.9732E-03  0.6512E-02  0.2132E-03  0.6512E-02  0.0000E+00  0.0000E+00  0.0000E+00  0.0000E+00  0.0000E+00
     12.748  0.8150E-02  0.7480E-02  0.5228E-03  0.7483E-02  0.0000E+00  0.0000E+00  0.0000E+00  0.0000E+00  0.0000E+00
     12.843  0.1107E-02  0.4494E-03  0.7101E-04  0.4496E-03  0.0000E+00  0.0000E+00  0.0000E+00  0.0000E+00  0.0000E+00
     12.939  0.2055E-05  0.7382E-06  0.7012E-06  0.7398E-06  0.0000E+00  0.0000E+00  0.0000E+00  0.0000E+00  0.0000E+00
     13.034  0.4147E-02  0.1725E-02  0.1732E-02  0.1729E-02  0.0000E+00  0.0000E+00  0.0000E+00  0.0000E+00  0.0000E+00
     13.130  0.3161E-01  0.1351E-01  0.1332E-01  0.1354E-01  0.0000E+00  0.0000E+00  0.0000E+00  0.0000E+00  0.0000E+00
     13.225  0.2276E-01  0.3108E-01  0.1674E-01  0.3475E-01  0.0000E+00  0.0000E+00  0.0000E+00  0.0000E+00  0.0000E+00
     13.320  0.2809E-01  0.4172E-01  0.1944E-01  0.7168E-01  0.0000E+00  0.0000E+00  0.0000E+00  0.0000E+00  0.0000E+00
     13.416  0.1527E-01  0.4951E-01  0.8135E-02  0.1410E-01  0.0000E+00  0.0000E+00  0.0000E+00  0.0000E+00  0.0000E+00
     13.511  0.5351E-03  0.2344E-02  0.1768E-02  0.3225E-02  0.0000E+00  0.0000E+00  0.0000E+00  0.0000E+00  0.0000E+00
     13.607  0.4233E-02  0.1343E-01  0.9837E-02  0.1449E-01  0.0000E+00  0.0000E+00  0.0000E+00  0.0000E+00  0.0000E+00
     13.702  0.7347E-01  0.7048E-01  0.1001E+00  0.9137E-01  0.0000E+00  0.0000E+00  0.0000E+00  0.0000E+00  0.0000E+00
     13.797  0.1105E+00  0.9032E-01  0.1027E+00  0.8270E-01  0.0000E+00  0.0000E+00  0.0000E+00  0.0000E+00  0.0000E+00
     13.893  0.2860E-02  0.2600E-01  0.3668E-02  0.2566E-01  0.0000E+00  0.0000E+00  0.0000E+00  0.0000E+00  0.0000E+00
     13.988  0.4418E-02  0.1673E-02  0.2278E-02  0.1404E-02  0.0000E+00  0.0000E+00  0.0000E+00  0.0000E+00  0.0000E+00
     14.084  0.3876E-01  0.1683E-01  0.3925E-01  0.8960E-02  0.0000E+00  0.0000E+00  0.0000E+00  0.0000E+00  0.0000E+00
     14.179  0.4324E-01  0.8238E-01  0.1142E+00  0.4661E-01  0.0000E+00  0.0000E+00  0.0000E+00  0.0000E+00  0.0000E+00
     14.274  0.5480E-01  0.6432E-01  0.1372E+00  0.3587E-01  0.0000E+00  0.0000E+00  0.0000E+00  0.0000E+00  0.0000E+00
     14.370  0.6143E-01  0.8535E-01  0.1139E+00  0.1178E+00  0.0000E+00  0.0000E+00  0.0000E+00  0.0000E+00  0.0000E+00
     14.465  0.1810E-02  0.4868E-01  0.3703E-02  0.5220E-01  0.0000E+00  0.0000E+00  0.0000E+00  0.0000E+00  0.0000E+00
     14.561  0.1666E-01  0.2723E-01  0.1159E-01  0.2720E-01  0.0000E+00  0.0000E+00  0.0000E+00  0.0000E+00  0.0000E+00
     14.656  0.1810E-01  0.8134E-01  0.1743E-01  0.8170E-01  0.0000E+00  0.0000E+00  0.0000E+00  0.0000E+00  0.0000E+00
     14.751  0.3808E-01  0.8856E-01  0.7727E-01  0.1116E+00  0.0000E+00  0.0000E+00  0.0000E+00  0.0000E+00  0.0000E+00
     14.847  0.9582E-02  0.2352E-01  0.2905E-01  0.3609E-01  0.0000E+00  0.0000E+00  0.0000E+00  0.0000E+00  0.0000E+00
     14.942  0.2662E-04  0.3345E-02  0.3785E-02  0.2604E-02  0.0000E+00  0.0000E+00  0.0000E+00  0.0000E+00  0.0000E+00
     15.038  0.1037E-07  0.1357E-02  0.1532E-02  0.1035E-02  0.0000E+00  0.0000E+00  0.0000E+00  0.0000E+00  0.0000E+00
     15.133  0.8303E-04  0.8999E-04  0.2133E-03  0.8935E-04  0.0000E+00  0.0000E+00  0.0000E+00  0.0000E+00  0.0000E+00
     15.228  0.6100E-02  0.6411E-02  0.1544E-01  0.6415E-02  0.0000E+00  0.0000E+00  0.0000E+00  0.0000E+00  0.0000E+00
     15.324  0.1264E-01  0.8353E-02  0.2445E-01  0.1298E-01  0.0000E+00  0.0000E+00  0.0000E+00  0.0000E+00  0.0000E+00
     15.419  0.3693E-01  0.1824E-01  0.6199E-01  0.3753E-01  0.0000E+00  0.0000E+00  0.0000E+00  0.0000E+00  0.0000E+00
     15.515  0.1727E-02  0.1063E-02  0.3128E-02  0.1945E-02  0.0000E+00  0.0000E+00  0.0000E+00  0.0000E+00  0.0000E+00
     15.610  0.2769E-02  0.1189E-01  0.1614E-01  0.1231E-01  0.0000E+00  0.0000E+00  0.0000E+00  0.0000E+00  0.0000E+00
     15.705  0.1291E-02  0.5543E-02  0.7520E-02  0.5738E-02  0.0000E+00  0.0000E+00  0.0000E+00  0.0000E+00  0.0000E+00
     15.801  0.3008E-05  0.1292E-04  0.1753E-04  0.1337E-04  0.0000E+00  0.0000E+00  0.0000E+00  0.0000E+00  0.0000E+00
     15.896  0.8422E-11  0.3618E-10  0.4908E-10  0.3745E-10  0.0000E+00  0.0000E+00  0.0000E+00  0.0000E+00  0.0000E+00
     15.991  0.0000E+00  0.0000E+00  0.0000E+00  0.0000E+00  0.0000E+00  0.0000E+00  0.0000E+00  0.0000E+00  0.0000E+00
     16.087  0.0000E+00  0.0000E+00  0.0000E+00  0.0000E+00  0.0000E+00  0.0000E+00  0.0000E+00  0.0000E+00  0.0000E+00
     16.182  0.2422E-13  0.2329E-11  0.2509E-13  0.2733E-11  0.0000E+00  0.0000E+00  0.0000E+00  0.0000E+00  0.0000E+00
     16.278  0.2150E-07  0.2067E-05  0.2227E-07  0.2426E-05  0.0000E+00  0.0000E+00  0.0000E+00  0.0000E+00  0.0000E+00
     16.373  0.2111E-04  0.2030E-02  0.2187E-04  0.2382E-02  0.0000E+00  0.0000E+00  0.0000E+00  0.0000E+00  0.0000E+00
     16.468  0.1088E-03  0.7842E-02  0.3117E-03  0.9180E-02  0.0000E+00  0.0000E+00  0.0000E+00  0.0000E+00  0.0000E+00
     16.564  0.1124E-01  0.2652E-01  0.4267E-01  0.2551E-01  0.0000E+00  0.0000E+00  0.0000E+00  0.0000E+00  0.0000E+00
     16.659  0.3263E-01  0.3905E-01  0.5686E-01  0.3519E-01  0.0000E+00  0.0000E+00  0.0000E+00  0.0000E+00  0.0000E+00
     16.755  0.1170E-02  0.6624E-03  0.8223E-03  0.5097E-03  0.0000E+00  0.0000E+00  0.0000E+00  0.0000E+00  0.0000E+00
     16.850  0.4223E-06  0.3853E-07  0.4224E-06  0.3713E-07  0.0000E+00  0.0000E+00  0.0000E+00  0.0000E+00  0.0000E+00
     16.945  0.2074E-05  0.1695E-03  0.1593E-03  0.5264E-03  0.0000E+00  0.0000E+00  0.0000E+00  0.0000E+00  0.0000E+00
     17.041  0.7426E-04  0.1453E-01  0.1114E-01  0.3444E-01  0.0000E+00  0.0000E+00  0.0000E+00  0.0000E+00  0.0000E+00
     17.136  0.1358E-02  0.1431E-01  0.1252E-01  0.2318E-01  0.0000E+00  0.0000E+00  0.0000E+00  0.0000E+00  0.0000E+00
     17.232  0.1230E-01  0.3401E-01  0.5187E-01  0.3044E-01  0.0000E+00  0.0000E+00  0.0000E+00  0.0000E+00  0.0000E+00
     17.327  0.1333E-02  0.3682E-02  0.5619E-02  0.3292E-02  0.0000E+00  0.0000E+00  0.0000E+00  0.0000E+00  0.0000E+00
     17.422  0.3929E-06  0.5322E-03  0.1656E-05  0.9898E-04  0.0000E+00  0.0000E+00  0.0000E+00  0.0000E+00  0.0000E+00
     17.518  0.2348E-10  0.7048E-03  0.5904E-10  0.1301E-03  0.0000E+00  0.0000E+00  0.0000E+00  0.0000E+00  0.0000E+00
     17.613  0.2441E-12  0.7362E-05  0.6116E-12  0.1359E-05  0.0000E+00  0.0000E+00  0.0000E+00  0.0000E+00  0.0000E+00
     17.709  0.3783E-17  0.1141E-09  0.9479E-17  0.2106E-10  0.0000E+00  0.0000E+00  0.0000E+00  0.0000E+00  0.0000E+00
     17.804  0.5044E-25  0.1521E-17  0.1264E-24  0.2808E-18  0.0000E+00  0.0000E+00  0.0000E+00  0.0000E+00  0.0000E+00
     17.899  0.0000E+00  0.0000E+00  0.0000E+00  0.0000E+00  0.0000E+00  0.0000E+00  0.0000E+00  0.0000E+00  0.0000E+00
     17.995  0.0000E+00  0.0000E+00  0.0000E+00  0.0000E+00  0.0000E+00  0.0000E+00  0.0000E+00  0.0000E+00  0.0000E+00
     18.090  0.0000E+00  0.0000E+00  0.0000E+00  0.0000E+00  0.0000E+00  0.0000E+00  0.0000E+00  0.0000E+00  0.0000E+00
     18.186  0.0000E+00  0.0000E+00  0.0000E+00  0.0000E+00  0.0000E+00  0.0000E+00  0.0000E+00  0.0000E+00  0.0000E+00
     18.281  0.0000E+00  0.0000E+00  0.0000E+00  0.0000E+00  0.0000E+00  0.0000E+00  0.0000E+00  0.0000E+00  0.0000E+00
     18.376  0.0000E+00  0.0000E+00  0.0000E+00  0.0000E+00  0.0000E+00  0.0000E+00  0.0000E+00  0.0000E+00  0.0000E+00
     18.472  0.0000E+00  0.0000E+00  0.0000E+00  0.0000E+00  0.0000E+00  0.0000E+00  0.0000E+00  0.0000E+00  0.0000E+00
     18.567  0.0000E+00  0.0000E+00  0.0000E+00  0.0000E+00  0.0000E+00  0.0000E+00  0.0000E+00  0.0000E+00  0.0000E+00
     18.663  0.0000E+00  0.0000E+00  0.0000E+00  0.0000E+00  0.0000E+00  0.0000E+00  0.0000E+00  0.0000E+00  0.0000E+00
     18.758  0.0000E+00  0.0000E+00  0.0000E+00  0.0000E+00  0.0000E+00  0.0000E+00  0.0000E+00  0.0000E+00  0.0000E+00
     18.853  0.0000E+00  0.0000E+00  0.0000E+00  0.0000E+00  0.0000E+00  0.0000E+00  0.0000E+00  0.0000E+00  0.0000E+00
     18.949  0.0000E+00  0.0000E+00  0.0000E+00  0.0000E+00  0.0000E+00  0.0000E+00  0.0000E+00  0.0000E+00  0.0000E+00
     19.044  0.0000E+00  0.0000E+00  0.0000E+00  0.0000E+00  0.0000E+00  0.0000E+00  0.0000E+00  0.0000E+00  0.0000E+00
     19.139  0.0000E+00  0.0000E+00  0.0000E+00  0.0000E+00  0.0000E+00  0.0000E+00  0.0000E+00  0.0000E+00  0.0000E+00
     19.235  0.0000E+00  0.0000E+00  0.0000E+00  0.0000E+00  0.0000E+00  0.0000E+00  0.0000E+00  0.0000E+00  0.0000E+00
     19.330  0.0000E+00  0.0000E+00  0.0000E+00  0.0000E+00  0.0000E+00  0.0000E+00  0.0000E+00  0.0000E+00  0.0000E+00
     19.426  0.0000E+00  0.0000E+00  0.0000E+00  0.0000E+00  0.0000E+00  0.0000E+00  0.0000E+00  0.0000E+00  0.0000E+00
