    2    2    1    1
  0.2044968E+02  0.3867323E-09  0.3867323E-09  0.3867323E-09  0.5000000E-15
   1.0000000000000000E-004
  CAR 
 unknown system                          
      8    139      9

  0.0000000E+00  0.0000000E+00  0.0000000E+00  0.1953125E-02
    1       -7.891755   1.000000
    2        5.253260   1.000000
    3        5.253266   1.000000
    4        5.253267   1.000000
    5        8.581375   0.000000
    6        8.581378   0.000000
    7        8.581384   0.000000
    8        9.323287   0.000000
    9       13.972016   0.000000

  0.1250000E+00  0.0000000E+00  0.0000000E+00  0.1562500E-01
    1       -7.669460   1.000000
    2        3.565234   1.000000
    3        4.959073   1.000000
    4        4.959078   1.000000
    5        8.471220   0.000000
    6        9.020919   0.000000
    7        9.020925   0.000000
    8       10.735708   0.000000
    9       13.514909   0.000000

  0.2500000E+00  0.0000000E+00  0.0000000E+00  0.1562500E-01
    1       -7.020514   1.000000
    2        0.999959   1.000000
    3        4.452661   1.000000
    4        4.452665   1.000000
    5        7.951520   0.000000
    6        9.578108   0.000000
    7        9.578114   0.000000
    8       13.077870   0.000000
    9       13.460673   0.000000

  0.3750000E+00  0.0000000E+00  0.0000000E+00  0.1562500E-01
    1       -6.046981   1.000000
    2       -1.238508   1.000000
    3        4.087816   1.000000
    4        4.087820   1.000000
    5        7.560653   0.000000
    6        9.529352   0.000000
    7        9.529357   0.000000
    8       14.036805   0.000000
    9       14.922418   0.000000

  0.5000000E+00  0.0000000E+00  0.0000000E+00  0.7812500E-02
    1       -5.355776   1.000000
    2       -2.363400   1.000000
    3        3.961056   1.000000
    4        3.961059   1.000000
    5        7.423811   0.000000
    6        9.414411   0.000000
    7        9.414416   0.000000
    8       13.858467   0.000000
    9       17.012981   0.000000

  0.1250000E+00  0.1250000E+00  0.0000000E+00  0.1171875E-01
    1       -7.594481   1.000000
    2        3.828853   1.000000
    3        4.424297   1.000000
    4        4.424300   1.000000
    5        7.976634   0.000000
    6        9.760393   0.000000
    7        9.760396   0.000000
    8       10.417001   0.000000
    9       12.704959   0.000000

  0.2500000E+00  0.1250000E+00  0.0000000E+00  0.4687500E-01
    1       -7.083606   1.000000
    2        1.762901   1.000000
    3        3.866699   1.000000
    4        3.963554   1.000000
    5        8.088540   0.000000
    6        9.759142   0.000000
    7       10.581182   0.000000
    8       10.849770   0.000000
    9       13.717863   0.000000

  0.3750000E+00  0.1250000E+00  0.0000000E+00  0.4687500E-01
    1       -6.194957   1.000000
    2       -0.513758   1.000000
    3        3.325130   1.000000
    4        3.563588   1.000000
    5        8.185616   0.000000
    6        9.691731   0.000000
    7       10.588878   0.000000
    8       11.612589   0.000000
    9       15.592788   0.000000

  0.5000000E+00  0.1250000E+00  0.0000000E+00  0.4687500E-01
    1       -5.258670   1.000000
    2       -2.126045   1.000000
    3        2.837006   1.000000
    4        3.579975   1.000000
    5        8.134172   0.000000
    6        9.543622   0.000000
    7       10.212878   0.000000
    8       13.622078   0.000000
    9       15.217581   0.000000

 -0.3750000E+00  0.1250000E+00  0.0000000E+00  0.4687500E-01
    1       -5.523673   1.000000
    2       -1.719208   1.000000
    3        2.642150   1.000000
    4        3.896458   1.000000
    5        8.309949   0.000000
    6        9.652701   0.000000
    7        9.977679   0.000000
    8       14.159084   0.000000
    9       14.410092   0.000000

 -0.2500000E+00  0.1250000E+00  0.0000000E+00  0.4687500E-01
    1       -6.529039   1.000000
    2        0.214431   1.000000
    3        2.818096   1.000000
    4        4.426454   1.000000
    5        8.692613   0.000000
    6        9.784174   0.000000
    7        9.888578   0.000000
    8       12.465731   0.000000
    9       12.691149   0.000000

 -0.1250000E+00  0.1250000E+00  0.0000000E+00  0.2343750E-01
    1       -7.303087   1.000000
    2        2.355780   1.000000
    3        3.571242   1.000000
    4        4.939661   1.000000
    5        9.066282   0.000000
    6        9.191064   0.000000
    7        9.324251   0.000000
    8       11.664790   0.000000
    9       12.556194   0.000000

  0.2500000E+00  0.2500000E+00  0.0000000E+00  0.1171875E-01
    1       -6.711868   1.000000
    2        1.412758   1.000000
    3        3.243621   1.000000
    4        3.243623   1.000000
    5        7.029269   0.000000
    6        9.159505   0.000000
    7       11.954967   0.000000
    8       11.954969   0.000000
    9       14.273043   0.000000

  0.3750000E+00  0.2500000E+00  0.0000000E+00  0.4687500E-01
    1       -5.936211   1.000000
    2       -0.164430   1.000000
    3        2.420844   1.000000
    4        2.888990   1.000000
    5        7.254763   0.000000
    6        8.901474   0.000000
    7       12.183765   0.000000
    8       12.503162   0.000000
    9       16.402577   0.000000

  0.5000000E+00  0.2500000E+00  0.0000000E+00  0.4687500E-01
    1       -4.925582   1.000000
    2       -1.750744   1.000000
    3        1.485969   1.000000
    4        2.886884   1.000000
    5        7.449725   0.000000
    6       10.527086   0.000000
    7       11.909808   0.000000
    8       12.138479   0.000000
    9       16.567255   0.000000

 -0.3750000E+00  0.2500000E+00  0.0000000E+00  0.4687500E-01
    1       -4.704540   1.000000
    2       -2.032107   1.000000
    3        0.985377   1.000000
    4        3.231506   1.000000
    5        7.795522   0.000000
    6       11.565363   0.000000
    7       11.688910   0.000000
    8       13.210325   0.000000
    9       14.301851   0.000000

 -0.2500000E+00  0.2500000E+00  0.0000000E+00  0.2343750E-01
    1       -5.662414   1.000000
    2       -0.755700   1.000000
    3        1.258154   1.000000
    4        3.835615   1.000000
    5        8.437763   0.000000
    6       10.978323   0.000000
    7       11.199069   0.000000
    8       12.324827   0.000000
    9       12.648787   0.000000

  0.3750000E+00  0.3750000E+00  0.0000000E+00  0.1171875E-01
    1       -5.275864   1.000000
    2       -1.063826   1.000000
    3        2.449085   1.000000
    4        2.449087   1.000000
    5        6.486991   0.000000
    6        7.481998   0.000000
    7       14.380139   0.000000
    8       14.380141   0.000000
    9       16.872496   0.000000

  0.5000000E+00  0.3750000E+00  0.0000000E+00  0.4687500E-01
    1       -4.292433   1.000000
    2       -2.265438   1.000000
    3        1.585867   1.000000
    4        2.362841   1.000000
    5        6.788719   0.000000
    6        7.906745   0.000000
    7       14.617408   0.000000
    8       14.676243   0.000000
    9       17.184028   0.000000

 -0.3750000E+00  0.3750000E+00  0.0000000E+00  0.2343750E-01
    1       -3.817380   1.000000
    2       -2.698050   1.000000
    3        0.658104   1.000000
    4        2.644456   1.000000
    5        7.118911   0.000000
    6       10.193615   0.000000
    7       13.805934   0.000000
    8       14.280643   0.000000
    9       14.547190   0.000000

  0.5000000E+00  0.5000000E+00  0.0000000E+00  0.5859375E-02
    1       -3.353193   1.000000
    2       -3.353163   1.000000
    3        2.175889   1.000000
    4        2.175891   1.000000
    5        6.597054   0.000000
    6        6.597060   0.000000
    7       16.570306   0.000000
    8       16.570310   0.000000
    9       17.428784   0.000000

  0.3750000E+00  0.2500000E+00  0.1250000E+00  0.4687500E-01
    1       -6.442097   1.000000
    2        0.564293   1.000000
    3        2.389157   1.000000
    4        3.746445   1.000000
    5        8.407793   0.000000
    6        9.976616   0.000000
    7       10.257599   0.000000
    8       11.672009   0.000000
    9       14.054935   0.000000

  0.5000000E+00  0.2500000E+00  0.1250000E+00  0.9375000E-01
    1       -5.472492   1.000000
    2       -1.146984   1.000000
    3        1.716426   1.000000
    4        3.209733   1.000000
    5        8.869433   0.000000
    6        9.585368   0.000000
    7       11.152669   0.000000
    8       12.129064   0.000000
    9       15.355163   0.000000

 -0.3750000E+00  0.2500000E+00  0.1250000E+00  0.4687500E-01
    1       -4.763513   1.000000
    2       -2.181990   1.000000
    3        1.569305   1.000000
    4        2.961669   1.000000
    5        9.069655   0.000000
    6        9.138853   0.000000
    7       12.106705   0.000000
    8       13.349341   0.000000
    9       13.681141   0.000000

  0.5000000E+00  0.3750000E+00  0.1250000E+00  0.4687500E-01
    1       -5.059554   1.000000
    2       -1.306616   1.000000
    3        1.671207   1.000000
    4        2.317294   1.000000
    5        7.875021   0.000000
    6        8.632153   0.000000
    7       11.933576   0.000000
    8       14.322425   0.000000
    9       16.593024   0.000000

 -0.3750000E+00  0.3750000E+00  0.1250000E+00  0.9375000E-01
    1       -4.103980   1.000000
    2       -2.373860   1.000000
    3        0.918685   1.000000
    4        2.104500   1.000000
    5        8.349182   0.000000
    6       10.345463   0.000000
    7       11.439536   0.000000
    8       13.717879   0.000000
    9       14.737731   0.000000

 -0.2500000E+00  0.3750000E+00  0.1250000E+00  0.4687500E-01
    1       -4.488507   1.000000
    2       -1.971201   1.000000
    3        0.738187   1.000000
    4        2.511833   1.000000
    5        8.856038   0.000000
    6       10.639468   0.000000
    7       11.356276   0.000000
    8       13.276211   0.000000
    9       14.193736   0.000000

 -0.3750000E+00  0.5000000E+00  0.1250000E+00  0.2343750E-01
    1       -3.269916   1.000000
    2       -3.269884   1.000000
    3        1.606689   1.000000
    4        1.606691   1.000000
    5        7.906738   0.000000
    6        7.906743   0.000000
    7       14.147429   0.000000
    8       14.147435   0.000000
    9       17.027637   0.000000

 -0.2500000E+00  0.5000000E+00  0.2500000E+00  0.1171875E-01
    1       -3.178594   1.000000
    2       -3.178560   1.000000
    3        1.149056   1.000000
    4        1.149060   1.000000
    5       10.315608   0.000000
    6       10.315618   0.000000
    7       11.167254   0.000000
    8       11.167269   0.000000
    9       17.037691   0.000000

  0.0000000E+00  0.0000000E+00  0.0000000E+00  0.0000000E+00
    1       -7.891755   1.000000
    2        5.253260   1.000000
    3        5.253266   1.000000
    4        5.253267   1.000000
    5        8.581375   0.000000
    6        8.581378   0.000000
    7        8.581384   0.000000
    8        9.323290   0.000000
    9       13.972114   0.000000

  0.2380952E-01  0.0000000E+00  0.2380952E-01  0.0000000E+00
    1       -7.880957   1.000000
    2        5.183618   1.000000
    3        5.211776   1.000000
    4        5.211780   1.000000
    5        8.554041   0.000000
    6        8.635674   0.000000
    7        8.635677   0.000000
    8        9.390207   0.000000
    9       14.019118   0.000000

  0.4761905E-01  0.0000000E+00  0.4761905E-01  0.0000000E+00
    1       -7.848542   1.000000
    2        4.987810   1.000000
    3        5.095247   1.000000
    4        5.095250   1.000000
    5        8.475183   0.000000
    6        8.790626   0.000000
    7        8.790630   0.000000
    8        9.575204   0.000000
    9       13.725593   0.000000

  0.7142857E-01  0.0000000E+00  0.7142857E-01  0.0000000E+00
    1       -7.794532   1.000000
    2        4.695493   1.000000
    3        4.922229   1.000000
    4        4.922232   1.000000
    5        8.353073   0.000000
    6        9.027522   0.000000
    7        9.027525   0.000000
    8        9.839145   0.000000
    9       13.386137   0.000000

  0.9523810E-01  0.0000000E+00  0.9523810E-01  0.0000000E+00
    1       -7.719005   1.000000
    2        4.336745   1.000000
    3        4.712784   1.000000
    4        4.712787   1.000000
    5        8.198577   0.000000
    6        9.325964   0.000000
    7        9.325967   0.000000
    8       10.129556   0.000000
    9       13.036427   0.000000

  0.1190476E+00  0.0000000E+00  0.1190476E+00  0.0000000E+00
    1       -7.622058   1.000000
    2        3.934344   1.000000
    3        4.483314   1.000000
    4        4.483317   1.000000
    5        8.022736   0.000000
    6        9.669142   0.000000
    7        9.669144   0.000000
    8       10.374436   0.000000
    9       12.753396   0.000000

  0.1428571E+00  0.0000000E+00  0.1428571E+00  0.0000000E+00
    1       -7.503765   1.000000
    2        3.503586   1.000000
    3        4.245656   1.000000
    4        4.245658   1.000000
    5        7.835358   0.000000
    6       10.044615   0.000000
    7       10.044617   0.000000
    8       10.473130   0.000000
    9       12.641582   0.000000

  0.1666667E+00  0.0000000E+00  0.1666667E+00  0.0000000E+00
    1       -7.364266   1.000000
    2        3.054356   1.000000
    3        4.008066   1.000000
    4        4.008067   1.000000
    5        7.644546   0.000000
    6       10.358977   0.000000
    7       10.444076   0.000000
    8       10.444078   0.000000
    9       12.771950   0.000000

  0.1904762E+00  0.0000000E+00  0.1904762E+00  0.0000000E+00
    1       -7.203764   1.000000
    2        2.593101   1.000000
    3        3.776039   1.000000
    4        3.776041   1.000000
    5        7.456571   0.000000
    6       10.081606   0.000000
    7       10.860978   0.000000
    8       10.861005   0.000000
    9       13.096275   0.000000

  0.2142857E+00  0.0000000E+00  0.2142857E+00  0.0000000E+00
    1       -7.022431   1.000000
    2        2.124151   1.000000
    3        3.553566   1.000000
    4        3.553568   1.000000
    5        7.276482   0.000000
    6        9.727268   0.000000
    7       11.291186   0.000000
    8       11.291227   0.000000
    9       13.529016   0.000000

  0.2380952E+00  0.0000000E+00  0.2380952E+00  0.0000000E+00
    1       -6.820484   1.000000
    2        1.650553   1.000000
    3        3.343435   1.000000
    4        3.343436   1.000000
    5        7.108112   0.000000
    6        9.348934   0.000000
    7       11.731716   0.000000
    8       11.731803   0.000000
    9       14.017354   0.000000

  0.2619048E+00  0.0000000E+00  0.2619048E+00  0.0000000E+00
    1       -6.598209   1.000000
    2        1.174640   1.000000
    3        3.147595   1.000000
    4        3.147597   1.000000
    5        6.954423   0.000000
    6        8.972640   0.000000
    7       12.179984   0.000000
    8       12.180014   0.000000
    9       14.533942   0.000000

  0.2857143E+00  0.0000000E+00  0.2857143E+00  0.0000000E+00
    1       -6.355936   1.000000
    2        0.698338   1.000000
    3        2.967558   1.000000
    4        2.967560   1.000000
    5        6.817827   0.000000
    6        8.611557   0.000000
    7       12.634580   0.000000
    8       12.634646   0.000000
    9       15.064575   0.000000

  0.3095238E+00  0.0000000E+00  0.3095238E+00  0.0000000E+00
    1       -6.093998   1.000000
    2        0.223307   1.000000
    3        2.804435   1.000000
    4        2.804436   1.000000
    5        6.700228   0.000000
    6        8.272701   0.000000
    7       13.094343   0.000000
    8       13.094473   0.000000
    9       15.599946   0.000000

  0.3333333E+00  0.0000000E+00  0.3333333E+00  0.0000000E+00
    1       -5.812807   1.000000
    2       -0.248881   1.000000
    3        2.659028   1.000000
    4        2.659029   1.000000
    5        6.603096   0.000000
    6        7.959842   0.000000
    7       13.558552   0.000000
    8       13.558777   0.000000
    9       16.133415   0.000000

  0.3571429E+00  0.0000000E+00  0.3571429E+00  0.0000000E+00
    1       -5.512839   1.000000
    2       -0.716703   1.000000
    3        2.532003   1.000000
    4        2.532005   1.000000
    5        6.528078   0.000000
    6        7.675747   0.000000
    7       14.026772   0.000000
    8       14.026828   0.000000
    9       16.659547   0.000000

  0.3809524E+00  0.0000000E+00  0.3809524E+00  0.0000000E+00
    1       -5.194632   1.000000
    2       -1.178705   1.000000
    3        2.423829   1.000000
    4        2.423830   1.000000
    5        6.476243   0.000000
    6        7.421095   0.000000
    7       14.498256   0.000000
    8       14.498338   0.000000
    9       17.136180   0.000000

  0.4047619E+00  0.0000000E+00  0.4047619E+00  0.0000000E+00
    1       -4.858745   1.000000
    2       -1.633445   1.000000
    3        2.334900   1.000000
    4        2.334901   1.000000
    5        6.448508   0.000000
    6        7.196602   0.000000
    7       14.971947   0.000000
    8       14.971991   0.000000
    9       17.333927   0.000000

  0.4285714E+00  0.0000000E+00  0.4285714E+00  0.0000000E+00
    1       -4.505859   1.000000
    2       -2.079567   1.000000
    3        2.265476   1.000000
    4        2.265477   1.000000
    5        6.445876   0.000000
    6        7.002293   0.000000
    7       15.445278   0.000000
    8       15.445317   0.000000
    9       17.730345   0.000000

  0.4523810E+00  0.0000000E+00  0.4523810E+00  0.0000000E+00
    1       -4.136747   1.000000
    2       -2.515716   1.000000
    3        2.215751   1.000000
    4        2.215752   1.000000
    5        6.469230   0.000000
    6        6.837916   0.000000
    7       15.910820   0.000000
    8       15.910833   0.000000
    9       18.124844   0.000000

  0.4761905E+00  0.0000000E+00  0.4761905E+00  0.0000000E+00
    1       -3.752214   1.000000
    2       -2.940636   1.000000
    3        2.185865   1.000000
    4        2.185866   1.000000
    5        6.519371   0.000000
    6        6.703019   0.000000
    7       16.338852   0.000000
    8       16.339440   0.000000
    9       17.667240   0.000000

  0.5000000E+00  0.0000000E+00  0.5000000E+00  0.0000000E+00
    1       -3.353193   1.000000
    2       -3.353164   1.000000
    3        2.175890   1.000000
    4        2.175891   1.000000
    5        6.597054   0.000000
    6        6.597058   0.000000
    7       16.570316   0.000000
    8       16.574668   0.000000
    9       17.428840   0.000000

  0.5000000E+00  0.0000000E+00  0.5000000E+00  0.0000000E+00
    1       -3.353193   1.000000
    2       -3.353164   1.000000
    3        2.175890   1.000000
    4        2.175891   1.000000
    5        6.597054   0.000000
    6        6.597058   0.000000
    7       16.570316   0.000000
    8       16.574668   0.000000
    9       17.428840   0.000000

  0.5000000E+00  0.2500000E-01  0.5250000E+00  0.0000000E+00
    1       -3.349273   1.000000
    2       -3.349244   1.000000
    3        2.143697   1.000000
    4        2.143698   1.000000
    5        6.658548   0.000000
    6        6.658552   0.000000
    7       16.457190   0.000000
    8       16.458079   0.000000
    9       17.293206   0.000000

  0.5000000E+00  0.5000000E-01  0.5500000E+00  0.0000000E+00
    1       -3.337834   1.000000
    2       -3.337805   1.000000
    3        2.053489   1.000000
    4        2.053490   1.000000
    5        6.836786   0.000000
    6        6.836790   0.000000
    7       16.074725   0.000000
    8       16.075249   0.000000
    9       17.127056   0.000000

  0.5000000E+00  0.7500000E-01  0.5750000E+00  0.0000000E+00
    1       -3.319736   1.000000
    2       -3.319706   1.000000
    3        1.921288   1.000000
    4        1.921289   1.000000
    5        7.116351   0.000000
    6        7.116354   0.000000
    7       15.492995   0.000000
    8       15.493280   0.000000
    9       17.057898   0.000000

  0.5000000E+00  0.1000000E+00  0.6000000E+00  0.0000000E+00
    1       -3.296431   1.000000
    2       -3.296401   1.000000
    3        1.766387   1.000000
    4        1.766389   1.000000
    5        7.478678   0.000000
    6        7.478681   0.000000
    7       14.832670   0.000000
    8       14.832729   0.000000
    9       17.034180   0.000000

  0.5000000E+00  0.1250000E+00  0.6250000E+00  0.0000000E+00
    1       -3.269917   1.000000
    2       -3.269887   1.000000
    3        1.606687   1.000000
    4        1.606690   1.000000
    5        7.906738   0.000000
    6        7.906741   0.000000
    7       14.147429   0.000000
    8       14.147446   0.000000
    9       17.027660   0.000000

  0.5000000E+00  0.1500000E+00  0.6500000E+00  0.0000000E+00
    1       -3.242629   1.000000
    2       -3.242598   1.000000
    3        1.456998   1.000000
    4        1.457001   1.000000
    5        8.386383   0.000000
    6        8.386385   0.000000
    7       13.459069   0.000000
    8       13.459077   0.000000
    9       17.027960   0.000000

  0.5000000E+00  0.1750000E+00  0.6750000E+00  0.0000000E+00
    1       -3.217319   1.000000
    2       -3.217288   1.000000
    3        1.328874   1.000000
    4        1.328878   1.000000
    5        8.905472   0.000000
    6        8.905475   0.000000
    7       12.779934   0.000000
    8       12.779943   0.000000
    9       17.031066   0.000000

  0.5000000E+00  0.2000000E+00  0.7000000E+00  0.0000000E+00
    1       -3.196729   1.000000
    2       -3.196697   1.000000
    3        1.231093   1.000000
    4        1.231098   1.000000
    5        9.450166   0.000000
    6        9.450168   0.000000
    7       12.122303   0.000000
    8       12.122312   0.000000
    9       17.034376   0.000000

  0.5000000E+00  0.2250000E+00  0.7250000E+00  0.0000000E+00
    1       -3.183266   1.000000
    2       -3.183234   1.000000
    3        1.169888   1.000000
    4        1.169893   1.000000
    5        9.987996   0.000000
    6        9.988001   0.000000
    7       11.517258   0.000000
    8       11.517269   0.000000
    9       17.036809   0.000000

  0.5000000E+00  0.2500000E+00  0.7500000E+00  0.0000000E+00
    1       -3.178596   1.000000
    2       -3.178563   1.000000
    3        1.149053   1.000000
    4        1.149059   1.000000
    5       10.315608   0.000000
    6       10.315618   0.000000
    7       11.167253   0.000000
    8       11.167269   0.000000
    9       17.037700   0.000000

  0.5000000E+00  0.2500000E+00  0.7500000E+00  0.0000000E+00
    1       -3.178596   1.000000
    2       -3.178563   1.000000
    3        1.149053   1.000000
    4        1.149059   1.000000
    5       10.315608   0.000000
    6       10.315618   0.000000
    7       11.167253   0.000000
    8       11.167269   0.000000
    9       17.037700   0.000000

  0.5000000E+00  0.2666667E+00  0.7333333E+00  0.0000000E+00
    1       -3.419688   1.000000
    2       -2.942931   1.000000
    3        0.992141   1.000000
    4        1.343244   1.000000
    5       10.111064   0.000000
    6       10.401370   0.000000
    7       11.080751   0.000000
    8       11.414688   0.000000
    9       16.551371   0.000000

  0.5000000E+00  0.2833333E+00  0.7166667E+00  0.0000000E+00
    1       -3.658939   1.000000
    2       -2.722497   1.000000
    3        0.883614   1.000000
    4        1.565320   1.000000
    5        9.891988   0.000000
    6       10.275271   0.000000
    7       11.247169   0.000000
    8       11.719128   0.000000
    9       15.945648   0.000000

  0.5000000E+00  0.3000000E+00  0.7000000E+00  0.0000000E+00
    1       -3.890949   1.000000
    2       -2.528875   1.000000
    3        0.836083   1.000000
    4        1.807374   1.000000
    5        9.688090   0.000000
    6       10.059080   0.000000
    7       11.543828   0.000000
    8       12.051378   0.000000
    9       15.271973   0.000000

  0.5000000E+00  0.3166667E+00  0.6833333E+00  0.0000000E+00
    1       -4.111862   1.000000
    2       -2.373680   1.000000
    3        0.861631   1.000000
    4        2.062367   1.000000
    5        9.509320   0.000000
    6        9.828218   0.000000
    7       11.894189   0.000000
    8       12.401689   0.000000
    9       14.565381   0.000000

  0.5000000E+00  0.3333333E+00  0.6666667E+00  0.0000000E+00
    1       -4.318868   1.000000
    2       -2.264764   1.000000
    3        0.968117   1.000000
    4        2.323689   1.000000
    5        9.360488   0.000000
    6        9.601436   0.000000
    7       12.277667   0.000000
    8       12.764496   0.000000
    9       13.849086   0.000000

  0.5000000E+00  0.3500000E+00  0.6500000E+00  0.0000000E+00
    1       -4.509946   1.000000
    2       -2.202813   1.000000
    3        1.155578   1.000000
    4        2.584813   1.000000
    5        9.244952   0.000000
    6        9.383127   0.000000
    7       12.685866   0.000000
    8       13.134013   0.000000
    9       13.140189   0.000000

  0.5000000E+00  0.3666667E+00  0.6333333E+00  0.0000000E+00
    1       -4.683594   1.000000
    2       -2.181109   1.000000
    3        1.415892   1.000000
    4        2.839126   1.000000
    5        9.164944   0.000000
    6        9.172827   0.000000
    7       12.441814   0.000000
    8       13.130334   0.000000
    9       13.503018   0.000000

  0.5000000E+00  0.3833333E+00  0.6166667E+00  0.0000000E+00
    1       -4.838689   1.000000
    2       -2.188757   1.000000
    3        1.735703   1.000000
    4        3.080023   1.000000
    5        8.966795   0.000000
    6        9.122065   0.000000
    7       11.780325   0.000000
    8       13.580389   0.000000
    9       13.853552   0.000000

  0.5000000E+00  0.4000000E+00  0.6000000E+00  0.0000000E+00
    1       -4.974393   1.000000
    2       -2.214500   1.000000
    3        2.099676   1.000000
    4        3.301053   1.000000
    5        8.757710   0.000000
    6        9.115989   0.000000
    7       11.163955   0.000000
    8       14.055573   0.000000
    9       14.156921   0.000000

  0.5000000E+00  0.4166667E+00  0.5833333E+00  0.0000000E+00
    1       -5.090105   1.000000
    2       -2.248869   1.000000
    3        2.491723   1.000000
    4        3.496305   1.000000
    5        8.534082   0.000000
    6        9.143785   0.000000
    7       10.613993   0.000000
    8       14.350665   0.000000
    9       14.551203   0.000000

  0.5000000E+00  0.4333333E+00  0.5666667E+00  0.0000000E+00
    1       -5.185330   1.000000
    2       -2.284696   1.000000
    3        2.893894   1.000000
    4        3.660933   1.000000
    5        8.283369   0.000000
    6        9.199004   0.000000
    7       10.156172   0.000000
    8       14.364322   0.000000
    9       15.069952   0.000000

  0.5000000E+00  0.4500000E+00  0.5500000E+00  0.0000000E+00
    1       -5.259724   1.000000
    2       -2.316907   1.000000
    3        3.282915   1.000000
    4        3.791368   1.000000
    5        8.004220   0.000000
    6        9.270155   0.000000
    7        9.811133   0.000000
    8       14.225760   0.000000
    9       15.602647   0.000000

  0.5000000E+00  0.4666667E+00  0.5333333E+00  0.0000000E+00
    1       -5.313029   1.000000
    2       -2.342060   1.000000
    3        3.624813   1.000000
    4        3.885459   1.000000
    5        7.725032   0.000000
    6        9.341465   0.000000
    7        9.581956   0.000000
    8       14.045688   0.000000
    9       16.241745   0.000000

  0.5000000E+00  0.4833333E+00  0.5166667E+00  0.0000000E+00
    1       -5.345078   1.000000
    2       -2.357963   1.000000
    3        3.869919   1.000000
    4        3.942150   1.000000
    5        7.507639   0.000000
    6        9.394594   0.000000
    7        9.454859   0.000000
    8       13.908676   0.000000
    9       16.831925   0.000000

  0.5000000E+00  0.5000000E+00  0.5000000E+00  0.0000000E+00
    1       -5.355779   1.000000
    2       -2.363400   1.000000
    3        3.961054   1.000000
    4        3.961058   1.000000
    5        7.423810   0.000000
    6        9.414411   0.000000
    7        9.414412   0.000000
    8       13.858467   0.000000
    9       17.013655   0.000000

  0.5000000E+00  0.5000000E+00  0.5000000E+00  0.0000000E+00
    1       -5.355779   1.000000
    2       -2.363400   1.000000
    3        3.961054   1.000000
    4        3.961058   1.000000
    5        7.423810   0.000000
    6        9.414411   0.000000
    7        9.414412   0.000000
    8       13.858467   0.000000
    9       17.013655   0.000000

  0.4722222E+00  0.4722222E+00  0.4722222E+00  0.0000000E+00
    1       -5.402711   1.000000
    2       -2.294941   1.000000
    3        3.967359   1.000000
    4        3.967363   1.000000
    5        7.430621   0.000000
    6        9.421079   0.000000
    7        9.421081   0.000000
    8       13.869247   0.000000
    9       16.685498   0.000000

  0.4444444E+00  0.4444444E+00  0.4444444E+00  0.0000000E+00
    1       -5.531731   1.000000
    2       -2.101383   1.000000
    3        3.986235   1.000000
    4        3.986239   1.000000
    5        7.451045   0.000000
    6        9.440539   0.000000
    7        9.440541   0.000000
    8       13.900683   0.000000
    9       16.166402   0.000000

  0.4166667E+00  0.4166667E+00  0.4166667E+00  0.0000000E+00
    1       -5.716966   1.000000
    2       -1.808818   1.000000
    3        4.017608   1.000000
    4        4.017611   1.000000
    5        7.484945   0.000000
    6        9.470846   0.000000
    7        9.470848   0.000000
    8       13.949682   0.000000
    9       15.647268   0.000000

  0.3888889E+00  0.3888889E+00  0.3888889E+00  0.0000000E+00
    1       -5.933229   1.000000
    2       -1.442841   1.000000
    3        4.061362   1.000000
    4        4.061365   1.000000
    5        7.532133   0.000000
    6        9.508965   0.000000
    7        9.508967   0.000000
    8       14.009025   0.000000
    9       15.154935   0.000000

  0.3611111E+00  0.3611111E+00  0.3611111E+00  0.0000000E+00
    1       -6.162140   1.000000
    2       -1.022396   1.000000
    3        4.117272   1.000000
    4        4.117276   1.000000
    5        7.592384   0.000000
    6        9.549663   0.000000
    7        9.549665   0.000000
    8       14.061143   0.000000
    9       14.700627   0.000000

  0.3333333E+00  0.3333333E+00  0.3333333E+00  0.0000000E+00
    1       -6.391673   1.000000
    2       -0.560260   1.000000
    3        4.184999   1.000000
    4        4.185003   1.000000
    5        7.665243   0.000000
    6        9.586249   0.000000
    7        9.586251   0.000000
    8       14.061232   0.000000
    9       14.293726   0.000000

  0.3055556E+00  0.3055556E+00  0.3055556E+00  0.0000000E+00
    1       -6.614214   1.000000
    2       -0.065136   1.000000
    3        4.264023   1.000000
    4        4.264027   1.000000
    5        7.750072   0.000000
    6        9.609892   0.000000
    7        9.609894   0.000000
    8       13.903310   0.000000
    9       13.944317   0.000000

  0.2777778E+00  0.2777778E+00  0.2777778E+00  0.0000000E+00
    1       -6.824905   1.000000
    2        0.456628   1.000000
    3        4.353592   1.000000
    4        4.353596   1.000000
    5        7.845928   0.000000
    6        9.610400   0.000000
    7        9.610403   0.000000
    8       13.549531   0.000000
    9       13.663229   0.000000

  0.2500000E+00  0.2500000E+00  0.2500000E+00  0.0000000E+00
    1       -7.020515   1.000000
    2        0.999959   1.000000
    3        4.452660   1.000000
    4        4.452665   1.000000
    5        7.951519   0.000000
    6        9.578108   0.000000
    7        9.578111   0.000000
    8       13.080700   0.000000
    9       13.460675   0.000000

  0.2222222E+00  0.2222222E+00  0.2222222E+00  0.0000000E+00
    1       -7.198870   1.000000
    2        1.560072   1.000000
    3        4.559710   1.000000
    4        4.559715   1.000000
    5        8.064883   0.000000
    6        9.507000   0.000000
    7        9.507003   0.000000
    8       12.575872   0.000000
    9       13.342696   0.000000

  0.1944444E+00  0.1944444E+00  0.1944444E+00  0.0000000E+00
    1       -7.358498   1.000000
    2        2.131837   1.000000
    3        4.672608   1.000000
    4        4.672613   1.000000
    5        8.183288   0.000000
    6        9.397629   0.000000
    7        9.397633   0.000000
    8       12.053130   0.000000
    9       13.308313   0.000000

  0.1666667E+00  0.1666667E+00  0.1666667E+00  0.0000000E+00
    1       -7.498367   1.000000
    2        2.708997   1.000000
    3        4.788492   1.000000
    4        4.788497   1.000000
    5        8.302836   0.000000
    6        9.257792   0.000000
    7        9.257796   0.000000
    8       11.522941   0.000000
    9       13.348382   0.000000

  0.1388889E+00  0.1388889E+00  0.1388889E+00  0.0000000E+00
    1       -7.617685   1.000000
    2        3.283086   1.000000
    3        4.903469   1.000000
    4        4.903475   1.000000
    5        8.417934   0.000000
    6        9.100926   0.000000
    7        9.100930   0.000000
    8       10.994860   0.000000
    9       13.448570   0.000000

  0.1111111E+00  0.1111111E+00  0.1111111E+00  0.0000000E+00
    1       -7.715906   1.000000
    2        3.841359   1.000000
    3        5.012439   1.000000
    4        5.012444   1.000000
    5        8.520010   0.000000
    6        8.942532   0.000000
    7        8.942536   0.000000
    8       10.483221   0.000000
    9       13.588748   0.000000

  0.8333333E-01  0.8333333E-01  0.8333333E-01  0.0000000E+00
    1       -7.792661   1.000000
    2        4.363013   1.000000
    3        5.109031   1.000000
    4        5.109037   1.000000
    5        8.596250   0.000000
    6        8.798246   0.000000
    7        8.798251   0.000000
    8       10.013543   0.000000
    9       13.746405   0.000000

  0.5555556E-01  0.5555556E-01  0.5555556E-01  0.0000000E+00
    1       -7.847667   1.000000
    2        4.812936   1.000000
    3        5.185959   1.000000
    4        5.185965   1.000000
    5        8.627930   0.000000
    6        8.682493   0.000000
    7        8.682498   0.000000
    8        9.631623   0.000000
    9       13.896091   0.000000

  0.2777778E-01  0.2777778E-01  0.2777778E-01  0.0000000E+00
    1       -7.880736   1.000000
    2        5.133724   1.000000
    3        5.235885   1.000000
    4        5.235892   1.000000
    5        8.606194   0.000000
    6        8.607410   0.000000
    7        8.607415   0.000000
    8        9.396114   0.000000
    9       14.019890   0.000000

  0.0000000E+00  0.0000000E+00  0.0000000E+00  0.0000000E+00
    1       -7.891755   1.000000
    2        5.253260   1.000000
    3        5.253266   1.000000
    4        5.253267   1.000000
    5        8.581375   0.000000
    6        8.581378   0.000000
    7        8.581384   0.000000
    8        9.323290   0.000000
    9       13.972114   0.000000

  0.0000000E+00  0.0000000E+00  0.0000000E+00  0.0000000E+00
    1       -7.891755   1.000000
    2        5.253260   1.000000
    3        5.253266   1.000000
    4        5.253267   1.000000
    5        8.581375   0.000000
    6        8.581378   0.000000
    7        8.581384   0.000000
    8        9.323290   0.000000
    9       13.972114   0.000000

  0.1630435E-01  0.1630435E-01  0.3260870E-01  0.0000000E+00
    1       -7.881632   1.000000
    2        5.154595   1.000000
    3        5.213980   1.000000
    4        5.248836   1.000000
    5        8.591811   0.000000
    6        8.596558   0.000000
    7        8.628102   0.000000
    8        9.389126   0.000000
    9       14.016237   0.000000

  0.3260870E-01  0.3260870E-01  0.6521739E-01  0.0000000E+00
    1       -7.851249   1.000000
    2        4.888418   1.000000
    3        5.099682   1.000000
    4        5.235357   1.000000
    5        8.623103   0.000000
    6        8.641011   0.000000
    7        8.724897   0.000000
    8        9.598316   0.000000
    9       13.821585   0.000000

  0.4891304E-01  0.4891304E-01  0.9782609E-01  0.0000000E+00
    1       -7.800668   1.000000
    2        4.513627   1.000000
    3        4.919733   1.000000
    4        5.212164   1.000000
    5        8.675214   0.000000
    6        8.712017   0.000000
    7        8.813562   0.000000
    8        9.943786   0.000000
    9       13.597004   0.000000

  0.6521739E-01  0.6521739E-01  0.1304348E+00  0.0000000E+00
    1       -7.730028   1.000000
    2        4.079153   1.000000
    3        4.686532   1.000000
    4        5.178166   1.000000
    5        8.748078   0.000000
    6        8.806539   0.000000
    7        8.884083   0.000000
    8       10.373355   0.000000
    9       13.347267   0.000000

  0.8152174E-01  0.8152174E-01  0.1630435E+00  0.0000000E+00
    1       -7.639527   1.000000
    2        3.615876   1.000000
    3        4.412992   1.000000
    4        5.132052   1.000000
    5        8.841605   0.000000
    6        8.922159   0.000000
    7        8.944112   0.000000
    8       10.823915   0.000000
    9       13.098914   0.000000

  0.9782609E-01  0.9782609E-01  0.1956522E+00  0.0000000E+00
    1       -7.529387   1.000000
    2        3.141935   1.000000
    3        4.111013   1.000000
    4        5.072414   1.000000
    5        8.955655   0.000000
    6        8.997390   0.000000
    7        9.057319   0.000000
    8       11.232202   0.000000
    9       12.868924   0.000000

  0.1141304E+00  0.1141304E+00  0.2282609E+00  0.0000000E+00
    1       -7.399928   1.000000
    2        2.668147   1.000000
    3        3.790707   1.000000
    4        4.997974   1.000000
    5        9.042719   0.000000
    6        9.090147   0.000000
    7        9.211314   0.000000
    8       11.536529   0.000000
    9       12.668992   0.000000

  0.1304348E+00  0.1304348E+00  0.2608696E+00  0.0000000E+00
    1       -7.251566   1.000000
    2        2.201189   1.000000
    3        3.460545   1.000000
    4        4.907826   1.000000
    5        9.075338   0.000000
    6        9.244887   0.000000
    7        9.383783   0.000000
    8       11.707955   0.000000
    9       12.506595   0.000000

  0.1467391E+00  0.1467391E+00  0.2934783E+00  0.0000000E+00
    1       -7.084817   1.000000
    2        1.745350   1.000000
    3        3.127449   1.000000
    4        4.801613   1.000000
    5        9.088203   0.000000
    6        9.419734   0.000000
    7        9.574621   0.000000
    8       11.776268   0.000000
    9       12.386365   0.000000

  0.1630435E+00  0.1630435E+00  0.3260870E+00  0.0000000E+00
    1       -6.900326   1.000000
    2        1.303474   1.000000
    3        2.797113   1.000000
    4        4.679653   1.000000
    5        9.073406   0.000000
    6        9.614424   0.000000
    7        9.783772   0.000000
    8       11.798091   0.000000
    9       12.310523   0.000000

  0.1793478E+00  0.1793478E+00  0.3586957E+00  0.0000000E+00
    1       -6.698906   1.000000
    2        0.877566   1.000000
    3        2.474332   1.000000
    4        4.543098   1.000000
    5        9.024408   0.000000
    6        9.828813   0.000000
    7       10.011169   0.000000
    8       11.819712   0.000000
    9       12.280232   0.000000

  0.1956522E+00  0.1956522E+00  0.3913043E+00  0.0000000E+00
    1       -6.481623   1.000000
    2        0.469023   1.000000
    3        2.163273   1.000000
    4        4.393686   1.000000
    5        8.938403   0.000000
    6       10.062568   0.000000
    7       10.256619   0.000000
    8       11.868627   0.000000
    9       12.295029   0.000000

  0.2119565E+00  0.2119565E+00  0.4239130E+00  0.0000000E+00
    1       -6.249774   1.000000
    2        0.078908   1.000000
    3        1.867690   1.000000
    4        4.233807   1.000000
    5        8.817429   0.000000
    6       10.315527   0.000000
    7       10.519755   0.000000
    8       11.957326   0.000000
    9       12.353589   0.000000

  0.2282609E+00  0.2282609E+00  0.4565217E+00  0.0000000E+00
    1       -6.005024   1.000000
    2       -0.292019   1.000000
    3        1.591133   1.000000
    4        4.066178   1.000000
    5        8.667862   0.000000
    6       10.587272   0.000000
    7       10.800194   0.000000
    8       12.088541   0.000000
    9       12.454039   0.000000

  0.2445652E+00  0.2445652E+00  0.4891304E+00  0.0000000E+00
    1       -5.749514   1.000000
    2       -0.643137   1.000000
    3        1.337153   1.000000
    4        3.893694   1.000000
    5        8.497676   0.000000
    6       10.877547   0.000000
    7       11.096887   0.000000
    8       12.259696   0.000000
    9       12.593922   0.000000

  0.2608696E+00  0.2608696E+00  0.5217391E+00  0.0000000E+00
    1       -5.485998   1.000000
    2       -0.973985   1.000000
    3        1.109504   1.000000
    4        3.719258   1.000000
    5        8.314891   0.000000
    6       11.185966   0.000000
    7       11.407836   0.000000
    8       12.466148   0.000000
    9       12.770556   0.000000

  0.2771739E+00  0.2771739E+00  0.5543478E+00  0.0000000E+00
    1       -5.217930   1.000000
    2       -1.284200   1.000000
    3        0.912305   1.000000
    4        3.545613   1.000000
    5        8.126528   0.000000
    6       11.512156   0.000000
    7       11.728506   0.000000
    8       12.703111   0.000000
    9       12.981500   0.000000

  0.2934783E+00  0.2934783E+00  0.5869565E+00  0.0000000E+00
    1       -4.949686   1.000000
    2       -1.573474   1.000000
    3        0.750225   1.000000
    4        3.375306   1.000000
    5        7.938161   0.000000
    6       11.855652   0.000000
    7       12.044592   0.000000
    8       12.966120   0.000000
    9       13.223983   0.000000

  0.3097826E+00  0.3097826E+00  0.6195652E+00  0.0000000E+00
    1       -4.686671   1.000000
    2       -1.841558   1.000000
    3        0.628577   1.000000
    4        3.210605   1.000000
    5        7.754202   0.000000
    6       12.215796   0.000000
    7       12.292022   0.000000
    8       13.252140   0.000000
    9       13.499991   0.000000

  0.3260870E+00  0.3260870E+00  0.6521739E+00  0.0000000E+00
    1       -4.435217   1.000000
    2       -2.088223   1.000000
    3        0.553195   1.000000
    4        3.053555   1.000000
    5        7.578016   0.000000
    6       12.167574   0.000000
    7       12.591919   0.000000
    8       13.249300   0.000000
    9       13.556517   0.000000

  0.3423913E+00  0.3423913E+00  0.6847826E+00  0.0000000E+00
    1       -4.202244   1.000000
    2       -2.313284   1.000000
    3        0.529997   1.000000
    4        2.905894   1.000000
    5        7.412079   0.000000
    6       11.583820   0.000000
    7       12.983158   0.000000
    8       13.485102   0.000000
    9       13.878345   0.000000

  0.3586957E+00  0.3586957E+00  0.7173913E+00  0.0000000E+00
    1       -3.994503   1.000000
    2       -2.516601   1.000000
    3        0.564050   1.000000
    4        2.769108   1.000000
    5        7.258569   0.000000
    6       10.892766   0.000000
    7       13.388352   0.000000
    8       13.860441   0.000000
    9       14.214390   0.000000

  0.3750000E+00  0.3750000E+00  0.7500000E+00  0.0000000E+00
    1       -3.817386   1.000000
    2       -2.698048   1.000000
    3        0.658101   1.000000
    4        2.644452   1.000000
    5        7.118908   0.000000
    6       10.193617   0.000000
    7       13.805938   0.000000
    8       14.280649   0.000000
    9       14.562275   0.000000

  0.3750000E+00  0.3750000E+00  0.7500000E+00  0.0000000E+00
    1       -3.817386   1.000000
    2       -2.698048   1.000000
    3        0.658101   1.000000
    4        2.644452   1.000000
    5        7.118908   0.000000
    6       10.193617   0.000000
    7       13.805938   0.000000
    8       14.280649   0.000000
    9       14.562275   0.000000

  0.3823529E+00  0.3529412E+00  0.7352941E+00  0.0000000E+00
    1       -3.884362   1.000000
    2       -2.622762   1.000000
    3        0.615305   1.000000
    4        2.649335   1.000000
    5        7.255785   0.000000
    6       10.512495   0.000000
    7       13.394144   0.000000
    8       14.012836   0.000000
    9       14.309332   0.000000

  0.3897059E+00  0.3308824E+00  0.7205882E+00  0.0000000E+00
    1       -3.940449   1.000000
    2       -2.551300   1.000000
    3        0.598909   1.000000
    4        2.568827   1.000000
    5        7.535302   0.000000
    6       10.836581   0.000000
    7       12.855120   0.000000
    8       13.370691   0.000000
    9       14.480352   0.000000

  0.3970588E+00  0.3088235E+00  0.7058824E+00  0.0000000E+00
    1       -3.985541   1.000000
    2       -2.485504   1.000000
    3        0.608836   1.000000
    4        2.429747   1.000000
    5        7.931033   0.000000
    6       11.132746   0.000000
    7       12.346555   0.000000
    8       12.734490   0.000000
    9       14.669936   0.000000

  0.4044118E+00  0.2867647E+00  0.6911765E+00  0.0000000E+00
    1       -4.019458   1.000000
    2       -2.428295   1.000000
    3        0.644648   1.000000
    4        2.261769   1.000000
    5        8.413732   0.000000
    6       11.226635   0.000000
    7       12.059433   0.000000
    8       12.112729   0.000000
    9       14.861993   0.000000

  0.4117647E+00  0.2647059E+00  0.6764706E+00  0.0000000E+00
    1       -4.041945   1.000000
    2       -2.383614   1.000000
    3        0.705545   1.000000
    4        2.090266   1.000000
    5        8.955813   0.000000
    6       10.885906   0.000000
    7       11.513840   0.000000
    8       12.231608   0.000000
    9       15.051645   0.000000

  0.4191176E+00  0.2426471E+00  0.6617647E+00  0.0000000E+00
    1       -4.052704   1.000000
    2       -2.356025   1.000000
    3        0.790324   1.000000
    4        1.934832   1.000000
    5        9.520295   0.000000
    6       10.386836   0.000000
    7       10.960967   0.000000
    8       12.589766   0.000000
    9       15.236657   0.000000

  0.4264706E+00  0.2205882E+00  0.6470588E+00  0.0000000E+00
    1       -4.051415   1.000000
    2       -2.350079   1.000000
    3        0.897323   1.000000
    4        1.809766   1.000000
    5        9.867157   0.000000
    6        9.915551   0.000000
    7       10.636335   0.000000
    8       12.998546   0.000000
    9       15.416176   0.000000

  0.4338235E+00  0.1985294E+00  0.6323529E+00  0.0000000E+00
    1       -4.037766   1.000000
    2       -2.369385   1.000000
    3        1.024344   1.000000
    4        1.724530   1.000000
    5        9.355401   0.000000
    6        9.633064   0.000000
    7       11.042638   0.000000
    8       13.431525   0.000000
    9       15.590391   0.000000

  0.4411765E+00  0.1764706E+00  0.6176471E+00  0.0000000E+00
    1       -4.011498   1.000000
    2       -2.415657   1.000000
    3        1.168488   1.000000
    4        1.683765   1.000000
    5        8.862280   0.000000
    6        9.151040   0.000000
    7       11.698017   0.000000
    8       13.879533   0.000000
    9       15.760088   0.000000

  0.4485294E+00  0.1544118E+00  0.6029412E+00  0.0000000E+00
    1       -3.972401   1.000000
    2       -2.488054   1.000000
    3        1.325959   1.000000
    4        1.687307   1.000000
    5        8.395045   0.000000
    6        8.668299   0.000000
    7       12.401612   0.000000
    8       14.336498   0.000000
    9       15.927635   0.000000

  0.4558824E+00  0.1323529E+00  0.5882353E+00  0.0000000E+00
    1       -3.920391   1.000000
    2       -2.583373   1.000000
    3        1.491751   1.000000
    4        1.730486   1.000000
    5        7.960654   0.000000
    6        8.211079   0.000000
    7       13.126271   0.000000
    8       14.796097   0.000000
    9       16.097141   0.000000

  0.4632353E+00  0.1102941E+00  0.5735294E+00  0.0000000E+00
    1       -3.855495   1.000000
    2       -2.696744   1.000000
    3        1.659310   1.000000
    4        1.804864   1.000000
    5        7.567074   0.000000
    6        7.790139   0.000000
    7       13.860736   0.000000
    8       15.247758   0.000000
    9       16.276069   0.000000

  0.4705882E+00  0.8823529E-01  0.5588235E+00  0.0000000E+00
    1       -3.777916   1.000000
    2       -2.822626   1.000000
    3        1.820120   1.000000
    4        1.898946   1.000000
    5        7.223896   0.000000
    6        7.414735   0.000000
    7       14.593803   0.000000
    8       15.671740   0.000000
    9       16.478606   0.000000

  0.4779412E+00  0.6617647E-01  0.5441176E+00  0.0000000E+00
    1       -3.688060   1.000000
    2       -2.955606   1.000000
    3        1.963604   1.000000
    4        1.998803   1.000000
    5        6.942653   0.000000
    6        7.095345   0.000000
    7       15.306482   0.000000
    8       16.034461   0.000000
    9       16.727664   0.000000

  0.4852941E+00  0.4411765E-01  0.5294118E+00  0.0000000E+00
    1       -3.586593   1.000000
    2       -3.090884   1.000000
    3        2.077725   1.000000
    4        2.088699   1.000000
    5        6.736602   0.000000
    6        6.844159   0.000000
    7       15.955350   0.000000
    8       16.306171   0.000000
    9       17.027759   0.000000

  0.4926471E+00  0.2205882E-01  0.5147059E+00  0.0000000E+00
    1       -3.474501   1.000000
    2       -3.224473   1.000000
    3        2.150984   1.000000
    4        2.152408   1.000000
    5        6.618433   0.000000
    6        6.674307   0.000000
    7       16.425498   0.000000
    8       16.489653   0.000000
    9       17.309633   0.000000

  0.5000000E+00  0.0000000E+00  0.5000000E+00  0.0000000E+00
    1       -3.353193   1.000000
    2       -3.353164   1.000000
    3        2.175890   1.000000
    4        2.175891   1.000000
    5        6.597054   0.000000
    6        6.597058   0.000000
    7       16.570316   0.000000
    8       16.574668   0.000000
    9       17.428840   0.000000
