 vasp.5.4.4.18Apr17-6-g9f103f2a35 (build Jul 17 2026 20:05:20) complex           
 executed on             LinuxGNU date 2026.08.15  17:35:22
 running on    6 total cores
 distrk:  each k-point on    3 cores,    2 groups
 distr:  one band on NCORES_PER_BAND=   1 cores,    3 groups


--------------------------------------------------------------------------------------------------------


 INCAR:
 POTCAR:    PAW_PBE Si 05Jan2001                  

 ----------------------------------------------------------------------------- 
|                                                                             |
|           W    W    AA    RRRRR   N    N  II  N    N   GGGG   !!!           |
|           W    W   A  A   R    R  NN   N  II  NN   N  G    G  !!!           |
|           W    W  A    A  R    R  N N  N  II  N N  N  G       !!!           |
|           W WW W  AAAAAA  RRRRR   N  N N  II  N  N N  G  GGG   !            |
|           WW  WW  A    A  R   R   N   NN  II  N   NN  G    G                |
|           W    W  A    A  R    R  N    N  II  N    N   GGGG   !!!           |
|                                                                             |
|      For optimal performance we recommend to set                            |
|        NCORE= 4 - approx SQRT( number of cores)                             |
|      NCORE specifies how many cores store one orbital (NPAR=cpu/NCORE).     |
|      This setting can  greatly improve the performance of VASP for DFT.     |
|      The default,   NCORE=1            might be grossly inefficient         |
|      on modern multi-core architectures or massively parallel machines.     |
|      Do your own testing !!!!                                               |
|      Unfortunately you need to use the default for GW and RPA calculations. |
|      (for HF NCORE is supported but not extensively tested yet)             |
|                                                                             |
 ----------------------------------------------------------------------------- 


 ----------------------------------------------------------------------------- 
|                                                                             |
|           W    W    AA    RRRRR   N    N  II  N    N   GGGG   !!!           |
|           W    W   A  A   R    R  NN   N  II  NN   N  G    G  !!!           |
|           W    W  A    A  R    R  N N  N  II  N N  N  G       !!!           |
|           W WW W  AAAAAA  RRRRR   N  N N  II  N  N N  G  GGG   !            |
|           WW  WW  A    A  R   R   N   NN  II  N   NN  G    G                |
|           W    W  A    A  R    R  N    N  II  N    N   GGGG   !!!           |
|                                                                             |
|      You have enabled k-point parallelism (KPAR>1).                         |
|      This developmental code was originally  written by Paul Kent at ORNL,  |
|      and carefully double checked in Vienna.                                |
|      GW as well as linear response parallelism added by Martijn Marsman     |
|      and Georg Kresse.                                                      |
|      Carefully verify results versus KPAR=1.                                |
|      Report problems to Paul Kent and Vienna.                               |
|                                                                             |
 ----------------------------------------------------------------------------- 

 POTCAR:    PAW_PBE Si 05Jan2001                  
   VRHFIN =Si: s2p2                                                             
   LEXCH  = PE                                                                  
   EATOM  =   103.0669 eV,    7.5752 Ry                                         
                                                                                
   TITEL  = PAW_PBE Si 05Jan2001                                                
   LULTRA =        F    use ultrasoft PP ?                                      
   IUNSCR =        1    unscreen: 0-lin 1-nonlin 2-no                           
   RPACOR =    1.500    partial core radius                                     
   POMASS =   28.085; ZVAL   =    4.000    mass and valenz                      
   RCORE  =    1.900    outmost cutoff radius                                   
   RWIGS  =    2.480; RWIGS  =    1.312    wigner-seitz radius (au A)           
   ENMAX  =  245.345; ENMIN  =  184.009 eV                                      
   ICORE  =        2    local potential                                         
   LCOR   =        T    correct aug charges                                     
   LPAW   =        T    paw PP                                                  
   EAUG   =  322.069                                                            
   DEXC   =    0.000                                                            
   RMAX   =    1.950    core radius for proj-oper                               
   RAUG   =    1.300    factor for augmentation sphere                          
   RDEP   =    1.993    radius for radial grids                                 
   RDEPT  =    1.837    core radius for aug-charge                              
                                                                                
   Atomic configuration                                                         
    6 entries                                                                   
     n  l   j            E        occ.                                          
     1  0  0.50     -1785.8828   2.0000                                         
     2  0  0.50      -139.4969   2.0000                                         
     2  1  1.50       -95.5546   6.0000                                         
     3  0  0.50       -10.8127   2.0000                                         
     3  1  0.50        -4.0811   2.0000                                         
     3  2  1.50        -4.0817   0.0000                                         
   Description                                                                  
     l       E           TYP  RCUT    TYP  RCUT                                 
     0    -10.8127223     23  1.900                                             
     0     -7.6451159     23  1.900                                             
     1     -4.0811372     23  1.900                                             
     1      2.4879257     23  1.900                                             
     2     -4.0817478      7  1.900                                             
  local pseudopotential read in
  partial core-charges read in
  partial kinetic energy density read in
  atomic valenz-charges read in
  non local Contribution for L=           0  read in
    real space projection operators read in
  non local Contribution for L=           0  read in
    real space projection operators read in
  non local Contribution for L=           1  read in
    real space projection operators read in
  non local Contribution for L=           1  read in
    real space projection operators read in
    PAW grid and wavefunctions read in

   number of l-projection  operators is LMAX  =           4
   number of lm-projection operators is LMMAX =           8

  PAW_PBE Si 05Jan2001                  :
 energy of atom  1       EATOM= -103.0669
 kinetic energy error for atom=    0.0012 (will be added to EATOM!!)


 POSCAR: Si diamond cubic                        
  positions in direct lattice
  velocities in cartesian coordinates
 exchange correlation table for  LEXCH =        8
   RHO(1)=    0.500       N(1)  =     2000
   RHO(2)=  100.500       N(2)  =     4000



--------------------------------------------------------------------------------------------------------


 ion  position               nearest neighbor table
   1  0.000  0.000  0.000-   2 2.37   2 2.37   2 2.37   2 2.37
   2  0.250  0.250  0.250-   1 2.37   1 2.37   1 2.37   1 2.37

  LATTYP: Found a face centered cubic cell.
 ALAT       =     5.4692210743
  
  Lattice vectors:
  
 A1 = (   0.0000000000,   2.7346105372,   2.7346105372)
 A2 = (   2.7346105372,  -0.0000000000,   2.7346105372)
 A3 = (   2.7346105372,   2.7346105372,   0.0000000000)


Analysis of symmetry for initial positions (statically):
=====================================================================
 Subroutine PRICEL returns:
 Original cell was already a primitive cell.
 

 Routine SETGRP: Setting up the symmetry group for a 
 face centered cubic supercell.


 Subroutine GETGRP returns: Found 48 space group operations
 (whereof 24 operations were pure point group operations)
 out of a pool of 48 trial point group operations.


The static configuration has the point symmetry T_d .
 The point group associated with its full space group is O_h .


Analysis of symmetry for dynamics (positions and initial velocities):
=====================================================================
 Subroutine PRICEL returns:
 Original cell was already a primitive cell.
 

 Routine SETGRP: Setting up the symmetry group for a 
 face centered cubic supercell.


 Subroutine GETGRP returns: Found 48 space group operations
 (whereof 24 operations were pure point group operations)
 out of a pool of 48 trial point group operations.


The dynamic configuration has the point symmetry T_d .
 The point group associated with its full space group is O_h .


 Subroutine INISYM returns: Found 48 space group operations
 (whereof 24 operations are pure point group operations),
 and found     1 'primitive' translations



 KPOINTS: 0.040   8   8   8   29  0.050  110    6 
  k-points in reciprocal lattice
Space group operators:
 irot       det(A)        alpha          n_x          n_y          n_z        tau_x        tau_y        tau_z
    1     1.000000     0.000001     1.000000     0.000000     0.000000     0.000000     0.000000     0.000000
    2     1.000000   120.000000    -0.577350    -0.577350    -0.577350     0.000000     0.000000     0.000000
    3     1.000000   120.000000     0.577350     0.577350     0.577350     0.000000     0.000000     0.000000
    4    -1.000000    90.000000     0.000000     0.000000    -1.000000     0.000000     0.000000     0.000000
    5    -1.000000   180.000000     0.000000     0.707107     0.707107     0.000000     0.000000     0.000000
    6    -1.000000    90.000000     0.000000     1.000000     0.000000     0.000000     0.000000     0.000000
    7     1.000000   180.000000     0.000000     0.000000     1.000000     0.000000     0.000000     0.000000
    8     1.000000   120.000000    -0.577350     0.577350     0.577350     0.000000     0.000000     0.000000
    9     1.000000   120.000000    -0.577350     0.577350    -0.577350     0.000000     0.000000     0.000000
   10    -1.000000    90.000000     0.000000     0.000000     1.000000     0.000000     0.000000     0.000000
   11    -1.000000    90.000000    -1.000000     0.000000     0.000000     0.000000     0.000000     0.000000
   12    -1.000000   180.000000     0.707107     0.000000     0.707107     0.000000     0.000000     0.000000
   13     1.000000   120.000000     0.577350    -0.577350     0.577350     0.000000     0.000000     0.000000
   14     1.000000   120.000000    -0.577350    -0.577350     0.577350     0.000000     0.000000     0.000000
   15     1.000000   180.000000     1.000000     0.000000     0.000000     0.000000     0.000000     0.000000
   16    -1.000000    90.000000     0.000000    -1.000000     0.000000     0.000000     0.000000     0.000000
   17    -1.000000   180.000000     0.707107     0.707107     0.000000     0.000000     0.000000     0.000000
   18    -1.000000    90.000000     1.000000     0.000000     0.000000     0.000000     0.000000     0.000000
   19     1.000000   120.000000     0.577350    -0.577350    -0.577350     0.000000     0.000000     0.000000
   20     1.000000   180.000000     0.000000     1.000000     0.000000     0.000000     0.000000     0.000000
   21     1.000000   120.000000     0.577350     0.577350    -0.577350     0.000000     0.000000     0.000000
   22    -1.000000   180.000000     0.000000    -0.707107     0.707107     0.000000     0.000000     0.000000
   23    -1.000000   180.000000     0.707107    -0.707107     0.000000     0.000000     0.000000     0.000000
   24    -1.000000   180.000000     0.707107     0.000000    -0.707107     0.000000     0.000000     0.000000
   25    -1.000000     0.000001     1.000000     0.000000     0.000000     0.250000     0.250000     0.250000
   26    -1.000000   120.000000    -0.577350    -0.577350    -0.577350     0.250000     0.250000     0.250000
   27    -1.000000   120.000000     0.577350     0.577350     0.577350     0.250000     0.250000     0.250000
   28     1.000000    90.000000     0.000000     0.000000    -1.000000     0.250000     0.250000     0.250000
   29     1.000000   180.000000     0.000000     0.707107     0.707107     0.250000     0.250000     0.250000
   30     1.000000    90.000000     0.000000     1.000000     0.000000     0.250000     0.250000     0.250000
   31    -1.000000   180.000000     0.000000     0.000000     1.000000     0.250000     0.250000     0.250000
   32    -1.000000   120.000000    -0.577350     0.577350     0.577350     0.250000     0.250000     0.250000
   33    -1.000000   120.000000    -0.577350     0.577350    -0.577350     0.250000     0.250000     0.250000
   34     1.000000    90.000000     0.000000     0.000000     1.000000     0.250000     0.250000     0.250000
   35     1.000000    90.000000    -1.000000     0.000000     0.000000     0.250000     0.250000     0.250000
   36     1.000000   180.000000     0.707107     0.000000     0.707107     0.250000     0.250000     0.250000
   37    -1.000000   120.000000     0.577350    -0.577350     0.577350     0.250000     0.250000     0.250000
   38    -1.000000   120.000000    -0.577350    -0.577350     0.577350     0.250000     0.250000     0.250000
   39    -1.000000   180.000000     1.000000     0.000000     0.000000     0.250000     0.250000     0.250000
   40     1.000000    90.000000     0.000000    -1.000000     0.000000     0.250000     0.250000     0.250000
   41     1.000000   180.000000     0.707107     0.707107     0.000000     0.250000     0.250000     0.250000
   42     1.000000    90.000000     1.000000     0.000000     0.000000     0.250000     0.250000     0.250000
   43    -1.000000   120.000000     0.577350    -0.577350    -0.577350     0.250000     0.250000     0.250000
   44    -1.000000   180.000000     0.000000     1.000000     0.000000     0.250000     0.250000     0.250000
   45    -1.000000   120.000000     0.577350     0.577350    -0.577350     0.250000     0.250000     0.250000
   46     1.000000   180.000000     0.000000    -0.707107     0.707107     0.250000     0.250000     0.250000
   47     1.000000   180.000000     0.707107    -0.707107     0.000000     0.250000     0.250000     0.250000
   48     1.000000   180.000000     0.707107     0.000000    -0.707107     0.250000     0.250000     0.250000

 ----------------------------------------------------------------------------- 
|                                                                             |
|           W    W    AA    RRRRR   N    N  II  N    N   GGGG   !!!           |
|           W    W   A  A   R    R  NN   N  II  NN   N  G    G  !!!           |
|           W    W  A    A  R    R  N N  N  II  N N  N  G       !!!           |
|           W WW W  AAAAAA  RRRRR   N  N N  II  N  N N  G  GGG   !            |
|           WW  WW  A    A  R   R   N   NN  II  N   NN  G    G                |
|           W    W  A    A  R    R  N    N  II  N    N   GGGG   !!!           |
|                                                                             |
|      Your generating k-point grid is not commensurate to the symmetry       |
|      of the lattice.  This can cause   slow convergence with respect        |
|      to k-points for HF type calculations                                   |
|      suggested SOLUTIONS:                                                   |
|       ) if not already the case, use automatic k-point generation           |
|       ) shift your grid to Gamma (G) (e.g. required for hex or fcc lattice) |
|                                                                             |
 ----------------------------------------------------------------------------- 

 
 Subroutine IBZKPT_HF returns following result:
 ==============================================
 
 Found    622 k-points in 1st BZ
 the following    622 k-points will be used (e.g. in the exchange kernel)
 Following reciprocal coordinates:   # in IRBZ
  0.000000  0.000000  0.000000    0.00195312   1 t-inv F
  0.125000  0.000000  0.000000    0.00195312   2 t-inv F
  0.250000  0.000000  0.000000    0.00195312   3 t-inv F
  0.375000  0.000000  0.000000    0.00195312   4 t-inv F
  0.500000  0.000000  0.000000    0.00195312   5 t-inv F
  0.125000  0.125000  0.000000    0.00195312   6 t-inv F
  0.250000  0.125000  0.000000    0.00195312   7 t-inv F
  0.375000  0.125000  0.000000    0.00195312   8 t-inv F
  0.500000  0.125000  0.000000    0.00195312   9 t-inv F
 -0.375000  0.125000  0.000000    0.00195312  10 t-inv F
 -0.250000  0.125000  0.000000    0.00195312  11 t-inv F
 -0.125000  0.125000  0.000000    0.00195312  12 t-inv F
  0.250000  0.250000  0.000000    0.00195312  13 t-inv F
  0.375000  0.250000  0.000000    0.00195312  14 t-inv F
  0.500000  0.250000  0.000000    0.00195312  15 t-inv F
 -0.375000  0.250000  0.000000    0.00195312  16 t-inv F
 -0.250000  0.250000  0.000000    0.00195312  17 t-inv F
  0.375000  0.375000  0.000000    0.00195312  18 t-inv F
  0.500000  0.375000  0.000000    0.00195312  19 t-inv F
 -0.375000  0.375000  0.000000    0.00195312  20 t-inv F
  0.500000  0.500000  0.000000    0.00195312  21 t-inv F
  0.375000  0.250000  0.125000    0.00195312  22 t-inv F
  0.500000  0.250000  0.125000    0.00195312  23 t-inv F
 -0.375000  0.250000  0.125000    0.00195312  24 t-inv F
  0.500000  0.375000  0.125000    0.00195312  25 t-inv F
 -0.375000  0.375000  0.125000    0.00195312  26 t-inv F
 -0.250000  0.375000  0.125000    0.00195312  27 t-inv F
 -0.375000  0.500000  0.125000    0.00195312  28 t-inv F
 -0.250000  0.500000  0.250000    0.00195312  29 t-inv F
  0.000000  0.000000  0.000000    0.00000000  30 t-inv F
  0.023810  0.000000  0.023810    0.00000000  31 t-inv F
  0.047619  0.000000  0.047619    0.00000000  32 t-inv F
  0.071429  0.000000  0.071429    0.00000000  33 t-inv F
  0.095238  0.000000  0.095238    0.00000000  34 t-inv F
  0.119048  0.000000  0.119048    0.00000000  35 t-inv F
  0.142857  0.000000  0.142857    0.00000000  36 t-inv F
  0.166667  0.000000  0.166667    0.00000000  37 t-inv F
  0.190476  0.000000  0.190476    0.00000000  38 t-inv F
  0.214286  0.000000  0.214286    0.00000000  39 t-inv F
  0.238095  0.000000  0.238095    0.00000000  40 t-inv F
  0.261905  0.000000  0.261905    0.00000000  41 t-inv F
  0.285714  0.000000  0.285714    0.00000000  42 t-inv F
  0.309524  0.000000  0.309524    0.00000000  43 t-inv F
  0.333333  0.000000  0.333333    0.00000000  44 t-inv F
  0.357143  0.000000  0.357143    0.00000000  45 t-inv F
  0.380952  0.000000  0.380952    0.00000000  46 t-inv F
  0.404762  0.000000  0.404762    0.00000000  47 t-inv F
  0.428571  0.000000  0.428571    0.00000000  48 t-inv F
  0.452381  0.000000  0.452381    0.00000000  49 t-inv F
  0.476190  0.000000  0.476190    0.00000000  50 t-inv F
  0.500000  0.000000  0.500000    0.00000000  51 t-inv F
  0.500000  0.000000  0.500000    0.00000000  52 t-inv F
  0.500000  0.025000  0.525000    0.00000000  53 t-inv F
  0.500000  0.050000  0.550000    0.00000000  54 t-inv F
  0.500000  0.075000  0.575000    0.00000000  55 t-inv F
  0.500000  0.100000  0.600000    0.00000000  56 t-inv F
  0.500000  0.125000  0.625000    0.00000000  57 t-inv F
  0.500000  0.150000  0.650000    0.00000000  58 t-inv F
  0.500000  0.175000  0.675000    0.00000000  59 t-inv F
  0.500000  0.200000  0.700000    0.00000000  60 t-inv F
  0.500000  0.225000  0.725000    0.00000000  61 t-inv F
  0.500000  0.250000  0.750000    0.00000000  62 t-inv F
  0.500000  0.250000  0.750000    0.00000000  63 t-inv F
  0.500000  0.266667  0.733333    0.00000000  64 t-inv F
  0.500000  0.283333  0.716667    0.00000000  65 t-inv F
  0.500000  0.300000  0.700000    0.00000000  66 t-inv F
  0.500000  0.316667  0.683333    0.00000000  67 t-inv F
  0.500000  0.333333  0.666667    0.00000000  68 t-inv F
  0.500000  0.350000  0.650000    0.00000000  69 t-inv F
  0.500000  0.366667  0.633333    0.00000000  70 t-inv F
  0.500000  0.383333  0.616667    0.00000000  71 t-inv F
  0.500000  0.400000  0.600000    0.00000000  72 t-inv F
  0.500000  0.416667  0.583333    0.00000000  73 t-inv F
  0.500000  0.433333  0.566667    0.00000000  74 t-inv F
  0.500000  0.450000  0.550000    0.00000000  75 t-inv F
  0.500000  0.466667  0.533333    0.00000000  76 t-inv F
  0.500000  0.483333  0.516667    0.00000000  77 t-inv F
  0.500000  0.500000  0.500000    0.00000000  78 t-inv F
  0.500000  0.500000  0.500000    0.00000000  79 t-inv F
  0.472222  0.472222  0.472222    0.00000000  80 t-inv F
  0.444444  0.444444  0.444444    0.00000000  81 t-inv F
  0.416667  0.416667  0.416667    0.00000000  82 t-inv F
  0.388889  0.388889  0.388889    0.00000000  83 t-inv F
  0.361111  0.361111  0.361111    0.00000000  84 t-inv F
  0.333333  0.333333  0.333333    0.00000000  85 t-inv F
  0.305556  0.305556  0.305556    0.00000000  86 t-inv F
  0.277778  0.277778  0.277778    0.00000000  87 t-inv F
  0.250000  0.250000  0.250000    0.00000000  88 t-inv F
  0.222222  0.222222  0.222222    0.00000000  89 t-inv F
  0.194444  0.194444  0.194444    0.00000000  90 t-inv F
  0.166667  0.166667  0.166667    0.00000000  91 t-inv F
  0.138889  0.138889  0.138889    0.00000000  92 t-inv F
  0.111111  0.111111  0.111111    0.00000000  93 t-inv F
  0.083333  0.083333  0.083333    0.00000000  94 t-inv F
  0.055556  0.055556  0.055556    0.00000000  95 t-inv F
  0.027778  0.027778  0.027778    0.00000000  96 t-inv F
  0.000000  0.000000  0.000000    0.00000000  97 t-inv F
  0.000000  0.000000  0.000000    0.00000000  98 t-inv F
  0.016304  0.016304  0.032609    0.00000000  99 t-inv F
  0.032609  0.032609  0.065217    0.00000000 100 t-inv F
  0.048913  0.048913  0.097826    0.00000000 101 t-inv F
  0.065217  0.065217  0.130435    0.00000000 102 t-inv F
  0.081522  0.081522  0.163043    0.00000000 103 t-inv F
  0.097826  0.097826  0.195652    0.00000000 104 t-inv F
  0.114130  0.114130  0.228261    0.00000000 105 t-inv F
  0.130435  0.130435  0.260870    0.00000000 106 t-inv F
  0.146739  0.146739  0.293478    0.00000000 107 t-inv F
  0.163043  0.163043  0.326087    0.00000000 108 t-inv F
  0.179348  0.179348  0.358696    0.00000000 109 t-inv F
  0.195652  0.195652  0.391304    0.00000000 110 t-inv F
  0.211957  0.211957  0.423913    0.00000000 111 t-inv F
  0.228261  0.228261  0.456522    0.00000000 112 t-inv F
  0.244565  0.244565  0.489130    0.00000000 113 t-inv F
  0.260870  0.260870  0.521739    0.00000000 114 t-inv F
  0.277174  0.277174  0.554348    0.00000000 115 t-inv F
  0.293478  0.293478  0.586957    0.00000000 116 t-inv F
  0.309783  0.309783  0.619565    0.00000000 117 t-inv F
  0.326087  0.326087  0.652174    0.00000000 118 t-inv F
  0.342391  0.342391  0.684783    0.00000000 119 t-inv F
  0.358696  0.358696  0.717391    0.00000000 120 t-inv F
  0.375000  0.375000  0.750000    0.00000000 121 t-inv F
  0.375000  0.375000  0.750000    0.00000000 122 t-inv F
  0.382353  0.352941  0.735294    0.00000000 123 t-inv F
  0.389706  0.330882  0.720588    0.00000000 124 t-inv F
  0.397059  0.308824  0.705882    0.00000000 125 t-inv F
  0.404412  0.286765  0.691176    0.00000000 126 t-inv F
  0.411765  0.264706  0.676471    0.00000000 127 t-inv F
  0.419118  0.242647  0.661765    0.00000000 128 t-inv F
  0.426471  0.220588  0.647059    0.00000000 129 t-inv F
  0.433824  0.198529  0.632353    0.00000000 130 t-inv F
  0.441176  0.176471  0.617647    0.00000000 131 t-inv F
  0.448529  0.154412  0.602941    0.00000000 132 t-inv F
  0.455882  0.132353  0.588235    0.00000000 133 t-inv F
  0.463235  0.110294  0.573529    0.00000000 134 t-inv F
  0.470588  0.088235  0.558824    0.00000000 135 t-inv F
  0.477941  0.066176  0.544118    0.00000000 136 t-inv F
  0.485294  0.044118  0.529412    0.00000000 137 t-inv F
  0.492647  0.022059  0.514706    0.00000000 138 t-inv F
  0.500000  0.000000  0.500000    0.00000000 139 t-inv F
  0.000000  0.125000  0.000000    0.00195312   2 t-inv F
  0.000000  0.000000  0.125000    0.00195312   2 t-inv F
 -0.125000 -0.125000 -0.125000    0.00195312   2 t-inv F
 -0.125000  0.000000  0.000000    0.00195312   2 t-inv F
  0.000000 -0.125000  0.000000    0.00195312   2 t-inv F
  0.000000  0.000000 -0.125000    0.00195312   2 t-inv F
  0.125000  0.125000  0.125000    0.00195312   2 t-inv F
  0.000000  0.250000  0.000000    0.00195312   3 t-inv F
  0.000000  0.000000  0.250000    0.00195312   3 t-inv F
 -0.250000 -0.250000 -0.250000    0.00195312   3 t-inv F
 -0.250000  0.000000  0.000000    0.00195312   3 t-inv F
  0.000000 -0.250000  0.000000    0.00195312   3 t-inv F
  0.000000  0.000000 -0.250000    0.00195312   3 t-inv F
  0.250000  0.250000  0.250000    0.00195312   3 t-inv F
  0.000000  0.375000  0.000000    0.00195312   4 t-inv F
  0.000000  0.000000  0.375000    0.00195312   4 t-inv F
 -0.375000 -0.375000 -0.375000    0.00195312   4 t-inv F
 -0.375000  0.000000  0.000000    0.00195312   4 t-inv F
  0.000000 -0.375000  0.000000    0.00195312   4 t-inv F
  0.000000  0.000000 -0.375000    0.00195312   4 t-inv F
  0.375000  0.375000  0.375000    0.00195312   4 t-inv F
  0.000000  0.500000  0.000000    0.00195312   5 t-inv F
  0.000000  0.000000  0.500000    0.00195312   5 t-inv F
 -0.500000 -0.500000 -0.500000    0.00195312   5 t-inv F
  0.000000  0.125000  0.125000    0.00195312   6 t-inv F
  0.125000  0.000000  0.125000    0.00195312   6 t-inv F
 -0.125000 -0.125000  0.000000    0.00195312   6 t-inv F
 -0.125000  0.000000 -0.125000    0.00195312   6 t-inv F
  0.000000 -0.125000 -0.125000    0.00195312   6 t-inv F
  0.000000  0.250000  0.125000    0.00195312   7 t-inv F
  0.125000  0.000000  0.250000    0.00195312   7 t-inv F
 -0.125000 -0.125000  0.125000    0.00195312   7 t-inv F
 -0.250000 -0.125000 -0.250000    0.00195312   7 t-inv F
  0.125000  0.250000  0.000000    0.00195312   7 t-inv F
  0.125000 -0.125000 -0.125000    0.00195312   7 t-inv F
 -0.250000 -0.250000 -0.125000    0.00195312   7 t-inv F
  0.000000  0.125000  0.250000    0.00195312   7 t-inv F
 -0.125000  0.125000 -0.125000    0.00195312   7 t-inv F
 -0.125000 -0.250000 -0.250000    0.00195312   7 t-inv F
  0.250000  0.000000  0.125000    0.00195312   7 t-inv F
 -0.250000 -0.125000  0.000000    0.00195312   7 t-inv F
  0.000000 -0.250000 -0.125000    0.00195312   7 t-inv F
 -0.125000  0.000000 -0.250000    0.00195312   7 t-inv F
  0.125000  0.125000 -0.125000    0.00195312   7 t-inv F
  0.250000  0.125000  0.250000    0.00195312   7 t-inv F
 -0.125000 -0.250000  0.000000    0.00195312   7 t-inv F
 -0.125000  0.125000  0.125000    0.00195312   7 t-inv F
  0.250000  0.250000  0.125000    0.00195312   7 t-inv F
  0.000000 -0.125000 -0.250000    0.00195312   7 t-inv F
  0.125000 -0.125000  0.125000    0.00195312   7 t-inv F
  0.125000  0.250000  0.250000    0.00195312   7 t-inv F
 -0.250000  0.000000 -0.125000    0.00195312   7 t-inv F
  0.000000  0.375000  0.125000    0.00195312   8 t-inv F
  0.125000  0.000000  0.375000    0.00195312   8 t-inv F
 -0.125000 -0.125000  0.250000    0.00195312   8 t-inv F
 -0.375000 -0.250000 -0.375000    0.00195312   8 t-inv F
  0.125000  0.375000  0.000000    0.00195312   8 t-inv F
  0.250000 -0.125000 -0.125000    0.00195312   8 t-inv F
 -0.375000 -0.375000 -0.250000    0.00195312   8 t-inv F
  0.000000  0.125000  0.375000    0.00195312   8 t-inv F
 -0.125000  0.250000 -0.125000    0.00195312   8 t-inv F
 -0.250000 -0.375000 -0.375000    0.00195312   8 t-inv F
  0.375000  0.000000  0.125000    0.00195312   8 t-inv F
 -0.375000 -0.125000  0.000000    0.00195312   8 t-inv F
  0.000000 -0.375000 -0.125000    0.00195312   8 t-inv F
 -0.125000  0.000000 -0.375000    0.00195312   8 t-inv F
  0.125000  0.125000 -0.250000    0.00195312   8 t-inv F
  0.375000  0.250000  0.375000    0.00195312   8 t-inv F
 -0.125000 -0.375000  0.000000    0.00195312   8 t-inv F
 -0.250000  0.125000  0.125000    0.00195312   8 t-inv F
  0.375000  0.375000  0.250000    0.00195312   8 t-inv F
  0.000000 -0.125000 -0.375000    0.00195312   8 t-inv F
  0.125000 -0.250000  0.125000    0.00195312   8 t-inv F
  0.250000  0.375000  0.375000    0.00195312   8 t-inv F
 -0.375000  0.000000 -0.125000    0.00195312   8 t-inv F
  0.000000  0.500000  0.125000    0.00195312   9 t-inv F
  0.125000  0.000000  0.500000    0.00195312   9 t-inv F
 -0.125000 -0.125000  0.375000    0.00195312   9 t-inv F
 -0.500000 -0.375000 -0.500000    0.00195312   9 t-inv F
  0.125000  0.500000  0.000000    0.00195312   9 t-inv F
  0.375000 -0.125000 -0.125000    0.00195312   9 t-inv F
 -0.500000 -0.500000 -0.375000    0.00195312   9 t-inv F
  0.000000  0.125000  0.500000    0.00195312   9 t-inv F
 -0.125000  0.375000 -0.125000    0.00195312   9 t-inv F
 -0.375000 -0.500000 -0.500000    0.00195312   9 t-inv F
  0.500000  0.000000  0.125000    0.00195312   9 t-inv F
 -0.500000 -0.125000  0.000000    0.00195312   9 t-inv F
  0.000000 -0.500000 -0.125000    0.00195312   9 t-inv F
 -0.125000  0.000000 -0.500000    0.00195312   9 t-inv F
  0.125000  0.125000 -0.375000    0.00195312   9 t-inv F
  0.500000  0.375000  0.500000    0.00195312   9 t-inv F
 -0.125000 -0.500000  0.000000    0.00195312   9 t-inv F
 -0.375000  0.125000  0.125000    0.00195312   9 t-inv F
  0.500000  0.500000  0.375000    0.00195312   9 t-inv F
  0.000000 -0.125000 -0.500000    0.00195312   9 t-inv F
  0.125000 -0.375000  0.125000    0.00195312   9 t-inv F
  0.375000  0.500000  0.500000    0.00195312   9 t-inv F
 -0.500000  0.000000 -0.125000    0.00195312   9 t-inv F
  0.000000 -0.375000  0.125000    0.00195312  10 t-inv F
  0.125000  0.000000 -0.375000    0.00195312  10 t-inv F
 -0.125000 -0.125000 -0.500000    0.00195312  10 t-inv F
  0.375000  0.500000  0.375000    0.00195312  10 t-inv F
  0.125000 -0.375000  0.000000    0.00195312  10 t-inv F
 -0.500000 -0.125000 -0.125000    0.00195312  10 t-inv F
  0.375000  0.375000  0.500000    0.00195312  10 t-inv F
  0.000000  0.125000 -0.375000    0.00195312  10 t-inv F
 -0.125000 -0.500000 -0.125000    0.00195312  10 t-inv F
  0.500000  0.375000  0.375000    0.00195312  10 t-inv F
 -0.375000  0.000000  0.125000    0.00195312  10 t-inv F
  0.375000 -0.125000  0.000000    0.00195312  10 t-inv F
  0.000000  0.375000 -0.125000    0.00195312  10 t-inv F
 -0.125000  0.000000  0.375000    0.00195312  10 t-inv F
  0.125000  0.125000  0.500000    0.00195312  10 t-inv F
 -0.375000 -0.500000 -0.375000    0.00195312  10 t-inv F
 -0.125000  0.375000  0.000000    0.00195312  10 t-inv F
  0.500000  0.125000  0.125000    0.00195312  10 t-inv F
 -0.375000 -0.375000 -0.500000    0.00195312  10 t-inv F
  0.000000 -0.125000  0.375000    0.00195312  10 t-inv F
  0.125000  0.500000  0.125000    0.00195312  10 t-inv F
 -0.500000 -0.375000 -0.375000    0.00195312  10 t-inv F
  0.375000  0.000000 -0.125000    0.00195312  10 t-inv F
  0.000000 -0.250000  0.125000    0.00195312  11 t-inv F
  0.125000  0.000000 -0.250000    0.00195312  11 t-inv F
 -0.125000 -0.125000 -0.375000    0.00195312  11 t-inv F
  0.250000  0.375000  0.250000    0.00195312  11 t-inv F
  0.125000 -0.250000  0.000000    0.00195312  11 t-inv F
 -0.375000 -0.125000 -0.125000    0.00195312  11 t-inv F
  0.250000  0.250000  0.375000    0.00195312  11 t-inv F
  0.000000  0.125000 -0.250000    0.00195312  11 t-inv F
 -0.125000 -0.375000 -0.125000    0.00195312  11 t-inv F
  0.375000  0.250000  0.250000    0.00195312  11 t-inv F
 -0.250000  0.000000  0.125000    0.00195312  11 t-inv F
  0.250000 -0.125000  0.000000    0.00195312  11 t-inv F
  0.000000  0.250000 -0.125000    0.00195312  11 t-inv F
 -0.125000  0.000000  0.250000    0.00195312  11 t-inv F
  0.125000  0.125000  0.375000    0.00195312  11 t-inv F
 -0.250000 -0.375000 -0.250000    0.00195312  11 t-inv F
 -0.125000  0.250000  0.000000    0.00195312  11 t-inv F
  0.375000  0.125000  0.125000    0.00195312  11 t-inv F
 -0.250000 -0.250000 -0.375000    0.00195312  11 t-inv F
  0.000000 -0.125000  0.250000    0.00195312  11 t-inv F
  0.125000  0.375000  0.125000    0.00195312  11 t-inv F
 -0.375000 -0.250000 -0.250000    0.00195312  11 t-inv F
  0.250000  0.000000 -0.125000    0.00195312  11 t-inv F
  0.000000 -0.125000  0.125000    0.00195312  12 t-inv F
  0.125000  0.000000 -0.125000    0.00195312  12 t-inv F
 -0.125000 -0.125000 -0.250000    0.00195312  12 t-inv F
  0.125000  0.250000  0.125000    0.00195312  12 t-inv F
  0.125000 -0.125000  0.000000    0.00195312  12 t-inv F
 -0.250000 -0.125000 -0.125000    0.00195312  12 t-inv F
  0.125000  0.125000  0.250000    0.00195312  12 t-inv F
  0.000000  0.125000 -0.125000    0.00195312  12 t-inv F
 -0.125000 -0.250000 -0.125000    0.00195312  12 t-inv F
  0.250000  0.125000  0.125000    0.00195312  12 t-inv F
 -0.125000  0.000000  0.125000    0.00195312  12 t-inv F
  0.000000  0.250000  0.250000    0.00195312  13 t-inv F
  0.250000  0.000000  0.250000    0.00195312  13 t-inv F
 -0.250000 -0.250000  0.000000    0.00195312  13 t-inv F
 -0.250000  0.000000 -0.250000    0.00195312  13 t-inv F
  0.000000 -0.250000 -0.250000    0.00195312  13 t-inv F
  0.000000  0.375000  0.250000    0.00195312  14 t-inv F
  0.250000  0.000000  0.375000    0.00195312  14 t-inv F
 -0.250000 -0.250000  0.125000    0.00195312  14 t-inv F
 -0.375000 -0.125000 -0.375000    0.00195312  14 t-inv F
  0.250000  0.375000  0.000000    0.00195312  14 t-inv F
  0.125000 -0.250000 -0.250000    0.00195312  14 t-inv F
 -0.375000 -0.375000 -0.125000    0.00195312  14 t-inv F
  0.000000  0.250000  0.375000    0.00195312  14 t-inv F
 -0.250000  0.125000 -0.250000    0.00195312  14 t-inv F
 -0.125000 -0.375000 -0.375000    0.00195312  14 t-inv F
  0.375000  0.000000  0.250000    0.00195312  14 t-inv F
 -0.375000 -0.250000  0.000000    0.00195312  14 t-inv F
  0.000000 -0.375000 -0.250000    0.00195312  14 t-inv F
 -0.250000  0.000000 -0.375000    0.00195312  14 t-inv F
  0.250000  0.250000 -0.125000    0.00195312  14 t-inv F
  0.375000  0.125000  0.375000    0.00195312  14 t-inv F
 -0.250000 -0.375000  0.000000    0.00195312  14 t-inv F
 -0.125000  0.250000  0.250000    0.00195312  14 t-inv F
  0.375000  0.375000  0.125000    0.00195312  14 t-inv F
  0.000000 -0.250000 -0.375000    0.00195312  14 t-inv F
  0.250000 -0.125000  0.250000    0.00195312  14 t-inv F
  0.125000  0.375000  0.375000    0.00195312  14 t-inv F
 -0.375000  0.000000 -0.250000    0.00195312  14 t-inv F
  0.000000  0.500000  0.250000    0.00195312  15 t-inv F
  0.250000  0.000000  0.500000    0.00195312  15 t-inv F
 -0.250000 -0.250000  0.250000    0.00195312  15 t-inv F
 -0.500000 -0.250000 -0.500000    0.00195312  15 t-inv F
  0.250000  0.500000  0.000000    0.00195312  15 t-inv F
  0.250000 -0.250000 -0.250000    0.00195312  15 t-inv F
 -0.500000 -0.500000 -0.250000    0.00195312  15 t-inv F
  0.000000  0.250000  0.500000    0.00195312  15 t-inv F
 -0.250000  0.250000 -0.250000    0.00195312  15 t-inv F
 -0.250000 -0.500000 -0.500000    0.00195312  15 t-inv F
  0.500000  0.000000  0.250000    0.00195312  15 t-inv F
 -0.500000 -0.250000  0.000000    0.00195312  15 t-inv F
  0.000000 -0.500000 -0.250000    0.00195312  15 t-inv F
 -0.250000  0.000000 -0.500000    0.00195312  15 t-inv F
  0.250000  0.250000 -0.250000    0.00195312  15 t-inv F
  0.500000  0.250000  0.500000    0.00195312  15 t-inv F
 -0.250000 -0.500000  0.000000    0.00195312  15 t-inv F
 -0.250000  0.250000  0.250000    0.00195312  15 t-inv F
  0.500000  0.500000  0.250000    0.00195312  15 t-inv F
  0.000000 -0.250000 -0.500000    0.00195312  15 t-inv F
  0.250000 -0.250000  0.250000    0.00195312  15 t-inv F
  0.250000  0.500000  0.500000    0.00195312  15 t-inv F
 -0.500000  0.000000 -0.250000    0.00195312  15 t-inv F
  0.000000 -0.375000  0.250000    0.00195312  16 t-inv F
  0.250000  0.000000 -0.375000    0.00195312  16 t-inv F
 -0.250000 -0.250000 -0.625000    0.00195312  16 t-inv F
  0.375000  0.625000  0.375000    0.00195312  16 t-inv F
  0.250000 -0.375000  0.000000    0.00195312  16 t-inv F
 -0.625000 -0.250000 -0.250000    0.00195312  16 t-inv F
  0.375000  0.375000  0.625000    0.00195312  16 t-inv F
  0.000000  0.250000 -0.375000    0.00195312  16 t-inv F
 -0.250000 -0.625000 -0.250000    0.00195312  16 t-inv F
  0.625000  0.375000  0.375000    0.00195312  16 t-inv F
 -0.375000  0.000000  0.250000    0.00195312  16 t-inv F
  0.375000 -0.250000  0.000000    0.00195312  16 t-inv F
  0.000000  0.375000 -0.250000    0.00195312  16 t-inv F
 -0.250000  0.000000  0.375000    0.00195312  16 t-inv F
  0.250000  0.250000  0.625000    0.00195312  16 t-inv F
 -0.375000 -0.625000 -0.375000    0.00195312  16 t-inv F
 -0.250000  0.375000  0.000000    0.00195312  16 t-inv F
  0.625000  0.250000  0.250000    0.00195312  16 t-inv F
 -0.375000 -0.375000 -0.625000    0.00195312  16 t-inv F
  0.000000 -0.250000  0.375000    0.00195312  16 t-inv F
  0.250000  0.625000  0.250000    0.00195312  16 t-inv F
 -0.625000 -0.375000 -0.375000    0.00195312  16 t-inv F
  0.375000  0.000000 -0.250000    0.00195312  16 t-inv F
  0.000000 -0.250000  0.250000    0.00195312  17 t-inv F
  0.250000  0.000000 -0.250000    0.00195312  17 t-inv F
 -0.250000 -0.250000 -0.500000    0.00195312  17 t-inv F
  0.250000  0.500000  0.250000    0.00195312  17 t-inv F
  0.250000 -0.250000  0.000000    0.00195312  17 t-inv F
 -0.500000 -0.250000 -0.250000    0.00195312  17 t-inv F
  0.250000  0.250000  0.500000    0.00195312  17 t-inv F
  0.000000  0.250000 -0.250000    0.00195312  17 t-inv F
 -0.250000 -0.500000 -0.250000    0.00195312  17 t-inv F
  0.500000  0.250000  0.250000    0.00195312  17 t-inv F
 -0.250000  0.000000  0.250000    0.00195312  17 t-inv F
  0.000000  0.375000  0.375000    0.00195312  18 t-inv F
  0.375000  0.000000  0.375000    0.00195312  18 t-inv F
 -0.375000 -0.375000  0.000000    0.00195312  18 t-inv F
 -0.375000  0.000000 -0.375000    0.00195312  18 t-inv F
  0.000000 -0.375000 -0.375000    0.00195312  18 t-inv F
  0.000000  0.500000  0.375000    0.00195312  19 t-inv F
  0.375000  0.000000  0.500000    0.00195312  19 t-inv F
 -0.375000 -0.375000  0.125000    0.00195312  19 t-inv F
 -0.500000 -0.125000 -0.500000    0.00195312  19 t-inv F
  0.375000  0.500000  0.000000    0.00195312  19 t-inv F
  0.125000 -0.375000 -0.375000    0.00195312  19 t-inv F
 -0.500000 -0.500000 -0.125000    0.00195312  19 t-inv F
  0.000000  0.375000  0.500000    0.00195312  19 t-inv F
 -0.375000  0.125000 -0.375000    0.00195312  19 t-inv F
 -0.125000 -0.500000 -0.500000    0.00195312  19 t-inv F
  0.500000  0.000000  0.375000    0.00195312  19 t-inv F
 -0.500000 -0.375000  0.000000    0.00195312  19 t-inv F
  0.000000 -0.500000 -0.375000    0.00195312  19 t-inv F
 -0.375000  0.000000 -0.500000    0.00195312  19 t-inv F
  0.375000  0.375000 -0.125000    0.00195312  19 t-inv F
  0.500000  0.125000  0.500000    0.00195312  19 t-inv F
 -0.375000 -0.500000  0.000000    0.00195312  19 t-inv F
 -0.125000  0.375000  0.375000    0.00195312  19 t-inv F
  0.500000  0.500000  0.125000    0.00195312  19 t-inv F
  0.000000 -0.375000 -0.500000    0.00195312  19 t-inv F
  0.375000 -0.125000  0.375000    0.00195312  19 t-inv F
  0.125000  0.500000  0.500000    0.00195312  19 t-inv F
 -0.500000  0.000000 -0.375000    0.00195312  19 t-inv F
  0.000000 -0.375000  0.375000    0.00195312  20 t-inv F
  0.375000  0.000000 -0.375000    0.00195312  20 t-inv F
 -0.375000 -0.375000 -0.750000    0.00195312  20 t-inv F
  0.375000  0.750000  0.375000    0.00195312  20 t-inv F
  0.375000 -0.375000  0.000000    0.00195312  20 t-inv F
 -0.750000 -0.375000 -0.375000    0.00195312  20 t-inv F
  0.375000  0.375000  0.750000    0.00195312  20 t-inv F
  0.000000  0.375000 -0.375000    0.00195312  20 t-inv F
 -0.375000 -0.750000 -0.375000    0.00195312  20 t-inv F
  0.750000  0.375000  0.375000    0.00195312  20 t-inv F
 -0.375000  0.000000  0.375000    0.00195312  20 t-inv F
  0.000000  0.500000  0.500000    0.00195312  21 t-inv F
  0.500000  0.000000  0.500000    0.00195312  21 t-inv F
  0.125000  0.375000  0.250000    0.00195312  22 t-inv F
  0.250000  0.125000  0.375000    0.00195312  22 t-inv F
 -0.250000 -0.125000  0.125000    0.00195312  22 t-inv F
 -0.375000 -0.125000 -0.250000    0.00195312  22 t-inv F
 -0.125000  0.250000  0.125000    0.00195312  22 t-inv F
  0.125000  0.250000 -0.125000    0.00195312  22 t-inv F
  0.125000 -0.125000 -0.250000    0.00195312  22 t-inv F
 -0.250000 -0.125000 -0.375000    0.00195312  22 t-inv F
 -0.250000 -0.375000 -0.125000    0.00195312  22 t-inv F
  0.125000 -0.125000  0.250000    0.00195312  22 t-inv F
  0.125000 -0.250000 -0.125000    0.00195312  22 t-inv F
 -0.125000  0.125000  0.250000    0.00195312  22 t-inv F
 -0.250000  0.125000 -0.125000    0.00195312  22 t-inv F
 -0.375000 -0.250000 -0.125000    0.00195312  22 t-inv F
 -0.125000 -0.250000 -0.375000    0.00195312  22 t-inv F
  0.250000  0.125000 -0.125000    0.00195312  22 t-inv F
 -0.125000  0.125000 -0.250000    0.00195312  22 t-inv F
  0.250000 -0.125000  0.125000    0.00195312  22 t-inv F
 -0.125000 -0.250000  0.125000    0.00195312  22 t-inv F
 -0.125000 -0.375000 -0.250000    0.00195312  22 t-inv F
  0.375000  0.125000  0.250000    0.00195312  22 t-inv F
  0.250000  0.375000  0.125000    0.00195312  22 t-inv F
  0.125000  0.250000  0.375000    0.00195312  22 t-inv F
  0.125000  0.500000  0.250000    0.00195312  23 t-inv F
  0.250000  0.125000  0.500000    0.00195312  23 t-inv F
 -0.250000 -0.125000  0.250000    0.00195312  23 t-inv F
 -0.500000 -0.250000 -0.375000    0.00195312  23 t-inv F
 -0.125000  0.375000  0.125000    0.00195312  23 t-inv F
  0.125000  0.375000 -0.125000    0.00195312  23 t-inv F
  0.250000 -0.125000 -0.250000    0.00195312  23 t-inv F
 -0.375000 -0.250000 -0.500000    0.00195312  23 t-inv F
 -0.375000 -0.500000 -0.250000    0.00195312  23 t-inv F
  0.125000 -0.125000  0.375000    0.00195312  23 t-inv F
  0.250000 -0.250000 -0.125000    0.00195312  23 t-inv F
 -0.125000  0.125000  0.375000    0.00195312  23 t-inv F
 -0.250000  0.250000 -0.125000    0.00195312  23 t-inv F
 -0.500000 -0.375000 -0.250000    0.00195312  23 t-inv F
 -0.250000 -0.375000 -0.500000    0.00195312  23 t-inv F
  0.375000  0.125000 -0.125000    0.00195312  23 t-inv F
 -0.125000  0.250000 -0.250000    0.00195312  23 t-inv F
  0.375000 -0.125000  0.125000    0.00195312  23 t-inv F
 -0.125000 -0.250000  0.250000    0.00195312  23 t-inv F
 -0.250000 -0.500000 -0.375000    0.00195312  23 t-inv F
  0.500000  0.125000  0.250000    0.00195312  23 t-inv F
  0.250000  0.500000  0.125000    0.00195312  23 t-inv F
  0.125000  0.250000  0.500000    0.00195312  23 t-inv F
 -0.500000 -0.250000 -0.125000    0.00195312  23 t-inv F
 -0.125000 -0.500000 -0.250000    0.00195312  23 t-inv F
 -0.250000 -0.125000 -0.500000    0.00195312  23 t-inv F
  0.250000  0.125000 -0.250000    0.00195312  23 t-inv F
  0.500000  0.250000  0.375000    0.00195312  23 t-inv F
  0.125000 -0.375000 -0.125000    0.00195312  23 t-inv F
 -0.125000 -0.375000  0.125000    0.00195312  23 t-inv F
 -0.250000  0.125000  0.250000    0.00195312  23 t-inv F
  0.375000  0.250000  0.500000    0.00195312  23 t-inv F
  0.375000  0.500000  0.250000    0.00195312  23 t-inv F
 -0.125000  0.125000 -0.375000    0.00195312  23 t-inv F
 -0.250000  0.250000  0.125000    0.00195312  23 t-inv F
  0.125000 -0.125000 -0.375000    0.00195312  23 t-inv F
  0.250000 -0.250000  0.125000    0.00195312  23 t-inv F
  0.500000  0.375000  0.250000    0.00195312  23 t-inv F
  0.250000  0.375000  0.500000    0.00195312  23 t-inv F
 -0.375000 -0.125000  0.125000    0.00195312  23 t-inv F
  0.125000 -0.250000  0.250000    0.00195312  23 t-inv F
 -0.375000  0.125000 -0.125000    0.00195312  23 t-inv F
  0.125000  0.250000 -0.250000    0.00195312  23 t-inv F
  0.250000  0.500000  0.375000    0.00195312  23 t-inv F
 -0.500000 -0.125000 -0.250000    0.00195312  23 t-inv F
 -0.250000 -0.500000 -0.125000    0.00195312  23 t-inv F
 -0.125000 -0.250000 -0.500000    0.00195312  23 t-inv F
  0.125000 -0.375000  0.250000    0.00195312  24 t-inv F
  0.250000  0.125000 -0.375000    0.00195312  24 t-inv F
 -0.250000 -0.125000 -0.625000    0.00195312  24 t-inv F
  0.375000  0.625000  0.500000    0.00195312  24 t-inv F
 -0.125000 -0.500000  0.125000    0.00195312  24 t-inv F
  0.125000 -0.500000 -0.125000    0.00195312  24 t-inv F
 -0.625000 -0.125000 -0.250000    0.00195312  24 t-inv F
  0.500000  0.625000  0.375000    0.00195312  24 t-inv F
  0.500000  0.375000  0.625000    0.00195312  24 t-inv F
  0.125000 -0.125000 -0.500000    0.00195312  24 t-inv F
 -0.625000 -0.250000 -0.125000    0.00195312  24 t-inv F
 -0.125000  0.125000 -0.500000    0.00195312  24 t-inv F
 -0.250000 -0.625000 -0.125000    0.00195312  24 t-inv F
  0.375000  0.500000  0.625000    0.00195312  24 t-inv F
  0.625000  0.500000  0.375000    0.00195312  24 t-inv F
 -0.500000  0.125000 -0.125000    0.00195312  24 t-inv F
 -0.125000 -0.625000 -0.250000    0.00195312  24 t-inv F
 -0.500000 -0.125000  0.125000    0.00195312  24 t-inv F
 -0.125000 -0.250000 -0.625000    0.00195312  24 t-inv F
  0.625000  0.375000  0.500000    0.00195312  24 t-inv F
 -0.375000  0.125000  0.250000    0.00195312  24 t-inv F
  0.250000 -0.375000  0.125000    0.00195312  24 t-inv F
  0.125000  0.250000 -0.375000    0.00195312  24 t-inv F
  0.125000  0.500000  0.375000    0.00195312  25 t-inv F
  0.375000  0.125000  0.500000    0.00195312  25 t-inv F
 -0.375000 -0.250000  0.125000    0.00195312  25 t-inv F
 -0.500000 -0.125000 -0.375000    0.00195312  25 t-inv F
 -0.125000  0.375000  0.250000    0.00195312  25 t-inv F
  0.250000  0.375000 -0.125000    0.00195312  25 t-inv F
  0.125000 -0.250000 -0.375000    0.00195312  25 t-inv F
 -0.375000 -0.125000 -0.500000    0.00195312  25 t-inv F
 -0.375000 -0.500000 -0.125000    0.00195312  25 t-inv F
  0.250000 -0.125000  0.375000    0.00195312  25 t-inv F
  0.125000 -0.375000 -0.250000    0.00195312  25 t-inv F
 -0.125000  0.250000  0.375000    0.00195312  25 t-inv F
 -0.375000  0.125000 -0.250000    0.00195312  25 t-inv F
 -0.500000 -0.375000 -0.125000    0.00195312  25 t-inv F
 -0.125000 -0.375000 -0.500000    0.00195312  25 t-inv F
  0.375000  0.250000 -0.125000    0.00195312  25 t-inv F
 -0.250000  0.125000 -0.375000    0.00195312  25 t-inv F
  0.375000 -0.125000  0.250000    0.00195312  25 t-inv F
 -0.250000 -0.375000  0.125000    0.00195312  25 t-inv F
 -0.125000 -0.500000 -0.375000    0.00195312  25 t-inv F
  0.500000  0.125000  0.375000    0.00195312  25 t-inv F
  0.375000  0.500000  0.125000    0.00195312  25 t-inv F
  0.125000  0.375000  0.500000    0.00195312  25 t-inv F
  0.125000 -0.375000  0.375000    0.00195312  26 t-inv F
  0.375000  0.125000 -0.375000    0.00195312  26 t-inv F
 -0.375000 -0.250000 -0.750000    0.00195312  26 t-inv F
  0.375000  0.750000  0.500000    0.00195312  26 t-inv F
 -0.125000 -0.500000  0.250000    0.00195312  26 t-inv F
  0.250000 -0.500000 -0.125000    0.00195312  26 t-inv F
 -0.750000 -0.250000 -0.375000    0.00195312  26 t-inv F
  0.500000  0.750000  0.375000    0.00195312  26 t-inv F
  0.500000  0.375000  0.750000    0.00195312  26 t-inv F
  0.250000 -0.125000 -0.500000    0.00195312  26 t-inv F
 -0.750000 -0.375000 -0.250000    0.00195312  26 t-inv F
 -0.125000  0.250000 -0.500000    0.00195312  26 t-inv F
 -0.375000 -0.750000 -0.250000    0.00195312  26 t-inv F
  0.375000  0.500000  0.750000    0.00195312  26 t-inv F
  0.750000  0.500000  0.375000    0.00195312  26 t-inv F
 -0.500000  0.250000 -0.125000    0.00195312  26 t-inv F
 -0.250000 -0.750000 -0.375000    0.00195312  26 t-inv F
 -0.500000 -0.125000  0.250000    0.00195312  26 t-inv F
 -0.250000 -0.375000 -0.750000    0.00195312  26 t-inv F
  0.750000  0.375000  0.500000    0.00195312  26 t-inv F
 -0.375000  0.125000  0.375000    0.00195312  26 t-inv F
  0.375000 -0.375000  0.125000    0.00195312  26 t-inv F
  0.125000  0.375000 -0.375000    0.00195312  26 t-inv F
  0.375000 -0.375000 -0.125000    0.00195312  26 t-inv F
 -0.125000  0.375000 -0.375000    0.00195312  26 t-inv F
 -0.375000 -0.125000  0.375000    0.00195312  26 t-inv F
  0.375000  0.250000  0.750000    0.00195312  26 t-inv F
 -0.375000 -0.750000 -0.500000    0.00195312  26 t-inv F
  0.125000  0.500000 -0.250000    0.00195312  26 t-inv F
 -0.250000  0.500000  0.125000    0.00195312  26 t-inv F
  0.750000  0.250000  0.375000    0.00195312  26 t-inv F
 -0.500000 -0.750000 -0.375000    0.00195312  26 t-inv F
 -0.500000 -0.375000 -0.750000    0.00195312  26 t-inv F
 -0.250000  0.125000  0.500000    0.00195312  26 t-inv F
  0.750000  0.375000  0.250000    0.00195312  26 t-inv F
  0.125000 -0.250000  0.500000    0.00195312  26 t-inv F
  0.375000  0.750000  0.250000    0.00195312  26 t-inv F
 -0.375000 -0.500000 -0.750000    0.00195312  26 t-inv F
 -0.750000 -0.500000 -0.375000    0.00195312  26 t-inv F
  0.500000 -0.250000  0.125000    0.00195312  26 t-inv F
  0.250000  0.750000  0.375000    0.00195312  26 t-inv F
  0.500000  0.125000 -0.250000    0.00195312  26 t-inv F
  0.250000  0.375000  0.750000    0.00195312  26 t-inv F
 -0.750000 -0.375000 -0.500000    0.00195312  26 t-inv F
  0.375000 -0.125000 -0.375000    0.00195312  26 t-inv F
 -0.375000  0.375000 -0.125000    0.00195312  26 t-inv F
 -0.125000 -0.375000  0.375000    0.00195312  26 t-inv F
  0.125000 -0.250000  0.375000    0.00195312  27 t-inv F
  0.375000  0.125000 -0.250000    0.00195312  27 t-inv F
 -0.375000 -0.250000 -0.625000    0.00195312  27 t-inv F
  0.250000  0.625000  0.375000    0.00195312  27 t-inv F
 -0.125000 -0.375000  0.250000    0.00195312  27 t-inv F
  0.250000 -0.375000 -0.125000    0.00195312  27 t-inv F
 -0.625000 -0.250000 -0.375000    0.00195312  27 t-inv F
  0.375000  0.625000  0.250000    0.00195312  27 t-inv F
  0.375000  0.250000  0.625000    0.00195312  27 t-inv F
  0.250000 -0.125000 -0.375000    0.00195312  27 t-inv F
 -0.625000 -0.375000 -0.250000    0.00195312  27 t-inv F
 -0.125000  0.250000 -0.375000    0.00195312  27 t-inv F
 -0.375000 -0.625000 -0.250000    0.00195312  27 t-inv F
  0.250000  0.375000  0.625000    0.00195312  27 t-inv F
  0.625000  0.375000  0.250000    0.00195312  27 t-inv F
 -0.375000  0.250000 -0.125000    0.00195312  27 t-inv F
 -0.250000 -0.625000 -0.375000    0.00195312  27 t-inv F
 -0.375000 -0.125000  0.250000    0.00195312  27 t-inv F
 -0.250000 -0.375000 -0.625000    0.00195312  27 t-inv F
  0.625000  0.250000  0.375000    0.00195312  27 t-inv F
 -0.250000  0.125000  0.375000    0.00195312  27 t-inv F
  0.375000 -0.250000  0.125000    0.00195312  27 t-inv F
  0.125000  0.375000 -0.250000    0.00195312  27 t-inv F
  0.125000 -0.375000  0.500000    0.00195312  28 t-inv F
  0.500000  0.125000 -0.375000    0.00195312  28 t-inv F
 -0.500000 -0.375000 -0.875000    0.00195312  28 t-inv F
  0.375000  0.875000  0.500000    0.00195312  28 t-inv F
 -0.125000 -0.500000  0.375000    0.00195312  28 t-inv F
  0.375000 -0.500000 -0.125000    0.00195312  28 t-inv F
  0.500000  0.875000  0.375000    0.00195312  28 t-inv F
  0.500000  0.375000  0.875000    0.00195312  28 t-inv F
 -0.875000 -0.500000 -0.375000    0.00195312  28 t-inv F
 -0.125000  0.375000 -0.500000    0.00195312  28 t-inv F
 -0.375000 -0.875000 -0.500000    0.00195312  28 t-inv F
  0.250000 -0.250000  0.500000    0.00195312  29 t-inv F
  0.500000  0.250000 -0.250000    0.00195312  29 t-inv F
 -0.500000 -0.250000 -0.750000    0.00195312  29 t-inv F
  0.250000 -0.500000 -0.250000    0.00195312  29 t-inv F
 -0.250000  0.250000 -0.500000    0.00195312  29 t-inv F


--------------------------------------------------------------------------------------------------------




 Dimension of arrays:
   k-points           NKPTS =    139   k-points in BZ     NKDIM =    622   number of bands    NBANDS=      9
   number of dos      NEDOS =    301   number of ions     NIONS =      2
   non local maximal  LDIM  =      4   non local SUM 2l+1 LMDIM =      8
   total plane-waves  NPLWV =  21952
   max r-space proj   IRMAX =      1   max aug-charges    IRDMAX= 143748
   dimension x,y,z NGX =    28 NGY =   28 NGZ =   28
   dimension x,y,z NGXF=    56 NGYF=   56 NGZF=   56
   support grid    NGXF=   112 NGYF=  112 NGZF=  112
   ions per type =               2
   NGX,Y,Z   is equivalent  to a cutoff of  12.04, 12.04, 12.04 a.u.
   NGXF,Y,Z  is equivalent  to a cutoff of  24.07, 24.07, 24.07 a.u.

 SYSTEM =  unknown system                          
 POSCAR =  Si diamond cubic                        

 Startparameter for this run:
   NWRITE =      2    write-flag & timer
   PREC   = accura    normal or accurate (medium, high low for compatibility)
   ISTART =      1    job   : 0-new  1-cont  2-samecut
   ICHARG =     11    charge: 1-file 2-atom 10-const
   ISPIN  =      1    spin polarized calculation?
   LNONCOLLINEAR =      F non collinear calculations
   LSORBIT =      F    spin-orbit coupling
   INIWAV =      1    electr: 0-lowe 1-rand  2-diag
   LASPH  =      F    aspherical Exc in radial PAW
   METAGGA=      F    non-selfconsistent MetaGGA calc.

 Electronic Relaxation 1
   ENCUT  =  400.0 eV  29.40 Ry    5.42 a.u.   6.31  6.31  6.31*2*pi/ulx,y,z
   ENINI  =  400.0     initial cutoff
   ENAUG  =  322.1 eV  augmentation charge cutoff
   NELM   =    100;   NELMIN=  8; NELMDL=  0     # of ELM steps 
   EDIFF  = 0.1E-03   stopping-criterion for ELM
   LREAL  =      F    real-space projection
   NLSPLINE    = F    spline interpolate recip. space projectors
   LCOMPAT=      F    compatible to vasp.4.4
   GGA_COMPAT  = T    GGA compatible to vasp.4.4-vasp.4.6
   LMAXPAW     = -100 max onsite density
   LMAXMIX     =    2 max onsite mixed and CHGCAR
   VOSKOWN=      0    Vosko Wilk Nusair interpolation
   ROPT   =    0.00000
 Ionic relaxation
   EDIFFG = 0.1E-02   stopping-criterion for IOM
   NSW    =      0    number of steps for IOM
   NBLOCK =      1;   KBLOCK =      1    inner block; outer block 
   IBRION =     -1    ionic relax: 0-MD 1-quasi-New 2-CG
   NFREE  =      0    steps in history (QN), initial steepest desc. (CG)
   ISIF   =      0    stress and relaxation
   IWAVPR =     10    prediction:  0-non 1-charg 2-wave 3-comb
   ISYM   =      3    0-nonsym 1-usesym 2-fastsym
   LCORR  =      T    Harris-Foulkes like correction to forces

   POTIM  = 0.5000    time-step for ionic-motion
   TEIN   =    0.0    initial temperature
   TEBEG  =    0.0;   TEEND  =   0.0 temperature during run
   SMASS  =  -3.00    Nose mass-parameter (am)
   estimated Nose-frequenzy (Omega)   =  0.10E-29 period in steps =****** mass=  -0.342E-27a.u.
   SCALEE = 1.0000    scale energy and forces
   NPACO  =    256;   APACO  = 16.0  distance and # of slots for P.C.
   PSTRESS=    0.0 pullay stress

  Mass of Ions in am
   POMASS =  28.09
  Ionic Valenz
   ZVAL   =   4.00
  Atomic Wigner-Seitz radii
   RWIGS  =  -1.00
  virtual crystal weights 
   VCA    =   1.00
   NELECT =       8.0000    total number of electrons
   NUPDOWN=      -1.0000    fix difference up-down

 DOS related values:
   EMIN   =  10.00;   EMAX   =-10.00  energy-range for DOS
   EFERMI =   0.00
   ISMEAR =     0;   SIGMA  =   0.05  broadening in eV -4-tet -1-fermi 0-gaus

 Electronic relaxation 2 (details)
   IALGO  =     38    algorithm
   LDIAG  =      T    sub-space diagonalisation (order eigenvalues)
   LSUBROT=      F    optimize rotation matrix (better conditioning)
   TURBO    =      0    0=normal 1=particle mesh
   IRESTART =      0    0=no restart 2=restart with 2 vectors
   NREBOOT  =      0    no. of reboots
   NMIN     =      0    reboot dimension
   EREF     =   0.00    reference energy to select bands
   IMIX   =      1    mixing-type and parameters
     AMIX     =   0.40;   BMIX     =  1.00
     AMIX_MAG =   1.60;   BMIX_MAG =  1.00
     AMIN     =   0.10
     WC   =   100.;   INIMIX=   1;  MIXPRE=   1;  MAXMIX= -45

 Intra band minimization:
   WEIMIN = 0.0000     energy-eigenvalue tresh-hold
   EBREAK =  0.28E-05  absolut break condition
   DEPER  =   0.30     relativ break condition  

   TIME   =   0.40     timestep for ELM

  volume/ion in A,a.u.               =      20.45       138.00
  Fermi-wavevector in a.u.,A,eV,Ry     =   0.950312  1.795828 12.287313  0.903092
  Thomas-Fermi vector in A             =   2.078676

 Write flags
   LWAVE        =      T    write WAVECAR
   LDOWNSAMPLE  =      F    k-point downsampling of WAVECAR
   LCHARG       =      T    write CHGCAR
   LVTOT        =      F    write LOCPOT, total local potential
   LVHAR        =      F    write LOCPOT, Hartree potential only
   LELF         =      F    write electronic localiz. function (ELF)
   LORBIT       =     11    0 simple, 1 ext, 2 COOP (PROOUT), +10 PAW based schemes


 Dipole corrections
   LMONO  =      F    monopole corrections only (constant potential shift)
   LDIPOL =      F    correct potential (dipole corrections)
   IDIPOL =      0    1-x, 2-y, 3-z, 4-all directions 
   EPSILON=  1.0000000 bulk dielectric constant

 Exchange correlation treatment:
   GGA     =    --    GGA type
   LEXCH   =     8    internal setting for exchange type
   VOSKOWN=      0    Vosko Wilk Nusair interpolation
   EXXOEP  =     0    0=HF, 1=EXX-LHF (local Hartree Fock) 2=EXX OEP
   LHFCALC =     T    Hartree Fock is set to
   LSYMGRAD=     F    symmetrize gradient (conserves proper symmetry)
   PRECFOCK=fast      Normal, Fast or Accurate (Low or Medium for compatibility)
   LRHFCALC=     F    long range Hartree Fock
   LRSCOR  =     F    long range correlation only (use DFT for short range part)
   LTHOMAS =     F    Thomas Fermi screening in HF
   LMODELHF=     F    short range full HF, long range fraction AEXX
   ENCUT4O =  -1.0   cutoff for four orbital integrals eV
   LMAXFOCK=     4    L truncation for augmentation on plane wave grid
   LMAXFOCKAE=  -1    L truncation for all-electron charge restoration on plane wave grid
   NMAXFOCKAE=   1    number of basis functions for all-electron charge restoration
   LFOCKAEDFT=     F  apply the AE augmentation even for DFT
   NKREDX  =     1    reduce k-point grid by
   NKREDY  =     1    reduce k-point grid by
   NKREDZ  =     1    reduce k-point grid by
   SHIFTRED=     F    shift reduced grid of Gamma
   HFKIDENT=     F    idential grid for each k-point
   ODDONLY =     F    use only odd q-grid points
   EVENONLY=     F    use only even q-grid points
   HFALPHA =   -1.0000 decay constant for conv. correction
   MCALPHA =    0.0000 extent of test-charge in conv. correction in multipole expansion
   AEXX    =    0.2500 exact exchange contribution
   HFSCREEN=    0.2000 screening length (either q_TF or 0.3 A-1)
   HFSCREENC=   0.2000 screening length for correlation (either q_TF or 0.3 A-1)
   HFRCUT  =    0.0000 spherical cutoff for potential kernel
   ALDAX   =    0.7500 LDA exchange part
   AGGAX   =    0.7500 GGA exchange part
   ALDAC   =    1.0000 LDA correlation
   AGGAC   =    1.0000 GGA correlation
   ENCUTFOCK=  -1.0 apply spherical cutoff to Coloumb kernel
   NBANDSGWLOW=     1    first orbital included in HF term
   NBLOCK_FOCK=    64    blocking factor in FOCK_ACC
 Linear response parameters
   LEPSILON=     F    determine dielectric tensor
   LRPA    =     F    only Hartree local field effects (RPA)
   LNABLA  =     F    use nabla operator in PAW spheres
   LVEL    =     F    velocity operator in full k-point grid
   LINTERFAST=   F  fast interpolation
   KINTER  =     0    interpolate to denser k-point grid
   CSHIFT  =0.1000    complex shift for real part using Kramers Kronig
   OMEGAMAX=  -1.0    maximum frequency
   DEG_THRESHOLD= 0.2000000E-02 threshold for treating states as degnerate
   RTIME   =   -0.100 relaxation time in fs
  (WPLASMAI=    0.000 imaginary part of plasma frequency in eV, 0.658/RTIME)
   DFIELD  = 0.0000000 0.0000000 0.0000000 field for delta impulse in time

 Orbital magnetization related:
   ORBITALMAG=     F  switch on orbital magnetization
   LCHIMAG   =     F  perturbation theory with respect to B field
   DQ        =  0.001000  dq finite difference perturbation B field
   LLRAUG    =     F  two centre corrections for induced B field



--------------------------------------------------------------------------------------------------------


 Static calculation
 charge density and potential remain constant during run
 non-spin polarized calculation
 Variant of blocked Davidson
 Davidson routine will perform the subspace rotation
 perform sub-space diagonalisation
    after iterative eigenvector-optimisation
 no mixing
 using additional bands            5
 reciprocal scheme for non local part
 use partial core corrections
 calculate Harris-corrections to forces   (improved forces if not selfconsistent)
 use gradient corrections 
 WARNING: stress and forces are not correct
  (second derivative of E(xc) not defined)
 use of overlap-Matrix (Vanderbilt PP)
 Gauss-broadening in eV      SIGMA  =   0.05


--------------------------------------------------------------------------------------------------------


  energy-cutoff  :      400.00
  volume of cell :       40.90
      direct lattice vectors                 reciprocal lattice vectors
     0.000000000  2.734610537  2.734610537    -0.182841393  0.182841393  0.182841393
     2.734610537 -0.000000000  2.734610537     0.182841393 -0.182841393  0.182841393
     2.734610537  2.734610537  0.000000000     0.182841393  0.182841393 -0.182841393

  length of vectors
     3.867323309  3.867323309  3.867323309     0.316690582  0.316690582  0.316690582



 old parameters found on file WAVECAR:
  energy-cutoff  :      400.00
  volume of cell :       40.90
      direct lattice vectors                 reciprocal lattice vectors
     0.000000000  2.734610537  2.734610537    -0.182841393  0.182841393  0.182841393
     2.734610537 -0.000000000  2.734610537     0.182841393 -0.182841393  0.182841393
     2.734610537  2.734610537  0.000000000     0.182841393  0.182841393 -0.182841393

  length of vectors


 k-points in units of 2pi/SCALE and weight: 0.040   8   8   8   29  0.050  110    6 
   0.00000000  0.00000000  0.00000000       0.002
  -0.12412645  0.12412645  0.12412645       0.016
  -0.24825290  0.24825290  0.24825290       0.016
  -0.37237935  0.37237935  0.37237935       0.016
  -0.49650580  0.49650580  0.49650580       0.008
   0.00000000  0.00000000  0.24825290       0.012
  -0.12412645  0.12412645  0.37237935       0.047
  -0.24825290  0.24825290  0.49650580       0.047
  -0.37237935  0.37237935  0.62063225       0.047
   0.49650580 -0.49650580 -0.24825290       0.047
   0.37237935 -0.37237935 -0.12412645       0.047
   0.24825290 -0.24825290  0.00000000       0.023
   0.00000000  0.00000000  0.49650580       0.012
  -0.12412645  0.12412645  0.62063225       0.047
  -0.24825290  0.24825290  0.74475870       0.047
   0.62063225 -0.62063225 -0.12412645       0.047
   0.49650580 -0.49650580  0.00000000       0.023
   0.00000000  0.00000000  0.74475870       0.012
  -0.12412645  0.12412645  0.86888515       0.047
   0.74475870 -0.74475870  0.00000000       0.023
   0.00000000  0.00000000  0.99301161       0.006
   0.00000000  0.24825290  0.49650580       0.047
  -0.12412645  0.37237935  0.62063225       0.094
   0.74475870 -0.49650580 -0.24825290       0.047
  -0.00000000  0.24825290  0.74475870       0.047
   0.86888515 -0.62063225 -0.12412645       0.094
   0.74475870 -0.49650580 -0.00000000       0.047
   0.99301161 -0.74475870  0.00000000       0.023
   0.99301161 -0.49650580  0.00000000       0.012
   0.00000000  0.00000000  0.00000000       0.000
   0.00000000  0.04728627  0.00000000       0.000
   0.00000000  0.09457253  0.00000000       0.000
   0.00000000  0.14185880  0.00000000       0.000
   0.00000000  0.18914507  0.00000000       0.000
   0.00000000  0.23643133  0.00000000       0.000
   0.00000000  0.28371760  0.00000000       0.000
   0.00000000  0.33100387  0.00000000       0.000
   0.00000000  0.37829014  0.00000000       0.000
   0.00000000  0.42557640  0.00000000       0.000
   0.00000000  0.47286267  0.00000000       0.000
   0.00000000  0.52014894  0.00000000       0.000
   0.00000000  0.56743520  0.00000000       0.000
   0.00000000  0.61472147  0.00000000       0.000
   0.00000000  0.66200774  0.00000000       0.000
   0.00000000  0.70929400  0.00000000       0.000
   0.00000000  0.75658027  0.00000000       0.000
   0.00000000  0.80386654  0.00000000       0.000
   0.00000000  0.85115280  0.00000000       0.000
   0.00000000  0.89843907  0.00000000       0.000
   0.00000000  0.94572534  0.00000000       0.000
   0.00000000  0.99301161  0.00000000       0.000
   0.00000000  0.99301161  0.00000000       0.000
   0.04965058  0.99301161  0.00000000       0.000
   0.09930116  0.99301161 -0.00000000       0.000
   0.14895174  0.99301161  0.00000000       0.000
   0.19860232  0.99301161  0.00000000       0.000
   0.24825290  0.99301161  0.00000000       0.000
   0.29790348  0.99301161 -0.00000000       0.000
   0.34755406  0.99301161  0.00000000       0.000
   0.39720464  0.99301161  0.00000000       0.000
   0.44685522  0.99301161  0.00000000       0.000
   0.49650580  0.99301161  0.00000000       0.000
   0.49650580  0.99301161  0.00000000       0.000
   0.49650580  0.95991122  0.03310039       0.000
   0.49650580  0.92681083  0.06620077       0.000
   0.49650580  0.89371044  0.09930116       0.000
   0.49650580  0.86061006  0.13240155       0.000
   0.49650580  0.82750967  0.16550193       0.000
   0.49650580  0.79440928  0.19860232       0.000
   0.49650580  0.76130890  0.23170271       0.000
   0.49650580  0.72820851  0.26480309       0.000
   0.49650580  0.69510812  0.29790348       0.000
   0.49650580  0.66200774  0.33100387       0.000
   0.49650580  0.62890735  0.36410426       0.000
   0.49650580  0.59580696  0.39720464       0.000
   0.49650580  0.56270658  0.43030503       0.000
   0.49650580  0.52960619  0.46340542       0.000
   0.49650580  0.49650580  0.49650580       0.000
   0.49650580  0.49650580  0.49650580       0.000
   0.46892215  0.46892215  0.46892215       0.000
   0.44133849  0.44133849  0.44133849       0.000
   0.41375484  0.41375484  0.41375484       0.000
   0.38617118  0.38617118  0.38617118       0.000
   0.35858752  0.35858752  0.35858752       0.000
   0.33100387  0.33100387  0.33100387       0.000
   0.30342021  0.30342021  0.30342021       0.000
   0.27583656  0.27583656  0.27583656       0.000
   0.24825290  0.24825290  0.24825290       0.000
   0.22066925  0.22066925  0.22066925       0.000
   0.19308559  0.19308559  0.19308559       0.000
   0.16550193  0.16550193  0.16550193       0.000
   0.13791828  0.13791828  0.13791828       0.000
   0.11033462  0.11033462  0.11033462       0.000
   0.08275097  0.08275097  0.08275097       0.000
   0.05516731  0.05516731  0.05516731       0.000
   0.02758366  0.02758366  0.02758366       0.000
   0.00000000  0.00000000  0.00000000       0.000
   0.00000000  0.00000000  0.00000000       0.000
   0.03238081  0.03238081  0.00000000       0.000
   0.06476163  0.06476163 -0.00000000       0.000
   0.09714244  0.09714244  0.00000000       0.000
   0.12952325  0.12952325  0.00000000       0.000
   0.16190407  0.16190407 -0.00000000       0.000
   0.19428488  0.19428488  0.00000000       0.000
   0.22666569  0.22666569  0.00000000       0.000
   0.25904651  0.25904651  0.00000000       0.000
   0.29142732  0.29142732 -0.00000000       0.000
   0.32380813  0.32380813  0.00000000       0.000
   0.35618895  0.35618895  0.00000000       0.000
   0.38856976  0.38856976 -0.00000000       0.000
   0.42095057  0.42095057  0.00000000       0.000
   0.45333139  0.45333139  0.00000000       0.000
   0.48571220  0.48571220 -0.00000000       0.000
   0.51809301  0.51809301  0.00000000       0.000
   0.55047382  0.55047382  0.00000000       0.000
   0.58285464  0.58285464  0.00000000       0.000
   0.61523545  0.61523545  0.00000000       0.000
   0.64761626  0.64761626  0.00000000       0.000
   0.67999708  0.67999708  0.00000000       0.000
   0.71237789  0.71237789 -0.00000000       0.000
   0.74475870  0.74475870  0.00000000       0.000
   0.74475870  0.74475870  0.00000000       0.000
   0.70094937  0.75936182  0.00000000       0.000
   0.65714003  0.77396493  0.00000000       0.000
   0.61333070  0.78856804 -0.00000000       0.000
   0.56952136  0.80317115 -0.00000000       0.000
   0.52571203  0.81777426 -0.00000000       0.000
   0.48190269  0.83237738 -0.00000000       0.000
   0.43809336  0.84698049  0.00000000       0.000
   0.39428402  0.86158360  0.00000000       0.000
   0.35047468  0.87618671  0.00000000       0.000
   0.30666535  0.89078982  0.00000000       0.000
   0.26285601  0.90539293  0.00000000       0.000
   0.21904668  0.91999605  0.00000000       0.000
   0.17523734  0.93459916  0.00000000       0.000
   0.13142801  0.94920227  0.00000000       0.000
   0.08761867  0.96380538 -0.00000000       0.000
   0.04380934  0.97840849 -0.00000000       0.000
   0.00000000  0.99301161  0.00000000       0.000

 k-points in reciprocal lattice and weights: 0.040   8   8   8   29  0.050  110    6 
   0.00000000  0.00000000  0.00000000       0.002
   0.12500000  0.00000000  0.00000000       0.016
   0.25000000  0.00000000  0.00000000       0.016
   0.37500000  0.00000000  0.00000000       0.016
   0.50000000  0.00000000  0.00000000       0.008
   0.12500000  0.12500000  0.00000000       0.012
   0.25000000  0.12500000  0.00000000       0.047
   0.37500000  0.12500000  0.00000000       0.047
   0.50000000  0.12500000  0.00000000       0.047
  -0.37500000  0.12500000  0.00000000       0.047
  -0.25000000  0.12500000  0.00000000       0.047
  -0.12500000  0.12500000  0.00000000       0.023
   0.25000000  0.25000000  0.00000000       0.012
   0.37500000  0.25000000  0.00000000       0.047
   0.50000000  0.25000000  0.00000000       0.047
  -0.37500000  0.25000000  0.00000000       0.047
  -0.25000000  0.25000000  0.00000000       0.023
   0.37500000  0.37500000  0.00000000       0.012
   0.50000000  0.37500000  0.00000000       0.047
  -0.37500000  0.37500000  0.00000000       0.023
   0.50000000  0.50000000  0.00000000       0.006
   0.37500000  0.25000000  0.12500000       0.047
   0.50000000  0.25000000  0.12500000       0.094
  -0.37500000  0.25000000  0.12500000       0.047
   0.50000000  0.37500000  0.12500000       0.047
  -0.37500000  0.37500000  0.12500000       0.094
  -0.25000000  0.37500000  0.12500000       0.047
  -0.37500000  0.50000000  0.12500000       0.023
  -0.25000000  0.50000000  0.25000000       0.012
   0.00000000  0.00000000  0.00000000       0.000
   0.02380952  0.00000000  0.02380952       0.000
   0.04761905  0.00000000  0.04761905       0.000
   0.07142857  0.00000000  0.07142857       0.000
   0.09523810  0.00000000  0.09523810       0.000
   0.11904762  0.00000000  0.11904762       0.000
   0.14285714  0.00000000  0.14285714       0.000
   0.16666667  0.00000000  0.16666667       0.000
   0.19047619  0.00000000  0.19047619       0.000
   0.21428571  0.00000000  0.21428571       0.000
   0.23809524  0.00000000  0.23809524       0.000
   0.26190476  0.00000000  0.26190476       0.000
   0.28571429  0.00000000  0.28571429       0.000
   0.30952381  0.00000000  0.30952381       0.000
   0.33333333  0.00000000  0.33333333       0.000
   0.35714286  0.00000000  0.35714286       0.000
   0.38095238  0.00000000  0.38095238       0.000
   0.40476190  0.00000000  0.40476190       0.000
   0.42857143  0.00000000  0.42857143       0.000
   0.45238095  0.00000000  0.45238095       0.000
   0.47619048  0.00000000  0.47619048       0.000
   0.50000000  0.00000000  0.50000000       0.000
   0.50000000  0.00000000  0.50000000       0.000
   0.50000000  0.02500000  0.52500000       0.000
   0.50000000  0.05000000  0.55000000       0.000
   0.50000000  0.07500000  0.57500000       0.000
   0.50000000  0.10000000  0.60000000       0.000
   0.50000000  0.12500000  0.62500000       0.000
   0.50000000  0.15000000  0.65000000       0.000
   0.50000000  0.17500000  0.67500000       0.000
   0.50000000  0.20000000  0.70000000       0.000
   0.50000000  0.22500000  0.72500000       0.000
   0.50000000  0.25000000  0.75000000       0.000
   0.50000000  0.25000000  0.75000000       0.000
   0.50000000  0.26666667  0.73333333       0.000
   0.50000000  0.28333333  0.71666667       0.000
   0.50000000  0.30000000  0.70000000       0.000
   0.50000000  0.31666667  0.68333333       0.000
   0.50000000  0.33333333  0.66666667       0.000
   0.50000000  0.35000000  0.65000000       0.000
   0.50000000  0.36666667  0.63333333       0.000
   0.50000000  0.38333333  0.61666667       0.000
   0.50000000  0.40000000  0.60000000       0.000
   0.50000000  0.41666667  0.58333333       0.000
   0.50000000  0.43333333  0.56666667       0.000
   0.50000000  0.45000000  0.55000000       0.000
   0.50000000  0.46666667  0.53333333       0.000
   0.50000000  0.48333333  0.51666667       0.000
   0.50000000  0.50000000  0.50000000       0.000
   0.50000000  0.50000000  0.50000000       0.000
   0.47222222  0.47222222  0.47222222       0.000
   0.44444444  0.44444444  0.44444444       0.000
   0.41666667  0.41666667  0.41666667       0.000
   0.38888889  0.38888889  0.38888889       0.000
   0.36111111  0.36111111  0.36111111       0.000
   0.33333333  0.33333333  0.33333333       0.000
   0.30555556  0.30555556  0.30555556       0.000
   0.27777778  0.27777778  0.27777778       0.000
   0.25000000  0.25000000  0.25000000       0.000
   0.22222222  0.22222222  0.22222222       0.000
   0.19444444  0.19444444  0.19444444       0.000
   0.16666667  0.16666667  0.16666667       0.000
   0.13888889  0.13888889  0.13888889       0.000
   0.11111111  0.11111111  0.11111111       0.000
   0.08333333  0.08333333  0.08333333       0.000
   0.05555556  0.05555556  0.05555556       0.000
   0.02777778  0.02777778  0.02777778       0.000
   0.00000000  0.00000000  0.00000000       0.000
   0.00000000  0.00000000  0.00000000       0.000
   0.01630435  0.01630435  0.03260870       0.000
   0.03260870  0.03260870  0.06521739       0.000
   0.04891304  0.04891304  0.09782609       0.000
   0.06521739  0.06521739  0.13043478       0.000
   0.08152174  0.08152174  0.16304348       0.000
   0.09782609  0.09782609  0.19565217       0.000
   0.11413043  0.11413043  0.22826087       0.000
   0.13043478  0.13043478  0.26086957       0.000
   0.14673913  0.14673913  0.29347826       0.000
   0.16304348  0.16304348  0.32608696       0.000
   0.17934783  0.17934783  0.35869565       0.000
   0.19565217  0.19565217  0.39130435       0.000
   0.21195652  0.21195652  0.42391304       0.000
   0.22826087  0.22826087  0.45652174       0.000
   0.24456522  0.24456522  0.48913043       0.000
   0.26086957  0.26086957  0.52173913       0.000
   0.27717391  0.27717391  0.55434783       0.000
   0.29347826  0.29347826  0.58695652       0.000
   0.30978261  0.30978261  0.61956522       0.000
   0.32608696  0.32608696  0.65217391       0.000
   0.34239130  0.34239130  0.68478261       0.000
   0.35869565  0.35869565  0.71739130       0.000
   0.37500000  0.37500000  0.75000000       0.000
   0.37500000  0.37500000  0.75000000       0.000
   0.38235294  0.35294118  0.73529412       0.000
   0.38970588  0.33088235  0.72058824       0.000
   0.39705882  0.30882353  0.70588235       0.000
   0.40441176  0.28676471  0.69117647       0.000
   0.41176471  0.26470588  0.67647059       0.000
   0.41911765  0.24264706  0.66176471       0.000
   0.42647059  0.22058824  0.64705882       0.000
   0.43382353  0.19852941  0.63235294       0.000
   0.44117647  0.17647059  0.61764706       0.000
   0.44852941  0.15441176  0.60294118       0.000
   0.45588235  0.13235294  0.58823529       0.000
   0.46323529  0.11029412  0.57352941       0.000
   0.47058824  0.08823529  0.55882353       0.000
   0.47794118  0.06617647  0.54411765       0.000
   0.48529412  0.04411765  0.52941176       0.000
   0.49264706  0.02205882  0.51470588       0.000
   0.50000000  0.00000000  0.50000000       0.000

 position of ions in fractional coordinates (direct lattice) 
   0.00000000  0.00000000  0.00000000
   0.25000000  0.25000000  0.25000000

 position of ions in cartesian coordinates  (Angst):
   0.00000000  0.00000000  0.00000000
   1.36730527  1.36730527  1.36730527



--------------------------------------------------------------------------------------------------------


 k-point  1 :   0.0000 0.0000 0.0000  plane waves:     725
 k-point  2 :   0.1250 0.0000 0.0000  plane waves:     743
 k-point  3 :   0.2500 0.0000 0.0000  plane waves:     751
 k-point  4 :   0.3750 0.0000 0.0000  plane waves:     751
 k-point  5 :   0.5000 0.0000 0.0000  plane waves:     754
 k-point  6 :   0.1250 0.1250 0.0000  plane waves:     737
 k-point  7 :   0.2500 0.1250 0.0000  plane waves:     745
 k-point  8 :   0.3750 0.1250 0.0000  plane waves:     746
 k-point  9 :   0.5000 0.1250 0.0000  plane waves:     744
 k-point 10 :  -0.3750 0.1250 0.0000  plane waves:     745
 k-point 11 :  -0.2500 0.1250 0.0000  plane waves:     748
 k-point 12 :  -0.1250 0.1250 0.0000  plane waves:     753
 k-point 13 :   0.2500 0.2500 0.0000  plane waves:     729
 k-point 14 :   0.3750 0.2500 0.0000  plane waves:     741
 k-point 15 :   0.5000 0.2500 0.0000  plane waves:     739
 k-point 16 :  -0.3750 0.2500 0.0000  plane waves:     741
 k-point 17 :  -0.2500 0.2500 0.0000  plane waves:     754
 k-point 18 :   0.3750 0.3750 0.0000  plane waves:     741
 k-point 19 :   0.5000 0.3750 0.0000  plane waves:     745
 k-point 20 :  -0.3750 0.3750 0.0000  plane waves:     740
 k-point 21 :   0.5000 0.5000 0.0000  plane waves:     740
 k-point 22 :   0.3750 0.2500 0.1250  plane waves:     745
 k-point 23 :   0.5000 0.2500 0.1250  plane waves:     746
 k-point 24 :  -0.3750 0.2500 0.1250  plane waves:     740
 k-point 25 :   0.5000 0.3750 0.1250  plane waves:     734
 k-point 26 :  -0.3750 0.3750 0.1250  plane waves:     738
 k-point 27 :  -0.2500 0.3750 0.1250  plane waves:     740
 k-point 28 :  -0.3750 0.5000 0.1250  plane waves:     742
 k-point 29 :  -0.2500 0.5000 0.2500  plane waves:     744
 k-point 30 :   0.0000 0.0000 0.0000  plane waves:     725
 k-point 31 :   0.0238 0.0000 0.0238  plane waves:     729
 k-point 32 :   0.0476 0.0000 0.0476  plane waves:     733
 k-point 33 :   0.0714 0.0000 0.0714  plane waves:     733
 k-point 34 :   0.0952 0.0000 0.0952  plane waves:     733
 k-point 35 :   0.1190 0.0000 0.1190  plane waves:     737
 k-point 36 :   0.1429 0.0000 0.1429  plane waves:     753
 k-point 37 :   0.1667 0.0000 0.1667  plane waves:     737
 k-point 38 :   0.1905 0.0000 0.1905  plane waves:     745
 k-point 39 :   0.2143 0.0000 0.2143  plane waves:     745
 k-point 40 :   0.2381 0.0000 0.2381  plane waves:     729
 k-point 41 :   0.2619 0.0000 0.2619  plane waves:     729
 k-point 42 :   0.2857 0.0000 0.2857  plane waves:     729
 k-point 43 :   0.3095 0.0000 0.3095  plane waves:     733
 k-point 44 :   0.3333 0.0000 0.3333  plane waves:     749
 k-point 45 :   0.3571 0.0000 0.3571  plane waves:     745
 k-point 46 :   0.3810 0.0000 0.3810  plane waves:     749
 k-point 47 :   0.4048 0.0000 0.4048  plane waves:     749
 k-point 48 :   0.4286 0.0000 0.4286  plane waves:     745
 k-point 49 :   0.4524 0.0000 0.4524  plane waves:     741
 k-point 50 :   0.4762 0.0000 0.4762  plane waves:     740
 k-point 51 :   0.5000 0.0000 0.5000  plane waves:     740
 k-point 52 :   0.5000 0.0000 0.5000  plane waves:     740
 k-point 53 :   0.5000 0.0250 0.5250  plane waves:     740
 k-point 54 :   0.5000 0.0500 0.5500  plane waves:     744
 k-point 55 :   0.5000 0.0750 0.5750  plane waves:     746
 k-point 56 :   0.5000 0.1000 0.6000  plane waves:     746
 k-point 57 :   0.5000 0.1250 0.6250  plane waves:     742
 k-point 58 :   0.5000 0.1500 0.6500  plane waves:     742
 k-point 59 :   0.5000 0.1750 0.6750  plane waves:     738
 k-point 60 :   0.5000 0.2000 0.7000  plane waves:     734
 k-point 61 :   0.5000 0.2250 0.7250  plane waves:     738
 k-point 62 :   0.5000 0.2500 0.7500  plane waves:     744
 k-point 63 :   0.5000 0.2500 0.7500  plane waves:     744
 k-point 64 :   0.5000 0.2667 0.7333  plane waves:     734
 k-point 65 :   0.5000 0.2833 0.7167  plane waves:     734
 k-point 66 :   0.5000 0.3000 0.7000  plane waves:     738
 k-point 67 :   0.5000 0.3167 0.6833  plane waves:     736
 k-point 68 :   0.5000 0.3333 0.6667  plane waves:     734
 k-point 69 :   0.5000 0.3500 0.6500  plane waves:     734
 k-point 70 :   0.5000 0.3667 0.6333  plane waves:     740
 k-point 71 :   0.5000 0.3833 0.6167  plane waves:     746
 k-point 72 :   0.5000 0.4000 0.6000  plane waves:     742
 k-point 73 :   0.5000 0.4167 0.5833  plane waves:     748
 k-point 74 :   0.5000 0.4333 0.5667  plane waves:     742
 k-point 75 :   0.5000 0.4500 0.5500  plane waves:     742
 k-point 76 :   0.5000 0.4667 0.5333  plane waves:     744
 k-point 77 :   0.5000 0.4833 0.5167  plane waves:     750
 k-point 78 :   0.5000 0.5000 0.5000  plane waves:     754
 k-point 79 :   0.5000 0.5000 0.5000  plane waves:     754
 k-point 80 :   0.4722 0.4722 0.4722  plane waves:     754
 k-point 81 :   0.4444 0.4444 0.4444  plane waves:     751
 k-point 82 :   0.4167 0.4167 0.4167  plane waves:     757
 k-point 83 :   0.3889 0.3889 0.3889  plane waves:     751
 k-point 84 :   0.3611 0.3611 0.3611  plane waves:     751
 k-point 85 :   0.3333 0.3333 0.3333  plane waves:     751
 k-point 86 :   0.3056 0.3056 0.3056  plane waves:     751
 k-point 87 :   0.2778 0.2778 0.2778  plane waves:     757
 k-point 88 :   0.2500 0.2500 0.2500  plane waves:     751
 k-point 89 :   0.2222 0.2222 0.2222  plane waves:     745
 k-point 90 :   0.1944 0.1944 0.1944  plane waves:     739
 k-point 91 :   0.1667 0.1667 0.1667  plane waves:     748
 k-point 92 :   0.1389 0.1389 0.1389  plane waves:     740
 k-point 93 :   0.1111 0.1111 0.1111  plane waves:     737
 k-point 94 :   0.0833 0.0833 0.0833  plane waves:     737
 k-point 95 :   0.0556 0.0556 0.0556  plane waves:     731
 k-point 96 :   0.0278 0.0278 0.0278  plane waves:     731
 k-point 97 :   0.0000 0.0000 0.0000  plane waves:     725
 k-point 98 :   0.0000 0.0000 0.0000  plane waves:     725
 k-point 99 :   0.0163 0.0163 0.0326  plane waves:     731
 k-point ** :   0.0326 0.0326 0.0652  plane waves:     737
 k-point ** :   0.0489 0.0489 0.0978  plane waves:     737
 k-point ** :   0.0652 0.0652 0.1304  plane waves:     737
 k-point ** :   0.0815 0.0815 0.1630  plane waves:     739
 k-point ** :   0.0978 0.0978 0.1957  plane waves:     747
 k-point ** :   0.1141 0.1141 0.2283  plane waves:     753
 k-point ** :   0.1304 0.1304 0.2609  plane waves:     753
 k-point ** :   0.1467 0.1467 0.2935  plane waves:     749
 k-point ** :   0.1630 0.1630 0.3261  plane waves:     748
 k-point ** :   0.1793 0.1793 0.3587  plane waves:     740
 k-point ** :   0.1957 0.1957 0.3913  plane waves:     738
 k-point ** :   0.2120 0.2120 0.4239  plane waves:     742
 k-point ** :   0.2283 0.2283 0.4565  plane waves:     746
 k-point ** :   0.2446 0.2446 0.4891  plane waves:     746
 k-point ** :   0.2609 0.2609 0.5217  plane waves:     750
 k-point ** :   0.2772 0.2772 0.5543  plane waves:     744
 k-point ** :   0.2935 0.2935 0.5870  plane waves:     736
 k-point ** :   0.3098 0.3098 0.6196  plane waves:     736
 k-point ** :   0.3261 0.3261 0.6522  plane waves:     736
 k-point ** :   0.3424 0.3424 0.6848  plane waves:     734
 k-point ** :   0.3587 0.3587 0.7174  plane waves:     734
 k-point ** :   0.3750 0.3750 0.7500  plane waves:     740
 k-point ** :   0.3750 0.3750 0.7500  plane waves:     740
 k-point ** :   0.3824 0.3529 0.7353  plane waves:     734
 k-point ** :   0.3897 0.3309 0.7206  plane waves:     734
 k-point ** :   0.3971 0.3088 0.7059  plane waves:     736
 k-point ** :   0.4044 0.2868 0.6912  plane waves:     735
 k-point ** :   0.4118 0.2647 0.6765  plane waves:     735
 k-point ** :   0.4191 0.2426 0.6618  plane waves:     738
 k-point ** :   0.4265 0.2206 0.6471  plane waves:     741
 k-point ** :   0.4338 0.1985 0.6324  plane waves:     739
 k-point ** :   0.4412 0.1765 0.6176  plane waves:     742
 k-point ** :   0.4485 0.1544 0.6029  plane waves:     741
 k-point ** :   0.4559 0.1324 0.5882  plane waves:     743
 k-point ** :   0.4632 0.1103 0.5735  plane waves:     740
 k-point ** :   0.4706 0.0882 0.5588  plane waves:     742
 k-point ** :   0.4779 0.0662 0.5441  plane waves:     744
 k-point ** :   0.4853 0.0441 0.5294  plane waves:     742
 k-point ** :   0.4926 0.0221 0.5147  plane waves:     740
 k-point ** :   0.5000 0.0000 0.5000  plane waves:     740

 maximum and minimum number of plane-waves per node :       757      725

 maximum number of plane-waves:       757
 maximum index in each direction: 
   IXMAX=    6   IYMAX=    6   IZMAX=    6
   IXMIN=   -6   IYMIN=   -6   IZMIN=   -7


 serial   3D FFT for wavefunctions
 parallel 3D FFT for charge:
    minimum data exchange during FFTs selected (reduces bandwidth)


 FFT grid for exact exchange (Hartree Fock) 
  NGX = 16; NGY = 16; NGZ = 16


 Radii for the augmentation spheres in the non-local exchange
 for species   1 augmentation radius   1.335 (default was   0.989)
       energy cutoff for augmentation   1600.0
 Maximum index for augmentation-charges in exchange          959
  SETUP_FOCK is finished

 total amount of memory used by VASP MPI-rank0    54869. kBytes
=======================================================================

   base      :      30000. kBytes
   nonl-proj :       6776. kBytes
   fftplans  :       8897. kBytes
   grid      :       3818. kBytes
   one-center:          6. kBytes
   HF        :          4. kBytes
   nonlr-proj:        184. kBytes
   wavefun   :       5184. kBytes

     INWAV:  cpu time    1.7892: real time    1.7904
 initial charge density was supplied:
 number of electron       8.0000000 magnetization 
 keeping initial charge density in first step


--------------------------------------------------------------------------------------------------------


 Maximum index for augmentation-charges        48474 (set IRDMAX)


--------------------------------------------------------------------------------------------------------


 First call to EWALD:  gamma=   0.514
 Maximum number of real-space cells 3x 3x 3
 Maximum number of reciprocal cells 3x 3x 3

    FEWALD:  cpu time    0.0009: real time    0.0009


--------------------------------------- Iteration      1(   1)  ---------------------------------------


    POTLOK:  cpu time    0.1727: real time    0.1728
    SETDIJ:  cpu time    0.1171: real time    0.1182
     EDDAV:  cpu time  920.0120: real time  921.8207
       DOS:  cpu time    0.0012: real time    0.0014
    --------------------------------------------
      LOOP:  cpu time  920.3030: real time  922.1131

 eigenvalue-minimisations  :  3267
 total energy-change (2. order) :-0.1257926E+02  (-0.4146718E-03)
 number of electron       8.0000000 magnetization 
 augmentation part        8.0000000 magnetization 

 Free energy of the ion-electron system (eV)
  ---------------------------------------------------
  alpha Z        PSCENC =         3.29228976
  Ewald energy   TEWEN  =      -226.92444198
  -Hartree energ DENC   =       -15.21642401
  -exchange      EXHF   =        11.21948035
  -V(xc)+E(xc)   XCENC  =       -14.44370615
  PAW double counting   =      1618.92385455    -1591.27360753
  entropy T*S    EENTRO =        -0.00000000
  eigenvalues    EBANDS =        -2.15403600
  atomic energy  EATOM  =       203.99733562
  Solvation  Ediel_sol  =         0.00000000
  ---------------------------------------------------
  free energy    TOTEN  =       -12.57925539 eV

  energy without entropy =      -12.57925539  energy(sigma->0) =      -12.57925539
  exchange ACFDT corr.  =        -0.00000000  see jH, gK, PRB 81, 115126


--------------------------------------------------------------------------------------------------------




--------------------------------------- Iteration      1(   2)  ---------------------------------------


     EDDAV:  cpu time  767.0171: real time  767.4077
       DOS:  cpu time    0.0006: real time    0.0008
    --------------------------------------------
      LOOP:  cpu time  767.0177: real time  767.4085

 eigenvalue-minimisations  :  2664
 total energy-change (2. order) :-0.1271633E-04  (-0.9886532E-05)
 number of electron       8.0000000 magnetization 
 augmentation part        8.0000000 magnetization 

 Free energy of the ion-electron system (eV)
  ---------------------------------------------------
  alpha Z        PSCENC =         3.29228976
  Ewald energy   TEWEN  =      -226.92444198
  -Hartree energ DENC   =       -15.21642401
  -exchange      EXHF   =        11.22210151
  -V(xc)+E(xc)   XCENC  =       -14.44370615
  PAW double counting   =      1618.92385455    -1591.27360753
  entropy T*S    EENTRO =        -0.00000000
  eigenvalues    EBANDS =        -2.15666988
  atomic energy  EATOM  =       203.99733562
  Solvation  Ediel_sol  =         0.00000000
  ---------------------------------------------------
  free energy    TOTEN  =       -12.57926810 eV

  energy without entropy =      -12.57926810  energy(sigma->0) =      -12.57926810
  exchange ACFDT corr.  =        -0.00000000  see jH, gK, PRB 81, 115126


--------------------------------------------------------------------------------------------------------




--------------------------------------- Iteration      1(   3)  ---------------------------------------


     EDDAV:  cpu time 1018.6826: real time 1020.1406
       DOS:  cpu time    0.0007: real time    0.0007
    --------------------------------------------
      LOOP:  cpu time 1018.6833: real time 1020.1413

 eigenvalue-minimisations  :  3546
 total energy-change (2. order) :-0.6649033E-06  (-0.3565189E-06)
 number of electron       8.0000000 magnetization 
 augmentation part        8.0000000 magnetization 

 Free energy of the ion-electron system (eV)
  ---------------------------------------------------
  alpha Z        PSCENC =         3.29228976
  Ewald energy   TEWEN  =      -226.92444198
  -Hartree energ DENC   =       -15.21642401
  -exchange      EXHF   =        11.22251129
  -V(xc)+E(xc)   XCENC  =       -14.44370615
  PAW double counting   =      1618.92385455    -1591.27360753
  entropy T*S    EENTRO =        -0.00000000
  eigenvalues    EBANDS =        -2.15708033
  atomic energy  EATOM  =       203.99733562
  Solvation  Ediel_sol  =         0.00000000
  ---------------------------------------------------
  free energy    TOTEN  =       -12.57926877 eV

  energy without entropy =      -12.57926877  energy(sigma->0) =      -12.57926877
  exchange ACFDT corr.  =        -0.00000000  see jH, gK, PRB 81, 115126


--------------------------------------------------------------------------------------------------------




--------------------------------------- Iteration      1(   4)  ---------------------------------------


     EDDAV:  cpu time  846.0321: real time  847.5145
       DOS:  cpu time    0.0008: real time    0.0009
    --------------------------------------------
      LOOP:  cpu time  846.0329: real time  847.5154

 eigenvalue-minimisations  :  2871
 total energy-change (2. order) :-0.3599061E-07  (-0.5129094E-07)
 number of electron       8.0000000 magnetization 
 augmentation part        8.0000000 magnetization 

 Free energy of the ion-electron system (eV)
  ---------------------------------------------------
  alpha Z        PSCENC =         3.29228976
  Ewald energy   TEWEN  =      -226.92444198
  -Hartree energ DENC   =       -15.21642401
  -exchange      EXHF   =        11.22257327
  -V(xc)+E(xc)   XCENC  =       -14.44370615
  PAW double counting   =      1618.92385455    -1591.27360753
  entropy T*S    EENTRO =        -0.00000000
  eigenvalues    EBANDS =        -2.15714234
  atomic energy  EATOM  =       203.99733562
  Solvation  Ediel_sol  =         0.00000000
  ---------------------------------------------------
  free energy    TOTEN  =       -12.57926881 eV

  energy without entropy =      -12.57926881  energy(sigma->0) =      -12.57926881
  exchange ACFDT corr.  =        -0.00000000  see jH, gK, PRB 81, 115126


--------------------------------------------------------------------------------------------------------




------------------------ aborting loop because hard stop was set ---------------------------------------





 total charge     

# of ion       s       p       d       tot
------------------------------------------
    1        0.759   0.948   0.000   1.708
    2        0.759   0.948   0.000   1.708
--------------------------------------------------
tot          1.518   1.897   0.000   3.415

    CHARGE:  cpu time    0.3325: real time    0.3326
    FORLOC:  cpu time    0.0017: real time    0.0017
    FORHF :  cpu time  213.2090: real time  213.3581
    FORNL :  cpu time    0.2373: real time    0.2374
    FORCOR:  cpu time    0.3182: real time    0.3185
    FORHAR:  cpu time    0.0112: real time    0.0112
    OFIELD:  cpu time    0.0001: real time    0.0001

 VOLUME and BASIS-vectors are now :
 -----------------------------------------------------------------------------
  energy-cutoff  :      400.00
  volume of cell :       40.90
      direct lattice vectors                 reciprocal lattice vectors
     0.000000000  2.734610537  2.734610537    -0.182841393  0.182841393  0.182841393
     2.734610537 -0.000000000  2.734610537     0.182841393 -0.182841393  0.182841393
     2.734610537  2.734610537  0.000000000     0.182841393  0.182841393 -0.182841393

  length of vectors
     3.867323309  3.867323309  3.867323309     0.316690582  0.316690582  0.316690582


 FORCES acting on ions
    electron-ion (+dipol)            ewald-force                    non-local-force                 convergence-correction
 -----------------------------------------------------------------------------------------------
   -.586E-05 0.113E-05 -.154E-05   0.106E-13 0.570E-14 0.821E-14   0.125E-15 0.833E-16 0.677E-16   -.266E-05 0.724E-05 0.152E-05
   0.492E-05 -.175E-05 0.234E-05   -.107E-13 -.552E-14 -.778E-14   -.132E-15 -.902E-16 -.659E-16   -.213E-04 0.124E-04 -.108E-04
 -----------------------------------------------------------------------------------------------
   -.939E-06 -.625E-06 0.796E-06   -.730E-16 0.179E-15 0.425E-15   -.694E-17 -.694E-17 0.173E-17   -.240E-04 0.197E-04 -.923E-05


 POSITION                                       TOTAL-FORCE (eV/Angst)
 -----------------------------------------------------------------------------------
      0.00000      0.00000      0.00000         0.000000      0.000000      0.000000
      1.36731      1.36731      1.36731        -0.000000     -0.000000     -0.000000
 -----------------------------------------------------------------------------------
    total drift:                               -0.000025      0.000019     -0.000008


--------------------------------------------------------------------------------------------------------



  FREE ENERGIE OF THE ION-ELECTRON SYSTEM (eV)
  ---------------------------------------------------
  free  energy   TOTEN  =       -12.57926881 eV

  energy  without entropy=      -12.57926881  energy(sigma->0) =      -12.57926881



--------------------------------------------------------------------------------------------------------


    POTLOK:  cpu time    0.2429: real time    0.2429


--------------------------------------------------------------------------------------------------------


 writing wavefunctions
     LOOP+:  cpu time 3766.6318: real time 3771.9231
    4ORBIT:  cpu time    0.0000: real time    0.0000



 total charge     

# of ion       s       p       d       tot
------------------------------------------
    1        0.759   0.948   0.000   1.708
    2        0.759   0.948   0.000   1.708
--------------------------------------------------
tot          1.518   1.897   0.000   3.415


 total amount of memory used by VASP MPI-rank0    54968. kBytes
=======================================================================

   base      :      30000. kBytes
   nonl-proj :       6776. kBytes
   fftplans  :       8897. kBytes
   grid      :       3818. kBytes
   one-center:          6. kBytes
   HF        :          4. kBytes
   nonlr-proj:        283. kBytes
   wavefun   :       5184. kBytes

  
  
 General timing and accounting informations for this job:
 ========================================================
  
                  Total CPU time used (sec):     3904.793
                            User time (sec):     3901.241
                          System time (sec):        3.552
                         Elapsed time (sec):     3910.664
  
                   Maximum memory used (kb):      206340.
                   Average memory used (kb):           0.
  
                          Minor page faults:        52770
                          Major page faults:            0
                 Voluntary context switches:          505
