PROCAR lm decomposed
# of k-points:  139         # of bands:    9         # of ions:    2

 k-point     1 :    0.00000000 0.00000000 0.00000000     weight = 0.00195312

band     1 # energy   -7.89175454 # occ.  2.00000000

ion      s     py     pz     px    dxy    dyz    dz2    dxz  x2-y2    tot
    1  0.218  0.000  0.000  0.000  0.000  0.000  0.000  0.000  0.000  0.218
    2  0.218  0.000  0.000  0.000  0.000  0.000  0.000  0.000  0.000  0.218
tot    0.436  0.000  0.000  0.000  0.000  0.000  0.000  0.000  0.000  0.436

band     2 # energy    5.25325951 # occ.  2.00000000

ion      s     py     pz     px    dxy    dyz    dz2    dxz  x2-y2    tot
    1  0.000  0.099  0.075  0.042  0.000  0.000  0.000  0.000  0.000  0.215
    2  0.000  0.099  0.075  0.042  0.000  0.000  0.000  0.000  0.000  0.215
tot    0.000  0.197  0.149  0.084  0.000  0.000  0.000  0.000  0.000  0.430

band     3 # energy    5.25326586 # occ.  2.00000000

ion      s     py     pz     px    dxy    dyz    dz2    dxz  x2-y2    tot
    1  0.000  0.035  0.009  0.171  0.000  0.000  0.000  0.000  0.000  0.215
    2  0.000  0.035  0.009  0.171  0.000  0.000  0.000  0.000  0.000  0.215
tot    0.000  0.070  0.018  0.342  0.000  0.000  0.000  0.000  0.000  0.430

band     4 # energy    5.25326747 # occ.  2.00000000

ion      s     py     pz     px    dxy    dyz    dz2    dxz  x2-y2    tot
    1  0.000  0.081  0.131  0.002  0.000  0.000  0.000  0.000  0.000  0.215
    2  0.000  0.081  0.131  0.002  0.000  0.000  0.000  0.000  0.000  0.215
tot    0.000  0.163  0.263  0.004  0.000  0.000  0.000  0.000  0.000  0.430

band     5 # energy    8.58137499 # occ.  0.00000000

ion      s     py     pz     px    dxy    dyz    dz2    dxz  x2-y2    tot
    1  0.000  0.092  0.056  0.001  0.000  0.000  0.000  0.000  0.000  0.150
    2  0.000  0.092  0.056  0.001  0.000  0.000  0.000  0.000  0.000  0.150
tot    0.000  0.184  0.113  0.002  0.000  0.000  0.000  0.000  0.000  0.300

band     6 # energy    8.58137759 # occ.  0.00000000

ion      s     py     pz     px    dxy    dyz    dz2    dxz  x2-y2    tot
    1  0.000  0.010  0.031  0.109  0.000  0.000  0.000  0.000  0.000  0.150
    2  0.000  0.010  0.031  0.109  0.000  0.000  0.000  0.000  0.000  0.150
tot    0.000  0.020  0.062  0.218  0.000  0.000  0.000  0.000  0.000  0.300

band     7 # energy    8.58138366 # occ.  0.00000000

ion      s     py     pz     px    dxy    dyz    dz2    dxz  x2-y2    tot
    1  0.000  0.048  0.062  0.040  0.000  0.000  0.000  0.000  0.000  0.150
    2  0.000  0.048  0.062  0.040  0.000  0.000  0.000  0.000  0.000  0.150
tot    0.000  0.096  0.125  0.079  0.000  0.000  0.000  0.000  0.000  0.300

band     8 # energy    9.32328739 # occ.  0.00000000

ion      s     py     pz     px    dxy    dyz    dz2    dxz  x2-y2    tot
    1  0.365  0.000  0.000  0.000  0.000  0.000  0.000  0.000  0.000  0.365
    2  0.365  0.000  0.000  0.000  0.000  0.000  0.000  0.000  0.000  0.365
tot    0.731  0.000  0.000  0.000  0.000  0.000  0.000  0.000  0.000  0.731

band     9 # energy   13.97201618 # occ.  0.00000000

ion      s     py     pz     px    dxy    dyz    dz2    dxz  x2-y2    tot
    1  0.102  0.000  0.000  0.000  0.000  0.000  0.000  0.000  0.000  0.102
    2  0.102  0.000  0.000  0.000  0.000  0.000  0.000  0.000  0.000  0.102
tot    0.203  0.000  0.000  0.000  0.000  0.000  0.000  0.000  0.000  0.203


 k-point     2 :    0.12500000 0.00000000 0.00000000     weight = 0.01562500

band     1 # energy   -7.66945990 # occ.  2.00000000

ion      s     py     pz     px    dxy    dyz    dz2    dxz  x2-y2    tot
    1  0.217  0.001  0.001  0.001  0.000  0.000  0.000  0.000  0.000  0.219
    2  0.217  0.001  0.001  0.001  0.000  0.000  0.000  0.000  0.000  0.219
tot    0.434  0.001  0.001  0.001  0.000  0.000  0.000  0.000  0.000  0.439

band     2 # energy    3.56523429 # occ.  2.00000000

ion      s     py     pz     px    dxy    dyz    dz2    dxz  x2-y2    tot
    1  0.060  0.053  0.053  0.053  0.000  0.000  0.000  0.000  0.000  0.221
    2  0.060  0.053  0.053  0.053  0.000  0.000  0.000  0.000  0.000  0.221
tot    0.120  0.107  0.107  0.107  0.000  0.000  0.000  0.000  0.000  0.441

band     3 # energy    4.95907349 # occ.  2.00000000

ion      s     py     pz     px    dxy    dyz    dz2    dxz  x2-y2    tot
    1  0.000  0.068  0.134  0.011  0.000  0.000  0.000  0.000  0.000  0.213
    2  0.000  0.068  0.134  0.011  0.000  0.000  0.000  0.000  0.000  0.213
tot    0.000  0.136  0.268  0.022  0.000  0.000  0.000  0.000  0.000  0.426

band     4 # energy    4.95907847 # occ.  2.00000000

ion      s     py     pz     px    dxy    dyz    dz2    dxz  x2-y2    tot
    1  0.000  0.074  0.008  0.131  0.000  0.000  0.000  0.000  0.000  0.213
    2  0.000  0.074  0.008  0.131  0.000  0.000  0.000  0.000  0.000  0.213
tot    0.000  0.148  0.016  0.262  0.000  0.000  0.000  0.000  0.000  0.426

band     5 # energy    8.47122040 # occ.  0.00000000

ion      s     py     pz     px    dxy    dyz    dz2    dxz  x2-y2    tot
    1  0.104  0.030  0.030  0.030  0.000  0.000  0.000  0.000  0.000  0.194
    2  0.104  0.030  0.030  0.030  0.000  0.000  0.000  0.000  0.000  0.194
tot    0.207  0.060  0.060  0.060  0.000  0.000  0.000  0.000  0.000  0.387

band     6 # energy    9.02091915 # occ.  0.00000000

ion      s     py     pz     px    dxy    dyz    dz2    dxz  x2-y2    tot
    1  0.000  0.066  0.001  0.086  0.000  0.000  0.000  0.000  0.000  0.153
    2  0.000  0.066  0.001  0.086  0.000  0.000  0.000  0.000  0.000  0.153
tot    0.000  0.131  0.003  0.171  0.000  0.000  0.000  0.000  0.000  0.305

band     7 # energy    9.02092502 # occ.  0.00000000

ion      s     py     pz     px    dxy    dyz    dz2    dxz  x2-y2    tot
    1  0.000  0.036  0.100  0.016  0.000  0.000  0.000  0.000  0.000  0.153
    2  0.000  0.036  0.100  0.016  0.000  0.000  0.000  0.000  0.000  0.153
tot    0.000  0.072  0.201  0.032  0.000  0.000  0.000  0.000  0.000  0.305

band     8 # energy   10.73570809 # occ.  0.00000000

ion      s     py     pz     px    dxy    dyz    dz2    dxz  x2-y2    tot
    1  0.214  0.030  0.030  0.030  0.000  0.000  0.000  0.000  0.000  0.305
    2  0.214  0.030  0.030  0.030  0.000  0.000  0.000  0.000  0.000  0.305
tot    0.428  0.060  0.060  0.060  0.000  0.000  0.000  0.000  0.000  0.609

band     9 # energy   13.51490866 # occ.  0.00000000

ion      s     py     pz     px    dxy    dyz    dz2    dxz  x2-y2    tot
    1  0.000  0.001  0.000  0.001  0.000  0.000  0.000  0.000  0.000  0.002
    2  0.000  0.001  0.000  0.001  0.000  0.000  0.000  0.000  0.000  0.002
tot    0.000  0.001  0.001  0.002  0.000  0.000  0.000  0.000  0.000  0.004


 k-point     3 :    0.25000000 0.00000000 0.00000000     weight = 0.01562500

band     1 # energy   -7.02051385 # occ.  2.00000000

ion      s     py     pz     px    dxy    dyz    dz2    dxz  x2-y2    tot
    1  0.215  0.003  0.003  0.003  0.000  0.000  0.000  0.000  0.000  0.223
    2  0.215  0.003  0.003  0.003  0.000  0.000  0.000  0.000  0.000  0.223
tot    0.430  0.005  0.005  0.005  0.000  0.000  0.000  0.000  0.000  0.446

band     2 # energy    0.99995875 # occ.  2.00000000

ion      s     py     pz     px    dxy    dyz    dz2    dxz  x2-y2    tot
    1  0.096  0.040  0.040  0.040  0.000  0.000  0.000  0.000  0.000  0.217
    2  0.096  0.040  0.040  0.040  0.000  0.000  0.000  0.000  0.000  0.217
tot    0.192  0.080  0.080  0.080  0.000  0.000  0.000  0.000  0.000  0.434

band     3 # energy    4.45266078 # occ.  2.00000000

ion      s     py     pz     px    dxy    dyz    dz2    dxz  x2-y2    tot
    1  0.000  0.076  0.130  0.007  0.000  0.000  0.000  0.000  0.000  0.213
    2  0.000  0.076  0.130  0.007  0.000  0.000  0.000  0.000  0.000  0.213
tot    0.000  0.152  0.260  0.014  0.000  0.000  0.000  0.000  0.000  0.426

band     4 # energy    4.45266479 # occ.  2.00000000

ion      s     py     pz     px    dxy    dyz    dz2    dxz  x2-y2    tot
    1  0.000  0.066  0.012  0.135  0.000  0.000  0.000  0.000  0.000  0.213
    2  0.000  0.066  0.012  0.135  0.000  0.000  0.000  0.000  0.000  0.213
tot    0.000  0.132  0.024  0.270  0.000  0.000  0.000  0.000  0.000  0.426

band     5 # energy    7.95152039 # occ.  0.00000000

ion      s     py     pz     px    dxy    dyz    dz2    dxz  x2-y2    tot
    1  0.156  0.016  0.016  0.016  0.000  0.000  0.000  0.000  0.000  0.204
    2  0.156  0.016  0.016  0.016  0.000  0.000  0.000  0.000  0.000  0.204
tot    0.313  0.032  0.032  0.032  0.000  0.000  0.000  0.000  0.000  0.408

band     6 # energy    9.57810832 # occ.  0.00000000

ion      s     py     pz     px    dxy    dyz    dz2    dxz  x2-y2    tot
    1  0.000  0.051  0.003  0.081  0.000  0.000  0.000  0.000  0.000  0.136
    2  0.000  0.051  0.003  0.081  0.000  0.000  0.000  0.000  0.000  0.136
tot    0.000  0.103  0.007  0.163  0.000  0.000  0.000  0.000  0.000  0.273

band     7 # energy    9.57811360 # occ.  0.00000000

ion      s     py     pz     px    dxy    dyz    dz2    dxz  x2-y2    tot
    1  0.000  0.039  0.087  0.009  0.000  0.000  0.000  0.000  0.000  0.136
    2  0.000  0.039  0.087  0.009  0.000  0.000  0.000  0.000  0.000  0.136
tot    0.000  0.079  0.175  0.019  0.000  0.000  0.000  0.000  0.000  0.273

band     8 # energy   13.07787011 # occ.  0.00000000

ion      s     py     pz     px    dxy    dyz    dz2    dxz  x2-y2    tot
    1  0.116  0.049  0.049  0.049  0.000  0.000  0.000  0.000  0.000  0.262
    2  0.116  0.048  0.049  0.049  0.000  0.000  0.000  0.000  0.000  0.262
tot    0.233  0.097  0.097  0.097  0.000  0.000  0.000  0.000  0.000  0.524

band     9 # energy   13.46067307 # occ.  0.00000000

ion      s     py     pz     px    dxy    dyz    dz2    dxz  x2-y2    tot
    1  0.000  0.001  0.005  0.010  0.000  0.000  0.000  0.000  0.000  0.017
    2  0.000  0.001  0.005  0.010  0.000  0.000  0.000  0.000  0.000  0.017
tot    0.000  0.003  0.011  0.020  0.000  0.000  0.000  0.000  0.000  0.034


 k-point     4 :    0.37500000 0.00000000 0.00000000     weight = 0.01562500

band     1 # energy   -6.04698058 # occ.  2.00000000

ion      s     py     pz     px    dxy    dyz    dz2    dxz  x2-y2    tot
    1  0.217  0.005  0.005  0.005  0.000  0.000  0.000  0.000  0.000  0.231
    2  0.217  0.005  0.005  0.005  0.000  0.000  0.000  0.000  0.000  0.231
tot    0.434  0.009  0.009  0.009  0.000  0.000  0.000  0.000  0.000  0.463

band     2 # energy   -1.23850830 # occ.  2.00000000

ion      s     py     pz     px    dxy    dyz    dz2    dxz  x2-y2    tot
    1  0.109  0.033  0.033  0.033  0.000  0.000  0.000  0.000  0.000  0.207
    2  0.109  0.033  0.033  0.033  0.000  0.000  0.000  0.000  0.000  0.207
tot    0.217  0.066  0.066  0.066  0.000  0.000  0.000  0.000  0.000  0.414

band     3 # energy    4.08781640 # occ.  2.00000000

ion      s     py     pz     px    dxy    dyz    dz2    dxz  x2-y2    tot
    1  0.000  0.083  0.128  0.005  0.000  0.000  0.000  0.000  0.000  0.216
    2  0.000  0.083  0.128  0.005  0.000  0.000  0.000  0.000  0.000  0.216
tot    0.000  0.165  0.256  0.010  0.000  0.000  0.000  0.000  0.000  0.431

band     4 # energy    4.08782002 # occ.  2.00000000

ion      s     py     pz     px    dxy    dyz    dz2    dxz  x2-y2    tot
    1  0.000  0.061  0.016  0.139  0.000  0.000  0.000  0.000  0.000  0.216
    2  0.000  0.061  0.016  0.139  0.000  0.000  0.000  0.000  0.000  0.216
tot    0.000  0.122  0.031  0.278  0.000  0.000  0.000  0.000  0.000  0.431

band     5 # energy    7.56065285 # occ.  0.00000000

ion      s     py     pz     px    dxy    dyz    dz2    dxz  x2-y2    tot
    1  0.180  0.009  0.009  0.009  0.000  0.000  0.000  0.000  0.000  0.206
    2  0.180  0.009  0.009  0.009  0.000  0.000  0.000  0.000  0.000  0.206
tot    0.360  0.017  0.017  0.017  0.000  0.000  0.000  0.000  0.000  0.412

band     6 # energy    9.52935246 # occ.  0.00000000

ion      s     py     pz     px    dxy    dyz    dz2    dxz  x2-y2    tot
    1  0.000  0.036  0.004  0.063  0.000  0.000  0.000  0.000  0.000  0.103
    2  0.000  0.036  0.004  0.063  0.000  0.000  0.000  0.000  0.000  0.103
tot    0.000  0.072  0.008  0.127  0.000  0.000  0.000  0.000  0.000  0.207

band     7 # energy    9.52935726 # occ.  0.00000000

ion      s     py     pz     px    dxy    dyz    dz2    dxz  x2-y2    tot
    1  0.000  0.033  0.065  0.005  0.000  0.000  0.000  0.000  0.000  0.103
    2  0.000  0.033  0.065  0.005  0.000  0.000  0.000  0.000  0.000  0.103
tot    0.000  0.066  0.130  0.011  0.000  0.000  0.000  0.000  0.000  0.207

band     8 # energy   14.03680506 # occ.  0.00000000

ion      s     py     pz     px    dxy    dyz    dz2    dxz  x2-y2    tot
    1  0.004  0.024  0.024  0.024  0.000  0.000  0.000  0.000  0.000  0.077
    2  0.004  0.024  0.024  0.024  0.000  0.000  0.000  0.000  0.000  0.077
tot    0.008  0.049  0.049  0.049  0.000  0.000  0.000  0.000  0.000  0.154

band     9 # energy   14.92241784 # occ.  0.00000000

ion      s     py     pz     px    dxy    dyz    dz2    dxz  x2-y2    tot
    1  0.000  0.014  0.016  0.011  0.000  0.000  0.000  0.000  0.000  0.042
    2  0.000  0.014  0.016  0.011  0.000  0.000  0.000  0.000  0.000  0.042
tot    0.000  0.029  0.033  0.022  0.000  0.000  0.000  0.000  0.000  0.083


 k-point     5 :    0.50000000 0.00000000 0.00000000     weight = 0.00781250

band     1 # energy   -5.35577599 # occ.  2.00000000

ion      s     py     pz     px    dxy    dyz    dz2    dxz  x2-y2    tot
    1  0.229  0.005  0.005  0.005  0.000  0.000  0.000  0.000  0.000  0.243
    2  0.229  0.005  0.005  0.005  0.000  0.000  0.000  0.000  0.000  0.243
tot    0.458  0.009  0.009  0.009  0.000  0.000  0.000  0.000  0.000  0.485

band     2 # energy   -2.36339951 # occ.  2.00000000

ion      s     py     pz     px    dxy    dyz    dz2    dxz  x2-y2    tot
    1  0.101  0.031  0.031  0.031  0.000  0.000  0.000  0.000  0.000  0.195
    2  0.101  0.031  0.031  0.031  0.000  0.000  0.000  0.000  0.000  0.195
tot    0.203  0.063  0.063  0.063  0.000  0.000  0.000  0.000  0.000  0.391

band     3 # energy    3.96105568 # occ.  2.00000000

ion      s     py     pz     px    dxy    dyz    dz2    dxz  x2-y2    tot
    1  0.000  0.085  0.128  0.004  0.000  0.000  0.000  0.000  0.000  0.217
    2  0.000  0.085  0.128  0.004  0.000  0.000  0.000  0.000  0.000  0.217
tot    0.000  0.170  0.255  0.009  0.000  0.000  0.000  0.000  0.000  0.434

band     4 # energy    3.96105921 # occ.  2.00000000

ion      s     py     pz     px    dxy    dyz    dz2    dxz  x2-y2    tot
    1  0.000  0.060  0.017  0.140  0.000  0.000  0.000  0.000  0.000  0.217
    2  0.000  0.060  0.017  0.140  0.000  0.000  0.000  0.000  0.000  0.217
tot    0.000  0.119  0.034  0.280  0.000  0.000  0.000  0.000  0.000  0.434

band     5 # energy    7.42381146 # occ.  0.00000000

ion      s     py     pz     px    dxy    dyz    dz2    dxz  x2-y2    tot
    1  0.188  0.006  0.006  0.006  0.000  0.000  0.000  0.000  0.000  0.207
    2  0.188  0.006  0.006  0.006  0.000  0.000  0.000  0.000  0.000  0.207
tot    0.375  0.013  0.013  0.013  0.000  0.000  0.000  0.000  0.000  0.414

band     6 # energy    9.41441110 # occ.  0.00000000

ion      s     py     pz     px    dxy    dyz    dz2    dxz  x2-y2    tot
    1  0.000  0.032  0.004  0.057  0.000  0.000  0.000  0.000  0.000  0.092
    2  0.000  0.032  0.004  0.057  0.000  0.000  0.000  0.000  0.000  0.092
tot    0.000  0.064  0.007  0.114  0.000  0.000  0.000  0.000  0.000  0.185

band     7 # energy    9.41441572 # occ.  0.00000000

ion      s     py     pz     px    dxy    dyz    dz2    dxz  x2-y2    tot
    1  0.000  0.030  0.058  0.005  0.000  0.000  0.000  0.000  0.000  0.092
    2  0.000  0.030  0.058  0.005  0.000  0.000  0.000  0.000  0.000  0.092
tot    0.000  0.060  0.116  0.009  0.000  0.000  0.000  0.000  0.000  0.185

band     8 # energy   13.85846709 # occ.  0.00000000

ion      s     py     pz     px    dxy    dyz    dz2    dxz  x2-y2    tot
    1  0.007  0.016  0.016  0.016  0.000  0.000  0.000  0.000  0.000  0.054
    2  0.007  0.016  0.016  0.016  0.000  0.000  0.000  0.000  0.000  0.054
tot    0.013  0.031  0.031  0.031  0.000  0.000  0.000  0.000  0.000  0.108

band     9 # energy   17.01298083 # occ.  0.00000000

ion      s     py     pz     px    dxy    dyz    dz2    dxz  x2-y2    tot
    1  0.000  0.000  0.000  0.000  0.000  0.000  0.000  0.000  0.000  0.000
    2  0.000  0.000  0.000  0.000  0.000  0.000  0.000  0.000  0.000  0.000
tot    0.000  0.000  0.000  0.000  0.000  0.000  0.000  0.000  0.000  0.000


 k-point     6 :    0.12500000 0.12500000 0.00000000     weight = 0.01171875

band     1 # energy   -7.59448092 # occ.  2.00000000

ion      s     py     pz     px    dxy    dyz    dz2    dxz  x2-y2    tot
    1  0.217  0.000  0.003  0.000  0.000  0.000  0.000  0.000  0.000  0.220
    2  0.217  0.000  0.003  0.000  0.000  0.000  0.000  0.000  0.000  0.220
tot    0.433  0.000  0.006  0.000  0.000  0.000  0.000  0.000  0.000  0.439

band     2 # energy    3.82885319 # occ.  2.00000000

ion      s     py     pz     px    dxy    dyz    dz2    dxz  x2-y2    tot
    1  0.092  0.000  0.151  0.000  0.000  0.000  0.000  0.000  0.000  0.243
    2  0.092  0.000  0.151  0.000  0.000  0.000  0.000  0.000  0.000  0.243
tot    0.185  0.000  0.302  0.000  0.000  0.000  0.000  0.000  0.000  0.487

band     3 # energy    4.42429726 # occ.  2.00000000

ion      s     py     pz     px    dxy    dyz    dz2    dxz  x2-y2    tot
    1  0.000  0.152  0.000  0.052  0.000  0.000  0.000  0.000  0.000  0.204
    2  0.000  0.084  0.000  0.120  0.000  0.000  0.000  0.000  0.000  0.204
tot    0.000  0.236  0.000  0.172  0.000  0.000  0.000  0.000  0.000  0.408

band     4 # energy    4.42429974 # occ.  2.00000000

ion      s     py     pz     px    dxy    dyz    dz2    dxz  x2-y2    tot
    1  0.000  0.052  0.000  0.152  0.000  0.000  0.000  0.000  0.000  0.204
    2  0.000  0.120  0.000  0.084  0.000  0.000  0.000  0.000  0.000  0.204
tot    0.000  0.172  0.000  0.236  0.000  0.000  0.000  0.000  0.000  0.408

band     5 # energy    7.97663400 # occ.  0.00000000

ion      s     py     pz     px    dxy    dyz    dz2    dxz  x2-y2    tot
    1  0.021  0.000  0.116  0.000  0.000  0.000  0.000  0.000  0.000  0.137
    2  0.021  0.000  0.116  0.000  0.000  0.000  0.000  0.000  0.000  0.137
tot    0.042  0.000  0.232  0.000  0.000  0.000  0.000  0.000  0.000  0.274

band     6 # energy    9.76039332 # occ.  0.00000000

ion      s     py     pz     px    dxy    dyz    dz2    dxz  x2-y2    tot
    1  0.000  0.115  0.000  0.046  0.000  0.000  0.000  0.000  0.000  0.161
    2  0.000  0.063  0.000  0.098  0.000  0.000  0.000  0.000  0.000  0.161
tot    0.000  0.177  0.000  0.144  0.000  0.000  0.000  0.000  0.000  0.321

band     7 # energy    9.76039610 # occ.  0.00000000

ion      s     py     pz     px    dxy    dyz    dz2    dxz  x2-y2    tot
    1  0.000  0.046  0.000  0.115  0.000  0.000  0.000  0.000  0.000  0.161
    2  0.000  0.098  0.000  0.063  0.000  0.000  0.000  0.000  0.000  0.161
tot    0.000  0.144  0.000  0.177  0.000  0.000  0.000  0.000  0.000  0.321

band     8 # energy   10.41700139 # occ.  0.00000000

ion      s     py     pz     px    dxy    dyz    dz2    dxz  x2-y2    tot
    1  0.232  0.000  0.071  0.000  0.000  0.000  0.000  0.000  0.000  0.302
    2  0.232  0.000  0.071  0.000  0.000  0.000  0.000  0.000  0.000  0.302
tot    0.463  0.000  0.142  0.000  0.000  0.000  0.000  0.000  0.000  0.605

band     9 # energy   12.70495862 # occ.  0.00000000

ion      s     py     pz     px    dxy    dyz    dz2    dxz  x2-y2    tot
    1  0.041  0.000  0.003  0.000  0.000  0.000  0.000  0.000  0.000  0.043
    2  0.041  0.000  0.003  0.000  0.000  0.000  0.000  0.000  0.000  0.043
tot    0.081  0.000  0.005  0.000  0.000  0.000  0.000  0.000  0.000  0.086


 k-point     7 :    0.25000000 0.12500000 0.00000000     weight = 0.04687500

band     1 # energy   -7.08360575 # occ.  2.00000000

ion      s     py     pz     px    dxy    dyz    dz2    dxz  x2-y2    tot
    1  0.215  0.001  0.006  0.001  0.000  0.000  0.000  0.000  0.000  0.222
    2  0.215  0.001  0.006  0.001  0.000  0.000  0.000  0.000  0.000  0.222
tot    0.429  0.001  0.013  0.001  0.000  0.000  0.000  0.000  0.000  0.445

band     2 # energy    1.76290087 # occ.  2.00000000

ion      s     py     pz     px    dxy    dyz    dz2    dxz  x2-y2    tot
    1  0.107  0.031  0.061  0.031  0.000  0.000  0.000  0.000  0.000  0.231
    2  0.107  0.031  0.061  0.031  0.000  0.000  0.000  0.000  0.000  0.231
tot    0.215  0.063  0.122  0.063  0.000  0.000  0.000  0.000  0.000  0.463

band     3 # energy    3.86669890 # occ.  2.00000000

ion      s     py     pz     px    dxy    dyz    dz2    dxz  x2-y2    tot
    1  0.000  0.101  0.000  0.101  0.000  0.000  0.000  0.000  0.000  0.202
    2  0.000  0.101  0.000  0.101  0.000  0.000  0.000  0.000  0.000  0.202
tot    0.000  0.202  0.000  0.202  0.000  0.000  0.000  0.000  0.000  0.405

band     4 # energy    3.96355373 # occ.  2.00000000

ion      s     py     pz     px    dxy    dyz    dz2    dxz  x2-y2    tot
    1  0.024  0.052  0.083  0.052  0.000  0.000  0.000  0.000  0.000  0.210
    2  0.024  0.052  0.083  0.052  0.000  0.000  0.000  0.000  0.000  0.210
tot    0.048  0.104  0.165  0.104  0.000  0.000  0.000  0.000  0.000  0.421

band     5 # energy    8.08854015 # occ.  0.00000000

ion      s     py     pz     px    dxy    dyz    dz2    dxz  x2-y2    tot
    1  0.035  0.011  0.082  0.011  0.000  0.000  0.000  0.000  0.000  0.139
    2  0.035  0.011  0.082  0.011  0.000  0.000  0.000  0.000  0.000  0.139
tot    0.070  0.022  0.164  0.022  0.000  0.000  0.000  0.000  0.000  0.277

band     6 # energy    9.75914155 # occ.  0.00000000

ion      s     py     pz     px    dxy    dyz    dz2    dxz  x2-y2    tot
    1  0.094  0.046  0.026  0.046  0.000  0.000  0.000  0.000  0.000  0.212
    2  0.094  0.046  0.026  0.046  0.000  0.000  0.000  0.000  0.000  0.212
tot    0.188  0.092  0.052  0.092  0.000  0.000  0.000  0.000  0.000  0.423

band     7 # energy   10.58118158 # occ.  0.00000000

ion      s     py     pz     px    dxy    dyz    dz2    dxz  x2-y2    tot
    1  0.000  0.077  0.000  0.077  0.000  0.000  0.000  0.000  0.000  0.153
    2  0.000  0.077  0.000  0.077  0.000  0.000  0.000  0.000  0.000  0.153
tot    0.000  0.153  0.000  0.153  0.000  0.000  0.000  0.000  0.000  0.307

band     8 # energy   10.84976978 # occ.  0.00000000

ion      s     py     pz     px    dxy    dyz    dz2    dxz  x2-y2    tot
    1  0.023  0.018  0.021  0.018  0.000  0.000  0.000  0.000  0.000  0.081
    2  0.023  0.018  0.021  0.018  0.000  0.000  0.000  0.000  0.000  0.081
tot    0.047  0.036  0.043  0.036  0.000  0.000  0.000  0.000  0.000  0.162

band     9 # energy   13.71786255 # occ.  0.00000000

ion      s     py     pz     px    dxy    dyz    dz2    dxz  x2-y2    tot
    1  0.112  0.018  0.055  0.018  0.000  0.000  0.000  0.000  0.000  0.202
    2  0.112  0.018  0.055  0.018  0.000  0.000  0.000  0.000  0.000  0.202
tot    0.224  0.035  0.110  0.035  0.000  0.000  0.000  0.000  0.000  0.404


 k-point     8 :    0.37500000 0.12500000 0.00000000     weight = 0.04687500

band     1 # energy   -6.19495686 # occ.  2.00000000

ion      s     py     pz     px    dxy    dyz    dz2    dxz  x2-y2    tot
    1  0.214  0.002  0.010  0.002  0.000  0.000  0.000  0.000  0.000  0.229
    2  0.214  0.002  0.010  0.002  0.000  0.000  0.000  0.000  0.000  0.229
tot    0.428  0.005  0.020  0.005  0.000  0.000  0.000  0.000  0.000  0.458

band     2 # energy   -0.51375794 # occ.  2.00000000

ion      s     py     pz     px    dxy    dyz    dz2    dxz  x2-y2    tot
    1  0.119  0.032  0.035  0.032  0.000  0.000  0.000  0.000  0.000  0.219
    2  0.119  0.032  0.035  0.032  0.000  0.000  0.000  0.000  0.000  0.219
tot    0.238  0.065  0.071  0.065  0.000  0.000  0.000  0.000  0.000  0.438

band     3 # energy    3.32512980 # occ.  2.00000000

ion      s     py     pz     px    dxy    dyz    dz2    dxz  x2-y2    tot
    1  0.033  0.036  0.104  0.036  0.000  0.000  0.000  0.000  0.000  0.208
    2  0.033  0.036  0.104  0.036  0.000  0.000  0.000  0.000  0.000  0.208
tot    0.067  0.071  0.207  0.071  0.000  0.000  0.000  0.000  0.000  0.417

band     4 # energy    3.56358805 # occ.  2.00000000

ion      s     py     pz     px    dxy    dyz    dz2    dxz  x2-y2    tot
    1  0.000  0.103  0.000  0.103  0.000  0.000  0.000  0.000  0.000  0.205
    2  0.000  0.103  0.000  0.103  0.000  0.000  0.000  0.000  0.000  0.205
tot    0.000  0.205  0.000  0.205  0.000  0.000  0.000  0.000  0.000  0.410

band     5 # energy    8.18561604 # occ.  0.00000000

ion      s     py     pz     px    dxy    dyz    dz2    dxz  x2-y2    tot
    1  0.074  0.007  0.059  0.007  0.000  0.000  0.000  0.000  0.000  0.148
    2  0.074  0.007  0.059  0.007  0.000  0.000  0.000  0.000  0.000  0.148
tot    0.148  0.015  0.117  0.015  0.000  0.000  0.000  0.000  0.000  0.295

band     6 # energy    9.69173088 # occ.  0.00000000

ion      s     py     pz     px    dxy    dyz    dz2    dxz  x2-y2    tot
    1  0.058  0.037  0.028  0.037  0.000  0.000  0.000  0.000  0.000  0.161
    2  0.058  0.037  0.028  0.037  0.000  0.000  0.000  0.000  0.000  0.161
tot    0.117  0.075  0.055  0.075  0.000  0.000  0.000  0.000  0.000  0.322

band     7 # energy   10.58887780 # occ.  0.00000000

ion      s     py     pz     px    dxy    dyz    dz2    dxz  x2-y2    tot
    1  0.000  0.060  0.000  0.060  0.000  0.000  0.000  0.000  0.000  0.119
    2  0.000  0.060  0.000  0.060  0.000  0.000  0.000  0.000  0.000  0.119
tot    0.000  0.119  0.000  0.119  0.000  0.000  0.000  0.000  0.000  0.238

band     8 # energy   11.61258948 # occ.  0.00000000

ion      s     py     pz     px    dxy    dyz    dz2    dxz  x2-y2    tot
    1  0.024  0.027  0.019  0.027  0.000  0.000  0.000  0.000  0.000  0.096
    2  0.024  0.027  0.019  0.027  0.000  0.000  0.000  0.000  0.000  0.096
tot    0.048  0.053  0.039  0.053  0.000  0.000  0.000  0.000  0.000  0.193

band     9 # energy   15.59278774 # occ.  0.00000000

ion      s     py     pz     px    dxy    dyz    dz2    dxz  x2-y2    tot
    1  0.004  0.019  0.024  0.018  0.000  0.000  0.000  0.000  0.000  0.065
    2  0.004  0.018  0.024  0.019  0.000  0.000  0.000  0.000  0.000  0.065
tot    0.008  0.037  0.049  0.037  0.000  0.000  0.000  0.000  0.000  0.130


 k-point     9 :    0.50000000 0.12500000 0.00000000     weight = 0.04687500

band     1 # energy   -5.25866991 # occ.  2.00000000

ion      s     py     pz     px    dxy    dyz    dz2    dxz  x2-y2    tot
    1  0.224  0.004  0.009  0.004  0.000  0.000  0.000  0.000  0.000  0.241
    2  0.224  0.004  0.009  0.004  0.000  0.000  0.000  0.000  0.000  0.241
tot    0.448  0.008  0.018  0.008  0.000  0.000  0.000  0.000  0.000  0.482

band     2 # energy   -2.12604470 # occ.  2.00000000

ion      s     py     pz     px    dxy    dyz    dz2    dxz  x2-y2    tot
    1  0.114  0.030  0.030  0.030  0.000  0.000  0.000  0.000  0.000  0.204
    2  0.114  0.030  0.030  0.030  0.000  0.000  0.000  0.000  0.000  0.204
tot    0.228  0.060  0.060  0.060  0.000  0.000  0.000  0.000  0.000  0.408

band     3 # energy    2.83700563 # occ.  2.00000000

ion      s     py     pz     px    dxy    dyz    dz2    dxz  x2-y2    tot
    1  0.035  0.033  0.105  0.033  0.000  0.000  0.000  0.000  0.000  0.205
    2  0.035  0.033  0.105  0.033  0.000  0.000  0.000  0.000  0.000  0.205
tot    0.070  0.065  0.210  0.065  0.000  0.000  0.000  0.000  0.000  0.410

band     4 # energy    3.57997549 # occ.  2.00000000

ion      s     py     pz     px    dxy    dyz    dz2    dxz  x2-y2    tot
    1  0.000  0.105  0.000  0.105  0.000  0.000  0.000  0.000  0.000  0.209
    2  0.000  0.105  0.000  0.105  0.000  0.000  0.000  0.000  0.000  0.209
tot    0.000  0.209  0.000  0.209  0.000  0.000  0.000  0.000  0.000  0.419

band     5 # energy    8.13417235 # occ.  0.00000000

ion      s     py     pz     px    dxy    dyz    dz2    dxz  x2-y2    tot
    1  0.100  0.003  0.053  0.003  0.000  0.000  0.000  0.000  0.000  0.158
    2  0.100  0.003  0.053  0.003  0.000  0.000  0.000  0.000  0.000  0.158
tot    0.200  0.005  0.105  0.005  0.000  0.000  0.000  0.000  0.000  0.316

band     6 # energy    9.54362205 # occ.  0.00000000

ion      s     py     pz     px    dxy    dyz    dz2    dxz  x2-y2    tot
    1  0.043  0.027  0.033  0.027  0.000  0.000  0.000  0.000  0.000  0.131
    2  0.043  0.027  0.033  0.027  0.000  0.000  0.000  0.000  0.000  0.131
tot    0.086  0.054  0.067  0.054  0.000  0.000  0.000  0.000  0.000  0.261

band     7 # energy   10.21287780 # occ.  0.00000000

ion      s     py     pz     px    dxy    dyz    dz2    dxz  x2-y2    tot
    1  0.000  0.050  0.000  0.050  0.000  0.000  0.000  0.000  0.000  0.100
    2  0.000  0.050  0.000  0.050  0.000  0.000  0.000  0.000  0.000  0.100
tot    0.000  0.100  0.000  0.100  0.000  0.000  0.000  0.000  0.000  0.201

band     8 # energy   13.62207759 # occ.  0.00000000

ion      s     py     pz     px    dxy    dyz    dz2    dxz  x2-y2    tot
    1  0.012  0.040  0.026  0.040  0.000  0.000  0.000  0.000  0.000  0.118
    2  0.012  0.040  0.026  0.040  0.000  0.000  0.000  0.000  0.000  0.118
tot    0.023  0.080  0.053  0.080  0.000  0.000  0.000  0.000  0.000  0.235

band     9 # energy   15.21758077 # occ.  0.00000000

ion      s     py     pz     px    dxy    dyz    dz2    dxz  x2-y2    tot
    1  0.010  0.011  0.026  0.011  0.000  0.000  0.000  0.000  0.000  0.057
    2  0.010  0.011  0.026  0.011  0.000  0.000  0.000  0.000  0.000  0.057
tot    0.020  0.021  0.051  0.021  0.000  0.000  0.000  0.000  0.000  0.114


 k-point    10 :   -0.37500000 0.12500000 0.00000000     weight = 0.04687500

band     1 # energy   -5.52367287 # occ.  2.00000000

ion      s     py     pz     px    dxy    dyz    dz2    dxz  x2-y2    tot
    1  0.219  0.007  0.003  0.007  0.000  0.000  0.000  0.000  0.000  0.237
    2  0.219  0.007  0.003  0.007  0.000  0.000  0.000  0.000  0.000  0.237
tot    0.439  0.014  0.007  0.014  0.000  0.000  0.000  0.000  0.000  0.473

band     2 # energy   -1.71920777 # occ.  2.00000000

ion      s     py     pz     px    dxy    dyz    dz2    dxz  x2-y2    tot
    1  0.118  0.028  0.036  0.028  0.000  0.000  0.000  0.000  0.000  0.209
    2  0.118  0.028  0.036  0.028  0.000  0.000  0.000  0.000  0.000  0.209
tot    0.235  0.056  0.071  0.056  0.000  0.000  0.000  0.000  0.000  0.418

band     3 # energy    2.64215004 # occ.  2.00000000

ion      s     py     pz     px    dxy    dyz    dz2    dxz  x2-y2    tot
    1  0.031  0.033  0.102  0.033  0.000  0.000  0.000  0.000  0.000  0.200
    2  0.031  0.033  0.102  0.033  0.000  0.000  0.000  0.000  0.000  0.200
tot    0.063  0.067  0.204  0.067  0.000  0.000  0.000  0.000  0.000  0.400

band     4 # energy    3.89645752 # occ.  2.00000000

ion      s     py     pz     px    dxy    dyz    dz2    dxz  x2-y2    tot
    1  0.000  0.107  0.000  0.107  0.000  0.000  0.000  0.000  0.000  0.214
    2  0.000  0.107  0.000  0.107  0.000  0.000  0.000  0.000  0.000  0.214
tot    0.000  0.214  0.000  0.214  0.000  0.000  0.000  0.000  0.000  0.428

band     5 # energy    8.30994896 # occ.  0.00000000

ion      s     py     pz     px    dxy    dyz    dz2    dxz  x2-y2    tot
    1  0.117  0.001  0.057  0.001  0.000  0.000  0.000  0.000  0.000  0.176
    2  0.117  0.001  0.057  0.001  0.000  0.000  0.000  0.000  0.000  0.176
tot    0.235  0.001  0.115  0.001  0.000  0.000  0.000  0.000  0.000  0.352

band     6 # energy    9.65270078 # occ.  0.00000000

ion      s     py     pz     px    dxy    dyz    dz2    dxz  x2-y2    tot
    1  0.027  0.021  0.046  0.021  0.000  0.000  0.000  0.000  0.000  0.116
    2  0.027  0.021  0.047  0.021  0.000  0.000  0.000  0.000  0.000  0.116
tot    0.054  0.043  0.093  0.043  0.000  0.000  0.000  0.000  0.000  0.233

band     7 # energy    9.97767854 # occ.  0.00000000

ion      s     py     pz     px    dxy    dyz    dz2    dxz  x2-y2    tot
    1  0.000  0.052  0.000  0.052  0.000  0.000  0.000  0.000  0.000  0.103
    2  0.000  0.052  0.000  0.052  0.000  0.000  0.000  0.000  0.000  0.103
tot    0.000  0.103  0.000  0.103  0.000  0.000  0.000  0.000  0.000  0.206

band     8 # energy   14.15908435 # occ.  0.00000000

ion      s     py     pz     px    dxy    dyz    dz2    dxz  x2-y2    tot
    1  0.016  0.024  0.078  0.024  0.000  0.000  0.000  0.000  0.000  0.141
    2  0.016  0.024  0.078  0.024  0.000  0.000  0.000  0.000  0.000  0.141
tot    0.032  0.047  0.156  0.047  0.000  0.000  0.000  0.000  0.000  0.283

band     9 # energy   14.41009199 # occ.  0.00000000

ion      s     py     pz     px    dxy    dyz    dz2    dxz  x2-y2    tot
    1  0.000  0.023  0.000  0.023  0.000  0.000  0.000  0.000  0.000  0.046
    2  0.000  0.023  0.000  0.023  0.000  0.000  0.000  0.000  0.000  0.046
tot    0.000  0.046  0.000  0.046  0.000  0.000  0.000  0.000  0.000  0.092


 k-point    11 :   -0.25000000 0.12500000 0.00000000     weight = 0.04687500

band     1 # energy   -6.52903861 # occ.  2.00000000

ion      s     py     pz     px    dxy    dyz    dz2    dxz  x2-y2    tot
    1  0.214  0.006  0.001  0.006  0.000  0.000  0.000  0.000  0.000  0.226
    2  0.214  0.006  0.001  0.006  0.000  0.000  0.000  0.000  0.000  0.226
tot    0.428  0.011  0.002  0.011  0.000  0.000  0.000  0.000  0.000  0.453

band     2 # energy    0.21443103 # occ.  2.00000000

ion      s     py     pz     px    dxy    dyz    dz2    dxz  x2-y2    tot
    1  0.117  0.034  0.038  0.034  0.000  0.000  0.000  0.000  0.000  0.224
    2  0.117  0.034  0.038  0.034  0.000  0.000  0.000  0.000  0.000  0.224
tot    0.234  0.069  0.076  0.069  0.000  0.000  0.000  0.000  0.000  0.447

band     3 # energy    2.81809648 # occ.  2.00000000

ion      s     py     pz     px    dxy    dyz    dz2    dxz  x2-y2    tot
    1  0.022  0.034  0.104  0.034  0.000  0.000  0.000  0.000  0.000  0.194
    2  0.022  0.034  0.104  0.034  0.000  0.000  0.000  0.000  0.000  0.194
tot    0.044  0.068  0.208  0.068  0.000  0.000  0.000  0.000  0.000  0.388

band     4 # energy    4.42645396 # occ.  2.00000000

ion      s     py     pz     px    dxy    dyz    dz2    dxz  x2-y2    tot
    1  0.000  0.109  0.000  0.109  0.000  0.000  0.000  0.000  0.000  0.218
    2  0.000  0.109  0.000  0.109  0.000  0.000  0.000  0.000  0.000  0.218
tot    0.000  0.218  0.000  0.218  0.000  0.000  0.000  0.000  0.000  0.435

band     5 # energy    8.69261299 # occ.  0.00000000

ion      s     py     pz     px    dxy    dyz    dz2    dxz  x2-y2    tot
    1  0.119  0.001  0.072  0.001  0.000  0.000  0.000  0.000  0.000  0.192
    2  0.119  0.001  0.072  0.001  0.000  0.000  0.000  0.000  0.000  0.192
tot    0.237  0.002  0.143  0.002  0.000  0.000  0.000  0.000  0.000  0.384

band     6 # energy    9.78417374 # occ.  0.00000000

ion      s     py     pz     px    dxy    dyz    dz2    dxz  x2-y2    tot
    1  0.000  0.066  0.000  0.066  0.000  0.000  0.000  0.000  0.000  0.132
    2  0.000  0.066  0.000  0.066  0.000  0.000  0.000  0.000  0.000  0.132
tot    0.000  0.132  0.000  0.132  0.000  0.000  0.000  0.000  0.000  0.264

band     7 # energy    9.88857775 # occ.  0.00000000

ion      s     py     pz     px    dxy    dyz    dz2    dxz  x2-y2    tot
    1  0.017  0.016  0.077  0.016  0.000  0.000  0.000  0.000  0.000  0.125
    2  0.017  0.016  0.077  0.016  0.000  0.000  0.000  0.000  0.000  0.125
tot    0.033  0.031  0.154  0.031  0.000  0.000  0.000  0.000  0.000  0.250

band     8 # energy   12.46573057 # occ.  0.00000000

ion      s     py     pz     px    dxy    dyz    dz2    dxz  x2-y2    tot
    1  0.059  0.034  0.036  0.034  0.000  0.000  0.000  0.000  0.000  0.163
    2  0.059  0.034  0.036  0.034  0.000  0.000  0.000  0.000  0.000  0.163
tot    0.119  0.068  0.072  0.068  0.000  0.000  0.000  0.000  0.000  0.327

band     9 # energy   12.69114865 # occ.  0.00000000

ion      s     py     pz     px    dxy    dyz    dz2    dxz  x2-y2    tot
    1  0.000  0.008  0.000  0.008  0.000  0.000  0.000  0.000  0.000  0.017
    2  0.000  0.008  0.000  0.008  0.000  0.000  0.000  0.000  0.000  0.017
tot    0.000  0.017  0.000  0.017  0.000  0.000  0.000  0.000  0.000  0.034


 k-point    12 :   -0.12500000 0.12500000 0.00000000     weight = 0.02343750

band     1 # energy   -7.30308669 # occ.  2.00000000

ion      s     py     pz     px    dxy    dyz    dz2    dxz  x2-y2    tot
    1  0.216  0.003  0.000  0.003  0.000  0.000  0.000  0.000  0.000  0.221
    2  0.216  0.003  0.000  0.003  0.000  0.000  0.000  0.000  0.000  0.221
tot    0.431  0.006  0.000  0.006  0.000  0.000  0.000  0.000  0.000  0.443

band     2 # energy    2.35577978 # occ.  2.00000000

ion      s     py     pz     px    dxy    dyz    dz2    dxz  x2-y2    tot
    1  0.100  0.052  0.029  0.052  0.000  0.000  0.000  0.000  0.000  0.233
    2  0.100  0.052  0.029  0.052  0.000  0.000  0.000  0.000  0.000  0.233
tot    0.200  0.104  0.058  0.104  0.000  0.000  0.000  0.000  0.000  0.466

band     3 # energy    3.57124199 # occ.  2.00000000

ion      s     py     pz     px    dxy    dyz    dz2    dxz  x2-y2    tot
    1  0.006  0.027  0.131  0.027  0.000  0.000  0.000  0.000  0.000  0.191
    2  0.006  0.027  0.131  0.027  0.000  0.000  0.000  0.000  0.000  0.191
tot    0.013  0.053  0.262  0.053  0.000  0.000  0.000  0.000  0.000  0.382

band     4 # energy    4.93966094 # occ.  2.00000000

ion      s     py     pz     px    dxy    dyz    dz2    dxz  x2-y2    tot
    1  0.000  0.110  0.000  0.110  0.000  0.000  0.000  0.000  0.000  0.220
    2  0.000  0.110  0.000  0.110  0.000  0.000  0.000  0.000  0.000  0.220
tot    0.000  0.220  0.000  0.220  0.000  0.000  0.000  0.000  0.000  0.439

band     5 # energy    9.06628163 # occ.  0.00000000

ion      s     py     pz     px    dxy    dyz    dz2    dxz  x2-y2    tot
    1  0.108  0.000  0.099  0.000  0.000  0.000  0.000  0.000  0.000  0.207
    2  0.108  0.000  0.099  0.000  0.000  0.000  0.000  0.000  0.000  0.207
tot    0.217  0.000  0.198  0.000  0.000  0.000  0.000  0.000  0.000  0.415

band     6 # energy    9.19106364 # occ.  0.00000000

ion      s     py     pz     px    dxy    dyz    dz2    dxz  x2-y2    tot
    1  0.000  0.074  0.000  0.074  0.000  0.000  0.000  0.000  0.000  0.149
    2  0.000  0.074  0.000  0.074  0.000  0.000  0.000  0.000  0.000  0.149
tot    0.000  0.149  0.000  0.149  0.000  0.000  0.000  0.000  0.000  0.298

band     7 # energy    9.32425084 # occ.  0.00000000

ion      s     py     pz     px    dxy    dyz    dz2    dxz  x2-y2    tot
    1  0.027  0.022  0.080  0.022  0.000  0.000  0.000  0.000  0.000  0.151
    2  0.027  0.022  0.080  0.022  0.000  0.000  0.000  0.000  0.000  0.151
tot    0.054  0.044  0.160  0.044  0.000  0.000  0.000  0.000  0.000  0.302

band     8 # energy   11.66479028 # occ.  0.00000000

ion      s     py     pz     px    dxy    dyz    dz2    dxz  x2-y2    tot
    1  0.107  0.053  0.004  0.053  0.000  0.000  0.000  0.000  0.000  0.217
    2  0.107  0.053  0.004  0.053  0.000  0.000  0.000  0.000  0.000  0.217
tot    0.215  0.105  0.009  0.105  0.000  0.000  0.000  0.000  0.000  0.434

band     9 # energy   12.55619438 # occ.  0.00000000

ion      s     py     pz     px    dxy    dyz    dz2    dxz  x2-y2    tot
    1  0.000  0.000  0.000  0.000  0.000  0.000  0.000  0.000  0.000  0.000
    2  0.000  0.000  0.000  0.000  0.000  0.000  0.000  0.000  0.000  0.000
tot    0.000  0.000  0.000  0.000  0.000  0.000  0.000  0.000  0.000  0.000


 k-point    13 :    0.25000000 0.25000000 0.00000000     weight = 0.01171875

band     1 # energy   -6.71186819 # occ.  2.00000000

ion      s     py     pz     px    dxy    dyz    dz2    dxz  x2-y2    tot
    1  0.212  0.000  0.012  0.000  0.000  0.000  0.000  0.000  0.000  0.224
    2  0.212  0.000  0.012  0.000  0.000  0.000  0.000  0.000  0.000  0.224
tot    0.425  0.000  0.023  0.000  0.000  0.000  0.000  0.000  0.000  0.448

band     2 # energy    1.41275821 # occ.  2.00000000

ion      s     py     pz     px    dxy    dyz    dz2    dxz  x2-y2    tot
    1  0.154  0.000  0.102  0.000  0.000  0.000  0.000  0.000  0.000  0.256
    2  0.154  0.000  0.102  0.000  0.000  0.000  0.000  0.000  0.000  0.256
tot    0.309  0.000  0.204  0.000  0.000  0.000  0.000  0.000  0.000  0.512

band     3 # energy    3.24362108 # occ.  2.00000000

ion      s     py     pz     px    dxy    dyz    dz2    dxz  x2-y2    tot
    1  0.000  0.171  0.000  0.027  0.000  0.000  0.000  0.000  0.000  0.198
    2  0.000  0.036  0.000  0.162  0.000  0.000  0.000  0.000  0.000  0.198
tot    0.000  0.207  0.000  0.189  0.000  0.000  0.000  0.000  0.000  0.396

band     4 # energy    3.24362293 # occ.  2.00000000

ion      s     py     pz     px    dxy    dyz    dz2    dxz  x2-y2    tot
    1  0.000  0.027  0.000  0.171  0.000  0.000  0.000  0.000  0.000  0.198
    2  0.000  0.162  0.000  0.036  0.000  0.000  0.000  0.000  0.000  0.198
tot    0.000  0.189  0.000  0.207  0.000  0.000  0.000  0.000  0.000  0.396

band     5 # energy    7.02926876 # occ.  0.00000000

ion      s     py     pz     px    dxy    dyz    dz2    dxz  x2-y2    tot
    1  0.044  0.000  0.075  0.000  0.000  0.000  0.000  0.000  0.000  0.119
    2  0.044  0.000  0.075  0.000  0.000  0.000  0.000  0.000  0.000  0.119
tot    0.087  0.000  0.150  0.000  0.000  0.000  0.000  0.000  0.000  0.237

band     6 # energy    9.15950468 # occ.  0.00000000

ion      s     py     pz     px    dxy    dyz    dz2    dxz  x2-y2    tot
    1  0.051  0.000  0.037  0.000  0.000  0.000  0.000  0.000  0.000  0.088
    2  0.051  0.000  0.037  0.000  0.000  0.000  0.000  0.000  0.000  0.088
tot    0.102  0.000  0.074  0.000  0.000  0.000  0.000  0.000  0.000  0.177

band     7 # energy   11.95496666 # occ.  0.00000000

ion      s     py     pz     px    dxy    dyz    dz2    dxz  x2-y2    tot
    1  0.000  0.122  0.000  0.043  0.000  0.000  0.000  0.000  0.000  0.165
    2  0.000  0.041  0.000  0.124  0.000  0.000  0.000  0.000  0.000  0.165
tot    0.000  0.163  0.000  0.167  0.000  0.000  0.000  0.000  0.000  0.330

band     8 # energy   11.95496866 # occ.  0.00000000

ion      s     py     pz     px    dxy    dyz    dz2    dxz  x2-y2    tot
    1  0.000  0.043  0.000  0.122  0.000  0.000  0.000  0.000  0.000  0.165
    2  0.000  0.124  0.000  0.041  0.000  0.000  0.000  0.000  0.000  0.165
tot    0.000  0.167  0.000  0.163  0.000  0.000  0.000  0.000  0.000  0.330

band     9 # energy   14.27304321 # occ.  0.00000000

ion      s     py     pz     px    dxy    dyz    dz2    dxz  x2-y2    tot
    1  0.160  0.000  0.095  0.000  0.000  0.000  0.000  0.000  0.000  0.255
    2  0.160  0.000  0.095  0.000  0.000  0.000  0.000  0.000  0.000  0.255
tot    0.320  0.000  0.191  0.000  0.000  0.000  0.000  0.000  0.000  0.511


 k-point    14 :    0.37500000 0.25000000 0.00000000     weight = 0.04687500

band     1 # energy   -5.93621137 # occ.  2.00000000

ion      s     py     pz     px    dxy    dyz    dz2    dxz  x2-y2    tot
    1  0.210  0.001  0.018  0.001  0.000  0.000  0.000  0.000  0.000  0.229
    2  0.210  0.001  0.018  0.001  0.000  0.000  0.000  0.000  0.000  0.229
tot    0.420  0.001  0.035  0.001  0.000  0.000  0.000  0.000  0.000  0.458

band     2 # energy   -0.16442977 # occ.  2.00000000

ion      s     py     pz     px    dxy    dyz    dz2    dxz  x2-y2    tot
    1  0.163  0.011  0.064  0.011  0.000  0.000  0.000  0.000  0.000  0.249
    2  0.163  0.011  0.064  0.011  0.000  0.000  0.000  0.000  0.000  0.249
tot    0.325  0.023  0.127  0.023  0.000  0.000  0.000  0.000  0.000  0.498

band     3 # energy    2.42084447 # occ.  2.00000000

ion      s     py     pz     px    dxy    dyz    dz2    dxz  x2-y2    tot
    1  0.013  0.070  0.035  0.070  0.000  0.000  0.000  0.000  0.000  0.188
    2  0.013  0.070  0.035  0.070  0.000  0.000  0.000  0.000  0.000  0.188
tot    0.026  0.140  0.070  0.140  0.000  0.000  0.000  0.000  0.000  0.376

band     4 # energy    2.88899028 # occ.  2.00000000

ion      s     py     pz     px    dxy    dyz    dz2    dxz  x2-y2    tot
    1  0.000  0.099  0.000  0.099  0.000  0.000  0.000  0.000  0.000  0.198
    2  0.000  0.099  0.000  0.099  0.000  0.000  0.000  0.000  0.000  0.198
tot    0.000  0.198  0.000  0.198  0.000  0.000  0.000  0.000  0.000  0.397

band     5 # energy    7.25476295 # occ.  0.00000000

ion      s     py     pz     px    dxy    dyz    dz2    dxz  x2-y2    tot
    1  0.045  0.007  0.054  0.007  0.000  0.000  0.000  0.000  0.000  0.113
    2  0.045  0.007  0.054  0.007  0.000  0.000  0.000  0.000  0.000  0.113
tot    0.089  0.014  0.109  0.014  0.000  0.000  0.000  0.000  0.000  0.226

band     6 # energy    8.90147385 # occ.  0.00000000

ion      s     py     pz     px    dxy    dyz    dz2    dxz  x2-y2    tot
    1  0.041  0.011  0.026  0.011  0.000  0.000  0.000  0.000  0.000  0.088
    2  0.041  0.011  0.026  0.011  0.000  0.000  0.000  0.000  0.000  0.088
tot    0.081  0.021  0.051  0.021  0.000  0.000  0.000  0.000  0.000  0.176

band     7 # energy   12.18376459 # occ.  0.00000000

ion      s     py     pz     px    dxy    dyz    dz2    dxz  x2-y2    tot
    1  0.043  0.057  0.024  0.057  0.000  0.000  0.000  0.000  0.000  0.180
    2  0.043  0.057  0.024  0.057  0.000  0.000  0.000  0.000  0.000  0.180
tot    0.086  0.114  0.047  0.114  0.000  0.000  0.000  0.000  0.000  0.360

band     8 # energy   12.50316209 # occ.  0.00000000

ion      s     py     pz     px    dxy    dyz    dz2    dxz  x2-y2    tot
    1  0.000  0.069  0.000  0.069  0.000  0.000  0.000  0.000  0.000  0.138
    2  0.000  0.069  0.000  0.069  0.000  0.000  0.000  0.000  0.000  0.138
tot    0.000  0.138  0.000  0.138  0.000  0.000  0.000  0.000  0.000  0.277

band     9 # energy   16.40257730 # occ.  0.00000000

ion      s     py     pz     px    dxy    dyz    dz2    dxz  x2-y2    tot
    1  0.000  0.012  0.000  0.010  0.000  0.000  0.000  0.000  0.000  0.022
    2  0.000  0.010  0.000  0.012  0.000  0.000  0.000  0.000  0.000  0.022
tot    0.000  0.022  0.000  0.022  0.000  0.000  0.000  0.000  0.000  0.045


 k-point    15 :    0.50000000 0.25000000 0.00000000     weight = 0.04687500

band     1 # energy   -4.92558167 # occ.  2.00000000

ion      s     py     pz     px    dxy    dyz    dz2    dxz  x2-y2    tot
    1  0.214  0.002  0.020  0.002  0.000  0.000  0.000  0.000  0.000  0.239
    2  0.214  0.002  0.020  0.002  0.000  0.000  0.000  0.000  0.000  0.239
tot    0.428  0.005  0.040  0.005  0.000  0.000  0.000  0.000  0.000  0.477

band     2 # energy   -1.75074404 # occ.  2.00000000

ion      s     py     pz     px    dxy    dyz    dz2    dxz  x2-y2    tot
    1  0.159  0.019  0.037  0.019  0.000  0.000  0.000  0.000  0.000  0.234
    2  0.159  0.019  0.037  0.019  0.000  0.000  0.000  0.000  0.000  0.234
tot    0.317  0.038  0.074  0.038  0.000  0.000  0.000  0.000  0.000  0.467

band     3 # energy    1.48596922 # occ.  2.00000000

ion      s     py     pz     px    dxy    dyz    dz2    dxz  x2-y2    tot
    1  0.023  0.047  0.062  0.047  0.000  0.000  0.000  0.000  0.000  0.179
    2  0.023  0.047  0.062  0.047  0.000  0.000  0.000  0.000  0.000  0.179
tot    0.046  0.094  0.124  0.094  0.000  0.000  0.000  0.000  0.000  0.358

band     4 # energy    2.88688377 # occ.  2.00000000

ion      s     py     pz     px    dxy    dyz    dz2    dxz  x2-y2    tot
    1  0.000  0.100  0.000  0.100  0.000  0.000  0.000  0.000  0.000  0.201
    2  0.000  0.100  0.000  0.100  0.000  0.000  0.000  0.000  0.000  0.201
tot    0.000  0.201  0.000  0.201  0.000  0.000  0.000  0.000  0.000  0.402

band     5 # energy    7.44972512 # occ.  0.00000000

ion      s     py     pz     px    dxy    dyz    dz2    dxz  x2-y2    tot
    1  0.051  0.002  0.045  0.002  0.000  0.000  0.000  0.000  0.000  0.101
    2  0.051  0.002  0.045  0.002  0.000  0.000  0.000  0.000  0.000  0.101
tot    0.103  0.004  0.090  0.004  0.000  0.000  0.000  0.000  0.000  0.201

band     6 # energy   10.52708624 # occ.  0.00000000

ion      s     py     pz     px    dxy    dyz    dz2    dxz  x2-y2    tot
    1  0.019  0.033  0.011  0.033  0.000  0.000  0.000  0.000  0.000  0.095
    2  0.019  0.033  0.011  0.033  0.000  0.000  0.000  0.000  0.000  0.095
tot    0.038  0.065  0.022  0.065  0.000  0.000  0.000  0.000  0.000  0.191

band     7 # energy   11.90980835 # occ.  0.00000000

ion      s     py     pz     px    dxy    dyz    dz2    dxz  x2-y2    tot
    1  0.070  0.037  0.053  0.037  0.000  0.000  0.000  0.000  0.000  0.197
    2  0.070  0.037  0.053  0.037  0.000  0.000  0.000  0.000  0.000  0.197
tot    0.140  0.074  0.105  0.074  0.000  0.000  0.000  0.000  0.000  0.393

band     8 # energy   12.13847889 # occ.  0.00000000

ion      s     py     pz     px    dxy    dyz    dz2    dxz  x2-y2    tot
    1  0.000  0.056  0.000  0.056  0.000  0.000  0.000  0.000  0.000  0.112
    2  0.000  0.056  0.000  0.056  0.000  0.000  0.000  0.000  0.000  0.112
tot    0.000  0.112  0.000  0.112  0.000  0.000  0.000  0.000  0.000  0.224

band     9 # energy   16.56725487 # occ.  0.00000000

ion      s     py     pz     px    dxy    dyz    dz2    dxz  x2-y2    tot
    1  0.008  0.025  0.088  0.025  0.000  0.000  0.000  0.000  0.000  0.146
    2  0.008  0.025  0.088  0.025  0.000  0.000  0.000  0.000  0.000  0.146
tot    0.016  0.049  0.177  0.049  0.000  0.000  0.000  0.000  0.000  0.292


 k-point    16 :   -0.37500000 0.25000000 0.00000000     weight = 0.04687500

band     1 # energy   -4.70454005 # occ.  2.00000000

ion      s     py     pz     px    dxy    dyz    dz2    dxz  x2-y2    tot
    1  0.220  0.007  0.009  0.007  0.000  0.000  0.000  0.000  0.000  0.244
    2  0.220  0.007  0.009  0.007  0.000  0.000  0.000  0.000  0.000  0.244
tot    0.439  0.015  0.018  0.015  0.000  0.000  0.000  0.000  0.000  0.487

band     2 # energy   -2.03210683 # occ.  2.00000000

ion      s     py     pz     px    dxy    dyz    dz2    dxz  x2-y2    tot
    1  0.153  0.018  0.039  0.018  0.000  0.000  0.000  0.000  0.000  0.228
    2  0.153  0.018  0.039  0.018  0.000  0.000  0.000  0.000  0.000  0.228
tot    0.306  0.036  0.077  0.036  0.000  0.000  0.000  0.000  0.000  0.456

band     3 # energy    0.98537740 # occ.  2.00000000

ion      s     py     pz     px    dxy    dyz    dz2    dxz  x2-y2    tot
    1  0.021  0.039  0.072  0.039  0.000  0.000  0.000  0.000  0.000  0.172
    2  0.021  0.039  0.072  0.039  0.000  0.000  0.000  0.000  0.000  0.172
tot    0.043  0.078  0.145  0.078  0.000  0.000  0.000  0.000  0.000  0.345

band     4 # energy    3.23150568 # occ.  2.00000000

ion      s     py     pz     px    dxy    dyz    dz2    dxz  x2-y2    tot
    1  0.000  0.103  0.000  0.103  0.000  0.000  0.000  0.000  0.000  0.205
    2  0.000  0.103  0.000  0.103  0.000  0.000  0.000  0.000  0.000  0.205
tot    0.000  0.205  0.000  0.205  0.000  0.000  0.000  0.000  0.000  0.410

band     5 # energy    7.79552189 # occ.  0.00000000

ion      s     py     pz     px    dxy    dyz    dz2    dxz  x2-y2    tot
    1  0.057  0.001  0.047  0.001  0.000  0.000  0.000  0.000  0.000  0.107
    2  0.057  0.001  0.047  0.001  0.000  0.000  0.000  0.000  0.000  0.107
tot    0.114  0.003  0.093  0.003  0.000  0.000  0.000  0.000  0.000  0.213

band     6 # energy   11.56536274 # occ.  0.00000000

ion      s     py     pz     px    dxy    dyz    dz2    dxz  x2-y2    tot
    1  0.045  0.021  0.050  0.021  0.000  0.000  0.000  0.000  0.000  0.138
    2  0.045  0.021  0.050  0.021  0.000  0.000  0.000  0.000  0.000  0.138
tot    0.090  0.043  0.101  0.043  0.000  0.000  0.000  0.000  0.000  0.276

band     7 # energy   11.68890961 # occ.  0.00000000

ion      s     py     pz     px    dxy    dyz    dz2    dxz  x2-y2    tot
    1  0.000  0.058  0.000  0.058  0.000  0.000  0.000  0.000  0.000  0.117
    2  0.000  0.058  0.000  0.058  0.000  0.000  0.000  0.000  0.000  0.117
tot    0.000  0.117  0.000  0.117  0.000  0.000  0.000  0.000  0.000  0.234

band     8 # energy   13.21032481 # occ.  0.00000000

ion      s     py     pz     px    dxy    dyz    dz2    dxz  x2-y2    tot
    1  0.029  0.045  0.023  0.045  0.000  0.000  0.000  0.000  0.000  0.142
    2  0.029  0.045  0.023  0.045  0.000  0.000  0.000  0.000  0.000  0.142
tot    0.059  0.090  0.046  0.090  0.000  0.000  0.000  0.000  0.000  0.284

band     9 # energy   14.30185135 # occ.  0.00000000

ion      s     py     pz     px    dxy    dyz    dz2    dxz  x2-y2    tot
    1  0.041  0.032  0.089  0.031  0.000  0.000  0.000  0.000  0.000  0.193
    2  0.041  0.030  0.089  0.032  0.000  0.000  0.000  0.000  0.000  0.193
tot    0.083  0.063  0.178  0.063  0.000  0.000  0.000  0.000  0.000  0.386


 k-point    17 :   -0.25000000 0.25000000 0.00000000     weight = 0.02343750

band     1 # energy   -5.66241444 # occ.  2.00000000

ion      s     py     pz     px    dxy    dyz    dz2    dxz  x2-y2    tot
    1  0.213  0.008  0.002  0.008  0.000  0.000  0.000  0.000  0.000  0.233
    2  0.213  0.008  0.002  0.008  0.000  0.000  0.000  0.000  0.000  0.233
tot    0.427  0.017  0.005  0.017  0.000  0.000  0.000  0.000  0.000  0.465

band     2 # energy   -0.75569990 # occ.  2.00000000

ion      s     py     pz     px    dxy    dyz    dz2    dxz  x2-y2    tot
    1  0.156  0.023  0.039  0.023  0.000  0.000  0.000  0.000  0.000  0.240
    2  0.156  0.023  0.039  0.023  0.000  0.000  0.000  0.000  0.000  0.240
tot    0.311  0.045  0.078  0.045  0.000  0.000  0.000  0.000  0.000  0.480

band     3 # energy    1.25815386 # occ.  2.00000000

ion      s     py     pz     px    dxy    dyz    dz2    dxz  x2-y2    tot
    1  0.012  0.036  0.084  0.036  0.000  0.000  0.000  0.000  0.000  0.169
    2  0.012  0.036  0.084  0.036  0.000  0.000  0.000  0.000  0.000  0.169
tot    0.025  0.072  0.168  0.072  0.000  0.000  0.000  0.000  0.000  0.337

band     4 # energy    3.83561543 # occ.  2.00000000

ion      s     py     pz     px    dxy    dyz    dz2    dxz  x2-y2    tot
    1  0.000  0.106  0.000  0.106  0.000  0.000  0.000  0.000  0.000  0.211
    2  0.000  0.106  0.000  0.106  0.000  0.000  0.000  0.000  0.000  0.211
tot    0.000  0.211  0.000  0.211  0.000  0.000  0.000  0.000  0.000  0.422

band     5 # energy    8.43776334 # occ.  0.00000000

ion      s     py     pz     px    dxy    dyz    dz2    dxz  x2-y2    tot
    1  0.066  0.002  0.059  0.002  0.000  0.000  0.000  0.000  0.000  0.128
    2  0.066  0.002  0.059  0.002  0.000  0.000  0.000  0.000  0.000  0.128
tot    0.131  0.003  0.118  0.003  0.000  0.000  0.000  0.000  0.000  0.256

band     6 # energy   10.97832347 # occ.  0.00000000

ion      s     py     pz     px    dxy    dyz    dz2    dxz  x2-y2    tot
    1  0.000  0.074  0.000  0.074  0.000  0.000  0.000  0.000  0.000  0.148
    2  0.000  0.074  0.000  0.074  0.000  0.000  0.000  0.000  0.000  0.148
tot    0.000  0.148  0.000  0.148  0.000  0.000  0.000  0.000  0.000  0.295

band     7 # energy   11.19906894 # occ.  0.00000000

ion      s     py     pz     px    dxy    dyz    dz2    dxz  x2-y2    tot
    1  0.032  0.001  0.099  0.001  0.000  0.000  0.000  0.000  0.000  0.132
    2  0.032  0.001  0.099  0.001  0.000  0.000  0.000  0.000  0.000  0.132
tot    0.064  0.001  0.198  0.001  0.000  0.000  0.000  0.000  0.000  0.264

band     8 # energy   12.32482691 # occ.  0.00000000

ion      s     py     pz     px    dxy    dyz    dz2    dxz  x2-y2    tot
    1  0.078  0.046  0.025  0.046  0.000  0.000  0.000  0.000  0.000  0.195
    2  0.078  0.046  0.025  0.046  0.000  0.000  0.000  0.000  0.000  0.195
tot    0.157  0.092  0.050  0.092  0.000  0.000  0.000  0.000  0.000  0.389

band     9 # energy   12.64878742 # occ.  0.00000000

ion      s     py     pz     px    dxy    dyz    dz2    dxz  x2-y2    tot
    1  0.000  0.003  0.000  0.003  0.000  0.000  0.000  0.000  0.000  0.007
    2  0.000  0.003  0.000  0.003  0.000  0.000  0.000  0.000  0.000  0.007
tot    0.000  0.007  0.000  0.007  0.000  0.000  0.000  0.000  0.000  0.014


 k-point    18 :    0.37500000 0.37500000 0.00000000     weight = 0.01171875

band     1 # energy   -5.27586356 # occ.  2.00000000

ion      s     py     pz     px    dxy    dyz    dz2    dxz  x2-y2    tot
    1  0.206  0.000  0.026  0.000  0.000  0.000  0.000  0.000  0.000  0.232
    2  0.206  0.000  0.026  0.000  0.000  0.000  0.000  0.000  0.000  0.232
tot    0.412  0.000  0.052  0.000  0.000  0.000  0.000  0.000  0.000  0.464

band     2 # energy   -1.06382570 # occ.  2.00000000

ion      s     py     pz     px    dxy    dyz    dz2    dxz  x2-y2    tot
    1  0.182  0.000  0.070  0.000  0.000  0.000  0.000  0.000  0.000  0.252
    2  0.182  0.000  0.070  0.000  0.000  0.000  0.000  0.000  0.000  0.252
tot    0.365  0.000  0.140  0.000  0.000  0.000  0.000  0.000  0.000  0.505

band     3 # energy    2.44908518 # occ.  2.00000000

ion      s     py     pz     px    dxy    dyz    dz2    dxz  x2-y2    tot
    1  0.000  0.181  0.000  0.016  0.000  0.000  0.000  0.000  0.000  0.197
    2  0.000  0.018  0.000  0.179  0.000  0.000  0.000  0.000  0.000  0.197
tot    0.000  0.198  0.000  0.195  0.000  0.000  0.000  0.000  0.000  0.393

band     4 # energy    2.44908689 # occ.  2.00000000

ion      s     py     pz     px    dxy    dyz    dz2    dxz  x2-y2    tot
    1  0.000  0.016  0.000  0.181  0.000  0.000  0.000  0.000  0.000  0.197
    2  0.000  0.179  0.000  0.018  0.000  0.000  0.000  0.000  0.000  0.197
tot    0.000  0.195  0.000  0.198  0.000  0.000  0.000  0.000  0.000  0.393

band     5 # energy    6.48699102 # occ.  0.00000000

ion      s     py     pz     px    dxy    dyz    dz2    dxz  x2-y2    tot
    1  0.053  0.000  0.049  0.000  0.000  0.000  0.000  0.000  0.000  0.102
    2  0.053  0.000  0.049  0.000  0.000  0.000  0.000  0.000  0.000  0.102
tot    0.106  0.000  0.098  0.000  0.000  0.000  0.000  0.000  0.000  0.204

band     6 # energy    7.48199761 # occ.  0.00000000

ion      s     py     pz     px    dxy    dyz    dz2    dxz  x2-y2    tot
    1  0.046  0.000  0.029  0.000  0.000  0.000  0.000  0.000  0.000  0.075
    2  0.046  0.000  0.029  0.000  0.000  0.000  0.000  0.000  0.000  0.075
tot    0.092  0.000  0.059  0.000  0.000  0.000  0.000  0.000  0.000  0.150

band     7 # energy   14.38013943 # occ.  0.00000000

ion      s     py     pz     px    dxy    dyz    dz2    dxz  x2-y2    tot
    1  0.000  0.114  0.000  0.049  0.000  0.000  0.000  0.000  0.000  0.164
    2  0.000  0.047  0.000  0.116  0.000  0.000  0.000  0.000  0.000  0.164
tot    0.000  0.161  0.000  0.166  0.000  0.000  0.000  0.000  0.000  0.327

band     8 # energy   14.38014126 # occ.  0.00000000

ion      s     py     pz     px    dxy    dyz    dz2    dxz  x2-y2    tot
    1  0.000  0.049  0.000  0.114  0.000  0.000  0.000  0.000  0.000  0.164
    2  0.000  0.116  0.000  0.047  0.000  0.000  0.000  0.000  0.000  0.164
tot    0.000  0.166  0.000  0.161  0.000  0.000  0.000  0.000  0.000  0.327

band     9 # energy   16.87249613 # occ.  0.00000000

ion      s     py     pz     px    dxy    dyz    dz2    dxz  x2-y2    tot
    1  0.000  0.000  0.000  0.000  0.000  0.000  0.000  0.000  0.000  0.000
    2  0.000  0.000  0.000  0.000  0.000  0.000  0.000  0.000  0.000  0.000
tot    0.000  0.000  0.000  0.000  0.000  0.000  0.000  0.000  0.000  0.000


 k-point    19 :    0.50000000 0.37500000 0.00000000     weight = 0.04687500

band     1 # energy   -4.29243329 # occ.  2.00000000

ion      s     py     pz     px    dxy    dyz    dz2    dxz  x2-y2    tot
    1  0.204  0.001  0.033  0.001  0.000  0.000  0.000  0.000  0.000  0.239
    2  0.204  0.001  0.033  0.001  0.000  0.000  0.000  0.000  0.000  0.239
tot    0.408  0.002  0.066  0.002  0.000  0.000  0.000  0.000  0.000  0.477

band     2 # energy   -2.26543784 # occ.  2.00000000

ion      s     py     pz     px    dxy    dyz    dz2    dxz  x2-y2    tot
    1  0.192  0.002  0.052  0.002  0.000  0.000  0.000  0.000  0.000  0.248
    2  0.192  0.002  0.052  0.002  0.000  0.000  0.000  0.000  0.000  0.248
tot    0.384  0.005  0.103  0.005  0.000  0.000  0.000  0.000  0.000  0.497

band     3 # energy    1.58586666 # occ.  2.00000000

ion      s     py     pz     px    dxy    dyz    dz2    dxz  x2-y2    tot
    1  0.003  0.078  0.017  0.078  0.000  0.000  0.000  0.000  0.000  0.176
    2  0.003  0.078  0.017  0.078  0.000  0.000  0.000  0.000  0.000  0.176
tot    0.006  0.156  0.035  0.156  0.000  0.000  0.000  0.000  0.000  0.353

band     4 # energy    2.36284139 # occ.  2.00000000

ion      s     py     pz     px    dxy    dyz    dz2    dxz  x2-y2    tot
    1  0.000  0.099  0.000  0.099  0.000  0.000  0.000  0.000  0.000  0.197
    2  0.000  0.099  0.000  0.099  0.000  0.000  0.000  0.000  0.000  0.197
tot    0.000  0.197  0.000  0.197  0.000  0.000  0.000  0.000  0.000  0.395

band     5 # energy    6.78871859 # occ.  0.00000000

ion      s     py     pz     px    dxy    dyz    dz2    dxz  x2-y2    tot
    1  0.051  0.001  0.038  0.001  0.000  0.000  0.000  0.000  0.000  0.092
    2  0.051  0.001  0.038  0.001  0.000  0.000  0.000  0.000  0.000  0.092
tot    0.103  0.003  0.075  0.003  0.000  0.000  0.000  0.000  0.000  0.183

band     6 # energy    7.90674490 # occ.  0.00000000

ion      s     py     pz     px    dxy    dyz    dz2    dxz  x2-y2    tot
    1  0.040  0.017  0.024  0.017  0.000  0.000  0.000  0.000  0.000  0.098
    2  0.040  0.017  0.024  0.017  0.000  0.000  0.000  0.000  0.000  0.098
tot    0.081  0.034  0.048  0.034  0.000  0.000  0.000  0.000  0.000  0.197

band     7 # energy   14.61740845 # occ.  0.00000000

ion      s     py     pz     px    dxy    dyz    dz2    dxz  x2-y2    tot
    1  0.000  0.067  0.000  0.067  0.000  0.000  0.000  0.000  0.000  0.134
    2  0.000  0.067  0.000  0.067  0.000  0.000  0.000  0.000  0.000  0.134
tot    0.000  0.134  0.000  0.134  0.000  0.000  0.000  0.000  0.000  0.268

band     8 # energy   14.67624269 # occ.  0.00000000

ion      s     py     pz     px    dxy    dyz    dz2    dxz  x2-y2    tot
    1  0.031  0.056  0.037  0.056  0.000  0.000  0.000  0.000  0.000  0.179
    2  0.031  0.056  0.037  0.056  0.000  0.000  0.000  0.000  0.000  0.179
tot    0.062  0.111  0.073  0.111  0.000  0.000  0.000  0.000  0.000  0.358

band     9 # energy   17.18402763 # occ.  0.00000000

ion      s     py     pz     px    dxy    dyz    dz2    dxz  x2-y2    tot
    1  0.015  0.042  0.064  0.037  0.000  0.000  0.000  0.000  0.000  0.159
    2  0.015  0.042  0.064  0.038  0.000  0.000  0.000  0.000  0.000  0.159
tot    0.030  0.084  0.129  0.075  0.000  0.000  0.000  0.000  0.000  0.318


 k-point    20 :   -0.37500000 0.37500000 0.00000000     weight = 0.02343750

band     1 # energy   -3.81738024 # occ.  2.00000000

ion      s     py     pz     px    dxy    dyz    dz2    dxz  x2-y2    tot
    1  0.216  0.005  0.023  0.005  0.000  0.000  0.000  0.000  0.000  0.249
    2  0.216  0.005  0.023  0.005  0.000  0.000  0.000  0.000  0.000  0.249
tot    0.433  0.010  0.047  0.010  0.000  0.000  0.000  0.000  0.000  0.499

band     2 # energy   -2.69804955 # occ.  2.00000000

ion      s     py     pz     px    dxy    dyz    dz2    dxz  x2-y2    tot
    1  0.186  0.006  0.044  0.006  0.000  0.000  0.000  0.000  0.000  0.242
    2  0.186  0.006  0.044  0.006  0.000  0.000  0.000  0.000  0.000  0.242
tot    0.373  0.012  0.088  0.012  0.000  0.000  0.000  0.000  0.000  0.484

band     3 # energy    0.65810365 # occ.  2.00000000

ion      s     py     pz     px    dxy    dyz    dz2    dxz  x2-y2    tot
    1  0.000  0.057  0.043  0.057  0.000  0.000  0.000  0.000  0.000  0.158
    2  0.000  0.057  0.043  0.057  0.000  0.000  0.000  0.000  0.000  0.158
tot    0.000  0.115  0.086  0.115  0.000  0.000  0.000  0.000  0.000  0.315

band     4 # energy    2.64445600 # occ.  2.00000000

ion      s     py     pz     px    dxy    dyz    dz2    dxz  x2-y2    tot
    1  0.000  0.100  0.000  0.100  0.000  0.000  0.000  0.000  0.000  0.200
    2  0.000  0.100  0.000  0.100  0.000  0.000  0.000  0.000  0.000  0.200
tot    0.000  0.200  0.000  0.200  0.000  0.000  0.000  0.000  0.000  0.399

band     5 # energy    7.11891069 # occ.  0.00000000

ion      s     py     pz     px    dxy    dyz    dz2    dxz  x2-y2    tot
    1  0.053  0.001  0.038  0.001  0.000  0.000  0.000  0.000  0.000  0.093
    2  0.053  0.001  0.038  0.001  0.000  0.000  0.000  0.000  0.000  0.093
tot    0.106  0.002  0.076  0.002  0.000  0.000  0.000  0.000  0.000  0.185

band     6 # energy   10.19361489 # occ.  0.00000000

ion      s     py     pz     px    dxy    dyz    dz2    dxz  x2-y2    tot
    1  0.024  0.034  0.013  0.034  0.000  0.000  0.000  0.000  0.000  0.105
    2  0.024  0.034  0.013  0.034  0.000  0.000  0.000  0.000  0.000  0.105
tot    0.048  0.069  0.025  0.069  0.000  0.000  0.000  0.000  0.000  0.211

band     7 # energy   13.80593374 # occ.  0.00000000

ion      s     py     pz     px    dxy    dyz    dz2    dxz  x2-y2    tot
    1  0.000  0.078  0.000  0.078  0.000  0.000  0.000  0.000  0.000  0.157
    2  0.000  0.078  0.000  0.078  0.000  0.000  0.000  0.000  0.000  0.157
tot    0.000  0.157  0.000  0.157  0.000  0.000  0.000  0.000  0.000  0.313

band     8 # energy   14.28064299 # occ.  0.00000000

ion      s     py     pz     px    dxy    dyz    dz2    dxz  x2-y2    tot
    1  0.035  0.000  0.104  0.000  0.000  0.000  0.000  0.000  0.000  0.139
    2  0.035  0.000  0.104  0.000  0.000  0.000  0.000  0.000  0.000  0.139
tot    0.070  0.000  0.207  0.000  0.000  0.000  0.000  0.000  0.000  0.277

band     9 # energy   14.54719016 # occ.  0.00000000

ion      s     py     pz     px    dxy    dyz    dz2    dxz  x2-y2    tot
    1  0.053  0.070  0.037  0.070  0.000  0.000  0.000  0.000  0.000  0.230
    2  0.053  0.070  0.037  0.070  0.000  0.000  0.000  0.000  0.000  0.230
tot    0.106  0.140  0.074  0.140  0.000  0.000  0.000  0.000  0.000  0.461


 k-point    21 :    0.50000000 0.50000000 0.00000000     weight = 0.00585938

band     1 # energy   -3.35319344 # occ.  2.00000000

ion      s     py     pz     px    dxy    dyz    dz2    dxz  x2-y2    tot
    1  0.392  0.000  0.000  0.000  0.000  0.000  0.000  0.000  0.000  0.392
    2  0.002  0.000  0.090  0.000  0.000  0.000  0.000  0.000  0.000  0.092
tot    0.393  0.000  0.091  0.000  0.000  0.000  0.000  0.000  0.000  0.484

band     2 # energy   -3.35316265 # occ.  2.00000000

ion      s     py     pz     px    dxy    dyz    dz2    dxz  x2-y2    tot
    1  0.002  0.000  0.090  0.000  0.000  0.000  0.000  0.000  0.000  0.092
    2  0.392  0.000  0.000  0.000  0.000  0.000  0.000  0.000  0.000  0.392
tot    0.393  0.000  0.091  0.000  0.000  0.000  0.000  0.000  0.000  0.484

band     3 # energy    2.17588917 # occ.  2.00000000

ion      s     py     pz     px    dxy    dyz    dz2    dxz  x2-y2    tot
    1  0.000  0.183  0.000  0.014  0.000  0.000  0.000  0.000  0.000  0.196
    2  0.000  0.014  0.000  0.183  0.000  0.000  0.000  0.000  0.000  0.196
tot    0.000  0.196  0.000  0.196  0.000  0.000  0.000  0.000  0.000  0.393

band     4 # energy    2.17589087 # occ.  2.00000000

ion      s     py     pz     px    dxy    dyz    dz2    dxz  x2-y2    tot
    1  0.000  0.014  0.000  0.183  0.000  0.000  0.000  0.000  0.000  0.196
    2  0.000  0.183  0.000  0.014  0.000  0.000  0.000  0.000  0.000  0.196
tot    0.000  0.196  0.000  0.196  0.000  0.000  0.000  0.000  0.000  0.393

band     5 # energy    6.59705432 # occ.  0.00000000

ion      s     py     pz     px    dxy    dyz    dz2    dxz  x2-y2    tot
    1  0.005  0.000  0.065  0.000  0.000  0.000  0.000  0.000  0.000  0.070
    2  0.099  0.000  0.003  0.000  0.000  0.000  0.000  0.000  0.000  0.102
tot    0.104  0.000  0.068  0.000  0.000  0.000  0.000  0.000  0.000  0.172

band     6 # energy    6.59705973 # occ.  0.00000000

ion      s     py     pz     px    dxy    dyz    dz2    dxz  x2-y2    tot
    1  0.099  0.000  0.003  0.000  0.000  0.000  0.000  0.000  0.000  0.102
    2  0.005  0.000  0.065  0.000  0.000  0.000  0.000  0.000  0.000  0.070
tot    0.104  0.000  0.068  0.000  0.000  0.000  0.000  0.000  0.000  0.172

band     7 # energy   16.57030631 # occ.  0.00000000

ion      s     py     pz     px    dxy    dyz    dz2    dxz  x2-y2    tot
    1  0.000  0.138  0.000  0.102  0.000  0.000  0.000  0.000  0.000  0.240
    2  0.000  0.102  0.000  0.138  0.000  0.000  0.000  0.000  0.000  0.240
tot    0.000  0.240  0.000  0.240  0.000  0.000  0.000  0.000  0.000  0.479

band     8 # energy   16.57030993 # occ.  0.00000000

ion      s     py     pz     px    dxy    dyz    dz2    dxz  x2-y2    tot
    1  0.000  0.102  0.000  0.138  0.000  0.000  0.000  0.000  0.000  0.240
    2  0.000  0.138  0.000  0.102  0.000  0.000  0.000  0.000  0.000  0.240
tot    0.000  0.240  0.000  0.240  0.000  0.000  0.000  0.000  0.000  0.479

band     9 # energy   17.42878424 # occ.  0.00000000

ion      s     py     pz     px    dxy    dyz    dz2    dxz  x2-y2    tot
    1  0.000  0.002  0.000  0.010  0.000  0.000  0.000  0.000  0.000  0.012
    2  0.000  0.010  0.000  0.002  0.000  0.000  0.000  0.000  0.000  0.012
tot    0.000  0.012  0.000  0.012  0.000  0.000  0.000  0.000  0.000  0.024


 k-point    22 :    0.37500000 0.25000000 0.12500000     weight = 0.04687500

band     1 # energy   -6.44209659 # occ.  2.00000000

ion      s     py     pz     px    dxy    dyz    dz2    dxz  x2-y2    tot
    1  0.213  0.002  0.011  0.000  0.000  0.000  0.000  0.000  0.000  0.226
    2  0.213  0.002  0.011  0.000  0.000  0.000  0.000  0.000  0.000  0.226
tot    0.425  0.004  0.022  0.001  0.000  0.000  0.000  0.000  0.000  0.453

band     2 # energy    0.56429298 # occ.  2.00000000

ion      s     py     pz     px    dxy    dyz    dz2    dxz  x2-y2    tot
    1  0.143  0.019  0.054  0.027  0.000  0.000  0.000  0.000  0.000  0.244
    2  0.143  0.019  0.054  0.027  0.000  0.000  0.000  0.000  0.000  0.244
tot    0.287  0.038  0.108  0.054  0.000  0.000  0.000  0.000  0.000  0.488

band     3 # energy    2.38915662 # occ.  2.00000000

ion      s     py     pz     px    dxy    dyz    dz2    dxz  x2-y2    tot
    1  0.010  0.049  0.018  0.105  0.000  0.000  0.000  0.000  0.000  0.182
    2  0.010  0.049  0.018  0.105  0.000  0.000  0.000  0.000  0.000  0.182
tot    0.020  0.098  0.037  0.210  0.000  0.000  0.000  0.000  0.000  0.364

band     4 # energy    3.74644539 # occ.  2.00000000

ion      s     py     pz     px    dxy    dyz    dz2    dxz  x2-y2    tot
    1  0.008  0.111  0.062  0.026  0.000  0.000  0.000  0.000  0.000  0.207
    2  0.008  0.111  0.062  0.026  0.000  0.000  0.000  0.000  0.000  0.207
tot    0.015  0.222  0.124  0.052  0.000  0.000  0.000  0.000  0.000  0.413

band     5 # energy    8.40779319 # occ.  0.00000000

ion      s     py     pz     px    dxy    dyz    dz2    dxz  x2-y2    tot
    1  0.030  0.019  0.059  0.026  0.000  0.000  0.000  0.000  0.000  0.133
    2  0.030  0.019  0.059  0.026  0.000  0.000  0.000  0.000  0.000  0.133
tot    0.059  0.037  0.118  0.053  0.000  0.000  0.000  0.000  0.000  0.267

band     6 # energy    9.97661578 # occ.  0.00000000

ion      s     py     pz     px    dxy    dyz    dz2    dxz  x2-y2    tot
    1  0.100  0.001  0.032  0.051  0.000  0.000  0.000  0.000  0.000  0.185
    2  0.100  0.001  0.032  0.051  0.000  0.000  0.000  0.000  0.000  0.185
tot    0.201  0.002  0.064  0.102  0.000  0.000  0.000  0.000  0.000  0.370

band     7 # energy   10.25759930 # occ.  0.00000000

ion      s     py     pz     px    dxy    dyz    dz2    dxz  x2-y2    tot
    1  0.001  0.051  0.001  0.019  0.000  0.000  0.000  0.000  0.000  0.072
    2  0.001  0.051  0.001  0.019  0.000  0.000  0.000  0.000  0.000  0.072
tot    0.002  0.102  0.003  0.037  0.000  0.000  0.000  0.000  0.000  0.144

band     8 # energy   11.67200860 # occ.  0.00000000

ion      s     py     pz     px    dxy    dyz    dz2    dxz  x2-y2    tot
    1  0.007  0.065  0.010  0.075  0.000  0.000  0.000  0.000  0.000  0.157
    2  0.007  0.065  0.010  0.075  0.000  0.000  0.000  0.000  0.000  0.157
tot    0.014  0.129  0.020  0.150  0.000  0.000  0.000  0.000  0.000  0.313

band     9 # energy   14.05493529 # occ.  0.00000000

ion      s     py     pz     px    dxy    dyz    dz2    dxz  x2-y2    tot
    1  0.047  0.010  0.041  0.001  0.000  0.000  0.000  0.000  0.000  0.099
    2  0.047  0.010  0.041  0.001  0.000  0.000  0.000  0.000  0.000  0.099
tot    0.094  0.021  0.081  0.002  0.000  0.000  0.000  0.000  0.000  0.199


 k-point    23 :    0.50000000 0.25000000 0.12500000     weight = 0.09375000

band     1 # energy   -5.47249179 # occ.  2.00000000

ion      s     py     pz     px    dxy    dyz    dz2    dxz  x2-y2    tot
    1  0.214  0.004  0.014  0.002  0.000  0.000  0.000  0.000  0.000  0.234
    2  0.214  0.004  0.014  0.002  0.000  0.000  0.000  0.000  0.000  0.234
tot    0.427  0.007  0.029  0.005  0.000  0.000  0.000  0.000  0.000  0.468

band     2 # energy   -1.14698430 # occ.  2.00000000

ion      s     py     pz     px    dxy    dyz    dz2    dxz  x2-y2    tot
    1  0.147  0.019  0.032  0.033  0.000  0.000  0.000  0.000  0.000  0.232
    2  0.147  0.019  0.032  0.033  0.000  0.000  0.000  0.000  0.000  0.232
tot    0.294  0.038  0.065  0.066  0.000  0.000  0.000  0.000  0.000  0.463

band     3 # energy    1.71642562 # occ.  2.00000000

ion      s     py     pz     px    dxy    dyz    dz2    dxz  x2-y2    tot
    1  0.026  0.038  0.037  0.082  0.000  0.000  0.000  0.000  0.000  0.184
    2  0.026  0.038  0.037  0.082  0.000  0.000  0.000  0.000  0.000  0.184
tot    0.052  0.077  0.074  0.165  0.000  0.000  0.000  0.000  0.000  0.368

band     4 # energy    3.20973258 # occ.  2.00000000

ion      s     py     pz     px    dxy    dyz    dz2    dxz  x2-y2    tot
    1  0.004  0.106  0.061  0.027  0.000  0.000  0.000  0.000  0.000  0.198
    2  0.004  0.106  0.061  0.027  0.000  0.000  0.000  0.000  0.000  0.198
tot    0.007  0.213  0.122  0.055  0.000  0.000  0.000  0.000  0.000  0.396

band     5 # energy    8.86943286 # occ.  0.00000000

ion      s     py     pz     px    dxy    dyz    dz2    dxz  x2-y2    tot
    1  0.044  0.020  0.042  0.022  0.000  0.000  0.000  0.000  0.000  0.128
    2  0.044  0.020  0.042  0.022  0.000  0.000  0.000  0.000  0.000  0.128
tot    0.088  0.040  0.084  0.043  0.000  0.000  0.000  0.000  0.000  0.256

band     6 # energy    9.58536808 # occ.  0.00000000

ion      s     py     pz     px    dxy    dyz    dz2    dxz  x2-y2    tot
    1  0.042  0.036  0.008  0.042  0.000  0.000  0.000  0.000  0.000  0.128
    2  0.042  0.036  0.008  0.042  0.000  0.000  0.000  0.000  0.000  0.128
tot    0.084  0.073  0.016  0.083  0.000  0.000  0.000  0.000  0.000  0.256

band     7 # energy   11.15266947 # occ.  0.00000000

ion      s     py     pz     px    dxy    dyz    dz2    dxz  x2-y2    tot
    1  0.039  0.032  0.024  0.028  0.000  0.000  0.000  0.000  0.000  0.122
    2  0.039  0.032  0.024  0.028  0.000  0.000  0.000  0.000  0.000  0.122
tot    0.077  0.064  0.048  0.055  0.000  0.000  0.000  0.000  0.000  0.244

band     8 # energy   12.12906375 # occ.  0.00000000

ion      s     py     pz     px    dxy    dyz    dz2    dxz  x2-y2    tot
    1  0.015  0.043  0.021  0.057  0.000  0.000  0.000  0.000  0.000  0.136
    2  0.015  0.043  0.021  0.057  0.000  0.000  0.000  0.000  0.000  0.136
tot    0.030  0.086  0.042  0.113  0.000  0.000  0.000  0.000  0.000  0.272

band     9 # energy   15.35516335 # occ.  0.00000000

ion      s     py     pz     px    dxy    dyz    dz2    dxz  x2-y2    tot
    1  0.024  0.012  0.040  0.025  0.000  0.000  0.000  0.000  0.000  0.101
    2  0.024  0.012  0.041  0.025  0.000  0.000  0.000  0.000  0.000  0.101
tot    0.048  0.024  0.081  0.049  0.000  0.000  0.000  0.000  0.000  0.202


 k-point    24 :   -0.37500000 0.25000000 0.12500000     weight = 0.04687500

band     1 # energy   -4.76351324 # occ.  2.00000000

ion      s     py     pz     px    dxy    dyz    dz2    dxz  x2-y2    tot
    1  0.223  0.003  0.009  0.009  0.000  0.000  0.000  0.000  0.000  0.245
    2  0.223  0.003  0.009  0.009  0.000  0.000  0.000  0.000  0.000  0.245
tot    0.446  0.006  0.019  0.019  0.000  0.000  0.000  0.000  0.000  0.490

band     2 # energy   -2.18199001 # occ.  2.00000000

ion      s     py     pz     px    dxy    dyz    dz2    dxz  x2-y2    tot
    1  0.137  0.021  0.030  0.030  0.000  0.000  0.000  0.000  0.000  0.217
    2  0.137  0.021  0.030  0.030  0.000  0.000  0.000  0.000  0.000  0.217
tot    0.274  0.041  0.060  0.060  0.000  0.000  0.000  0.000  0.000  0.435

band     3 # energy    1.56930483 # occ.  2.00000000

ion      s     py     pz     px    dxy    dyz    dz2    dxz  x2-y2    tot
    1  0.035  0.031  0.061  0.061  0.000  0.000  0.000  0.000  0.000  0.188
    2  0.035  0.031  0.061  0.061  0.000  0.000  0.000  0.000  0.000  0.188
tot    0.071  0.061  0.122  0.122  0.000  0.000  0.000  0.000  0.000  0.376

band     4 # energy    2.96166877 # occ.  2.00000000

ion      s     py     pz     px    dxy    dyz    dz2    dxz  x2-y2    tot
    1  0.001  0.108  0.043  0.043  0.000  0.000  0.000  0.000  0.000  0.194
    2  0.001  0.108  0.043  0.043  0.000  0.000  0.000  0.000  0.000  0.194
tot    0.002  0.216  0.085  0.085  0.000  0.000  0.000  0.000  0.000  0.388

band     5 # energy    9.06965470 # occ.  0.00000000

ion      s     py     pz     px    dxy    dyz    dz2    dxz  x2-y2    tot
    1  0.084  0.013  0.032  0.032  0.000  0.000  0.000  0.000  0.000  0.161
    2  0.084  0.013  0.032  0.032  0.000  0.000  0.000  0.000  0.000  0.161
tot    0.167  0.026  0.064  0.064  0.000  0.000  0.000  0.000  0.000  0.322

band     6 # energy    9.13885349 # occ.  0.00000000

ion      s     py     pz     px    dxy    dyz    dz2    dxz  x2-y2    tot
    1  0.008  0.041  0.019  0.019  0.000  0.000  0.000  0.000  0.000  0.086
    2  0.008  0.041  0.019  0.019  0.000  0.000  0.000  0.000  0.000  0.086
tot    0.016  0.082  0.037  0.037  0.000  0.000  0.000  0.000  0.000  0.172

band     7 # energy   12.10670498 # occ.  0.00000000

ion      s     py     pz     px    dxy    dyz    dz2    dxz  x2-y2    tot
    1  0.022  0.040  0.037  0.037  0.000  0.000  0.000  0.000  0.000  0.135
    2  0.022  0.040  0.037  0.037  0.000  0.000  0.000  0.000  0.000  0.135
tot    0.044  0.081  0.073  0.073  0.000  0.000  0.000  0.000  0.000  0.270

band     8 # energy   13.34934115 # occ.  0.00000000

ion      s     py     pz     px    dxy    dyz    dz2    dxz  x2-y2    tot
    1  0.018  0.064  0.009  0.009  0.000  0.000  0.000  0.000  0.000  0.099
    2  0.018  0.064  0.009  0.009  0.000  0.000  0.000  0.000  0.000  0.099
tot    0.036  0.127  0.018  0.018  0.000  0.000  0.000  0.000  0.000  0.198

band     9 # energy   13.68114053 # occ.  0.00000000

ion      s     py     pz     px    dxy    dyz    dz2    dxz  x2-y2    tot
    1  0.021  0.014  0.058  0.058  0.000  0.000  0.000  0.000  0.000  0.152
    2  0.021  0.014  0.058  0.058  0.000  0.000  0.000  0.000  0.000  0.152
tot    0.041  0.029  0.117  0.117  0.000  0.000  0.000  0.000  0.000  0.304


 k-point    25 :    0.50000000 0.37500000 0.12500000     weight = 0.04687500

band     1 # energy   -5.05955370 # occ.  2.00000000

ion      s     py     pz     px    dxy    dyz    dz2    dxz  x2-y2    tot
    1  0.208  0.001  0.024  0.002  0.000  0.000  0.000  0.000  0.000  0.235
    2  0.208  0.001  0.024  0.002  0.000  0.000  0.000  0.000  0.000  0.235
tot    0.416  0.002  0.047  0.003  0.000  0.000  0.000  0.000  0.000  0.469

band     2 # energy   -1.30661587 # occ.  2.00000000

ion      s     py     pz     px    dxy    dyz    dz2    dxz  x2-y2    tot
    1  0.183  0.003  0.052  0.014  0.000  0.000  0.000  0.000  0.000  0.252
    2  0.183  0.003  0.052  0.014  0.000  0.000  0.000  0.000  0.000  0.252
tot    0.367  0.005  0.103  0.028  0.000  0.000  0.000  0.000  0.000  0.504

band     3 # energy    1.67120695 # occ.  2.00000000

ion      s     py     pz     px    dxy    dyz    dz2    dxz  x2-y2    tot
    1  0.008  0.065  0.015  0.090  0.000  0.000  0.000  0.000  0.000  0.177
    2  0.008  0.065  0.015  0.090  0.000  0.000  0.000  0.000  0.000  0.177
tot    0.015  0.129  0.029  0.181  0.000  0.000  0.000  0.000  0.000  0.355

band     4 # energy    2.31729374 # occ.  2.00000000

ion      s     py     pz     px    dxy    dyz    dz2    dxz  x2-y2    tot
    1  0.001  0.098  0.029  0.057  0.000  0.000  0.000  0.000  0.000  0.184
    2  0.001  0.098  0.029  0.057  0.000  0.000  0.000  0.000  0.000  0.184
tot    0.002  0.196  0.057  0.114  0.000  0.000  0.000  0.000  0.000  0.369

band     5 # energy    7.87502126 # occ.  0.00000000

ion      s     py     pz     px    dxy    dyz    dz2    dxz  x2-y2    tot
    1  0.039  0.023  0.037  0.020  0.000  0.000  0.000  0.000  0.000  0.118
    2  0.039  0.023  0.037  0.020  0.000  0.000  0.000  0.000  0.000  0.118
tot    0.077  0.045  0.075  0.039  0.000  0.000  0.000  0.000  0.000  0.236

band     6 # energy    8.63215283 # occ.  0.00000000

ion      s     py     pz     px    dxy    dyz    dz2    dxz  x2-y2    tot
    1  0.038  0.021  0.020  0.009  0.000  0.000  0.000  0.000  0.000  0.088
    2  0.038  0.021  0.020  0.009  0.000  0.000  0.000  0.000  0.000  0.088
tot    0.077  0.042  0.040  0.017  0.000  0.000  0.000  0.000  0.000  0.176

band     7 # energy   11.93357612 # occ.  0.00000000

ion      s     py     pz     px    dxy    dyz    dz2    dxz  x2-y2    tot
    1  0.037  0.053  0.021  0.041  0.000  0.000  0.000  0.000  0.000  0.152
    2  0.037  0.053  0.021  0.041  0.000  0.000  0.000  0.000  0.000  0.152
tot    0.074  0.106  0.041  0.082  0.000  0.000  0.000  0.000  0.000  0.303

band     8 # energy   14.32242506 # occ.  0.00000000

ion      s     py     pz     px    dxy    dyz    dz2    dxz  x2-y2    tot
    1  0.002  0.054  0.009  0.093  0.000  0.000  0.000  0.000  0.000  0.158
    2  0.002  0.054  0.009  0.093  0.000  0.000  0.000  0.000  0.000  0.158
tot    0.005  0.109  0.017  0.186  0.000  0.000  0.000  0.000  0.000  0.317

band     9 # energy   16.59302419 # occ.  0.00000000

ion      s     py     pz     px    dxy    dyz    dz2    dxz  x2-y2    tot
    1  0.011  0.034  0.109  0.015  0.000  0.000  0.000  0.000  0.000  0.169
    2  0.038  0.012  0.014  0.007  0.000  0.000  0.000  0.000  0.000  0.072
tot    0.049  0.046  0.123  0.023  0.000  0.000  0.000  0.000  0.000  0.241


 k-point    26 :   -0.37500000 0.37500000 0.12500000     weight = 0.09375000

band     1 # energy   -4.10397959 # occ.  2.00000000

ion      s     py     pz     px    dxy    dyz    dz2    dxz  x2-y2    tot
    1  0.214  0.001  0.023  0.007  0.000  0.000  0.000  0.000  0.000  0.245
    2  0.214  0.001  0.023  0.007  0.000  0.000  0.000  0.000  0.000  0.245
tot    0.427  0.003  0.046  0.015  0.000  0.000  0.000  0.000  0.000  0.491

band     2 # energy   -2.37386029 # occ.  2.00000000

ion      s     py     pz     px    dxy    dyz    dz2    dxz  x2-y2    tot
    1  0.187  0.005  0.035  0.018  0.000  0.000  0.000  0.000  0.000  0.245
    2  0.187  0.005  0.035  0.018  0.000  0.000  0.000  0.000  0.000  0.245
tot    0.373  0.009  0.070  0.037  0.000  0.000  0.000  0.000  0.000  0.490

band     3 # energy    0.91868522 # occ.  2.00000000

ion      s     py     pz     px    dxy    dyz    dz2    dxz  x2-y2    tot
    1  0.007  0.058  0.044  0.056  0.000  0.000  0.000  0.000  0.000  0.164
    2  0.007  0.058  0.044  0.056  0.000  0.000  0.000  0.000  0.000  0.164
tot    0.013  0.116  0.087  0.111  0.000  0.000  0.000  0.000  0.000  0.328

band     4 # energy    2.10449961 # occ.  2.00000000

ion      s     py     pz     px    dxy    dyz    dz2    dxz  x2-y2    tot
    1  0.001  0.089  0.022  0.069  0.000  0.000  0.000  0.000  0.000  0.181
    2  0.001  0.089  0.022  0.069  0.000  0.000  0.000  0.000  0.000  0.181
tot    0.003  0.177  0.043  0.138  0.000  0.000  0.000  0.000  0.000  0.362

band     5 # energy    8.34918241 # occ.  0.00000000

ion      s     py     pz     px    dxy    dyz    dz2    dxz  x2-y2    tot
    1  0.039  0.028  0.028  0.011  0.000  0.000  0.000  0.000  0.000  0.107
    2  0.039  0.028  0.028  0.011  0.000  0.000  0.000  0.000  0.000  0.107
tot    0.078  0.057  0.057  0.022  0.000  0.000  0.000  0.000  0.000  0.214

band     6 # energy   10.34546274 # occ.  0.00000000

ion      s     py     pz     px    dxy    dyz    dz2    dxz  x2-y2    tot
    1  0.015  0.056  0.008  0.016  0.000  0.000  0.000  0.000  0.000  0.096
    2  0.015  0.056  0.008  0.016  0.000  0.000  0.000  0.000  0.000  0.096
tot    0.030  0.112  0.017  0.033  0.000  0.000  0.000  0.000  0.000  0.192

band     7 # energy   11.43953555 # occ.  0.00000000

ion      s     py     pz     px    dxy    dyz    dz2    dxz  x2-y2    tot
    1  0.048  0.027  0.033  0.044  0.000  0.000  0.000  0.000  0.000  0.153
    2  0.048  0.027  0.033  0.044  0.000  0.000  0.000  0.000  0.000  0.153
tot    0.096  0.054  0.067  0.089  0.000  0.000  0.000  0.000  0.000  0.307

band     8 # energy   13.71787855 # occ.  0.00000000

ion      s     py     pz     px    dxy    dyz    dz2    dxz  x2-y2    tot
    1  0.025  0.045  0.039  0.030  0.000  0.000  0.000  0.000  0.000  0.139
    2  0.025  0.045  0.039  0.030  0.000  0.000  0.000  0.000  0.000  0.139
tot    0.049  0.091  0.078  0.060  0.000  0.000  0.000  0.000  0.000  0.278

band     9 # energy   14.73773135 # occ.  0.00000000

ion      s     py     pz     px    dxy    dyz    dz2    dxz  x2-y2    tot
    1  0.013  0.033  0.041  0.051  0.000  0.000  0.000  0.000  0.000  0.139
    2  0.013  0.033  0.041  0.051  0.000  0.000  0.000  0.000  0.000  0.139
tot    0.026  0.066  0.083  0.102  0.000  0.000  0.000  0.000  0.000  0.277


 k-point    27 :   -0.25000000 0.37500000 0.12500000     weight = 0.04687500

band     1 # energy   -4.48850697 # occ.  2.00000000

ion      s     py     pz     px    dxy    dyz    dz2    dxz  x2-y2    tot
    1  0.215  0.004  0.008  0.016  0.000  0.000  0.000  0.000  0.000  0.243
    2  0.215  0.004  0.008  0.016  0.000  0.000  0.000  0.000  0.000  0.243
tot    0.430  0.007  0.016  0.033  0.000  0.000  0.000  0.000  0.000  0.486

band     2 # energy   -1.97120074 # occ.  2.00000000

ion      s     py     pz     px    dxy    dyz    dz2    dxz  x2-y2    tot
    1  0.182  0.006  0.036  0.022  0.000  0.000  0.000  0.000  0.000  0.245
    2  0.182  0.006  0.036  0.022  0.000  0.000  0.000  0.000  0.000  0.245
tot    0.363  0.012  0.071  0.044  0.000  0.000  0.000  0.000  0.000  0.491

band     3 # energy    0.73818712 # occ.  2.00000000

ion      s     py     pz     px    dxy    dyz    dz2    dxz  x2-y2    tot
    1  0.006  0.053  0.068  0.034  0.000  0.000  0.000  0.000  0.000  0.161
    2  0.006  0.053  0.068  0.034  0.000  0.000  0.000  0.000  0.000  0.161
tot    0.012  0.106  0.136  0.068  0.000  0.000  0.000  0.000  0.000  0.322

band     4 # energy    2.51183263 # occ.  2.00000000

ion      s     py     pz     px    dxy    dyz    dz2    dxz  x2-y2    tot
    1  0.003  0.091  0.019  0.074  0.000  0.000  0.000  0.000  0.000  0.186
    2  0.003  0.091  0.019  0.074  0.000  0.000  0.000  0.000  0.000  0.186
tot    0.006  0.181  0.037  0.148  0.000  0.000  0.000  0.000  0.000  0.373

band     5 # energy    8.85603754 # occ.  0.00000000

ion      s     py     pz     px    dxy    dyz    dz2    dxz  x2-y2    tot
    1  0.038  0.035  0.031  0.007  0.000  0.000  0.000  0.000  0.000  0.111
    2  0.038  0.035  0.031  0.007  0.000  0.000  0.000  0.000  0.000  0.111
tot    0.076  0.070  0.062  0.014  0.000  0.000  0.000  0.000  0.000  0.222

band     6 # energy   10.63946849 # occ.  0.00000000

ion      s     py     pz     px    dxy    dyz    dz2    dxz  x2-y2    tot
    1  0.018  0.051  0.027  0.024  0.000  0.000  0.000  0.000  0.000  0.121
    2  0.018  0.051  0.027  0.024  0.000  0.000  0.000  0.000  0.000  0.121
tot    0.037  0.103  0.054  0.048  0.000  0.000  0.000  0.000  0.000  0.242

band     7 # energy   11.35627642 # occ.  0.00000000

ion      s     py     pz     px    dxy    dyz    dz2    dxz  x2-y2    tot
    1  0.047  0.032  0.027  0.020  0.000  0.000  0.000  0.000  0.000  0.126
    2  0.047  0.032  0.027  0.020  0.000  0.000  0.000  0.000  0.000  0.126
tot    0.093  0.064  0.054  0.041  0.000  0.000  0.000  0.000  0.000  0.252

band     8 # energy   13.27621110 # occ.  0.00000000

ion      s     py     pz     px    dxy    dyz    dz2    dxz  x2-y2    tot
    1  0.018  0.017  0.012  0.068  0.000  0.000  0.000  0.000  0.000  0.116
    2  0.018  0.017  0.012  0.068  0.000  0.000  0.000  0.000  0.000  0.116
tot    0.037  0.035  0.025  0.136  0.000  0.000  0.000  0.000  0.000  0.232

band     9 # energy   14.19373569 # occ.  0.00000000

ion      s     py     pz     px    dxy    dyz    dz2    dxz  x2-y2    tot
    1  0.015  0.056  0.088  0.013  0.000  0.000  0.000  0.000  0.000  0.172
    2  0.015  0.056  0.088  0.013  0.000  0.000  0.000  0.000  0.000  0.172
tot    0.030  0.112  0.176  0.026  0.000  0.000  0.000  0.000  0.000  0.344


 k-point    28 :   -0.37500000 0.50000000 0.12500000     weight = 0.02343750

band     1 # energy   -3.26991619 # occ.  2.00000000

ion      s     py     pz     px    dxy    dyz    dz2    dxz  x2-y2    tot
    1  0.401  0.000  0.000  0.000  0.000  0.000  0.000  0.000  0.000  0.402
    2  0.002  0.000  0.078  0.010  0.000  0.000  0.000  0.000  0.000  0.090
tot    0.403  0.000  0.078  0.010  0.000  0.000  0.000  0.000  0.000  0.491

band     2 # energy   -3.26988423 # occ.  2.00000000

ion      s     py     pz     px    dxy    dyz    dz2    dxz  x2-y2    tot
    1  0.002  0.000  0.078  0.010  0.000  0.000  0.000  0.000  0.000  0.090
    2  0.401  0.000  0.000  0.000  0.000  0.000  0.000  0.000  0.000  0.402
tot    0.403  0.000  0.078  0.010  0.000  0.000  0.000  0.000  0.000  0.491

band     3 # energy    1.60668891 # occ.  2.00000000

ion      s     py     pz     px    dxy    dyz    dz2    dxz  x2-y2    tot
    1  0.001  0.024  0.027  0.132  0.000  0.000  0.000  0.000  0.000  0.183
    2  0.004  0.138  0.005  0.023  0.000  0.000  0.000  0.000  0.000  0.169
tot    0.004  0.162  0.032  0.154  0.000  0.000  0.000  0.000  0.000  0.353

band     4 # energy    1.60669098 # occ.  2.00000000

ion      s     py     pz     px    dxy    dyz    dz2    dxz  x2-y2    tot
    1  0.004  0.138  0.005  0.023  0.000  0.000  0.000  0.000  0.000  0.169
    2  0.001  0.024  0.027  0.132  0.000  0.000  0.000  0.000  0.000  0.183
tot    0.004  0.162  0.032  0.154  0.000  0.000  0.000  0.000  0.000  0.353

band     5 # energy    7.90673780 # occ.  0.00000000

ion      s     py     pz     px    dxy    dyz    dz2    dxz  x2-y2    tot
    1  0.018  0.010  0.039  0.021  0.000  0.000  0.000  0.000  0.000  0.089
    2  0.063  0.036  0.011  0.006  0.000  0.000  0.000  0.000  0.000  0.117
tot    0.081  0.047  0.050  0.027  0.000  0.000  0.000  0.000  0.000  0.205

band     6 # energy    7.90674251 # occ.  0.00000000

ion      s     py     pz     px    dxy    dyz    dz2    dxz  x2-y2    tot
    1  0.063  0.036  0.011  0.006  0.000  0.000  0.000  0.000  0.000  0.117
    2  0.018  0.010  0.039  0.021  0.000  0.000  0.000  0.000  0.000  0.089
tot    0.081  0.047  0.050  0.027  0.000  0.000  0.000  0.000  0.000  0.205

band     7 # energy   14.14742894 # occ.  0.00000000

ion      s     py     pz     px    dxy    dyz    dz2    dxz  x2-y2    tot
    1  0.004  0.009  0.054  0.061  0.000  0.000  0.000  0.000  0.000  0.127
    2  0.041  0.108  0.005  0.005  0.000  0.000  0.000  0.000  0.000  0.159
tot    0.045  0.117  0.058  0.066  0.000  0.000  0.000  0.000  0.000  0.286

band     8 # energy   14.14743523 # occ.  0.00000000

ion      s     py     pz     px    dxy    dyz    dz2    dxz  x2-y2    tot
    1  0.041  0.108  0.005  0.005  0.000  0.000  0.000  0.000  0.000  0.159
    2  0.004  0.009  0.054  0.061  0.000  0.000  0.000  0.000  0.000  0.127
tot    0.045  0.117  0.058  0.066  0.000  0.000  0.000  0.000  0.000  0.286

band     9 # energy   17.02763723 # occ.  0.00000000

ion      s     py     pz     px    dxy    dyz    dz2    dxz  x2-y2    tot
    1  0.001  0.047  0.012  0.044  0.000  0.000  0.000  0.000  0.000  0.103
    2  0.000  0.020  0.028  0.102  0.000  0.000  0.000  0.000  0.000  0.151
tot    0.001  0.067  0.040  0.147  0.000  0.000  0.000  0.000  0.000  0.254


 k-point    29 :   -0.25000000 0.50000000 0.25000000     weight = 0.01171875

band     1 # energy   -3.17859383 # occ.  2.00000000

ion      s     py     pz     px    dxy    dyz    dz2    dxz  x2-y2    tot
    1  0.412  0.000  0.000  0.000  0.000  0.000  0.000  0.000  0.000  0.413
    2  0.002  0.000  0.042  0.042  0.000  0.000  0.000  0.000  0.000  0.087
tot    0.415  0.000  0.043  0.043  0.000  0.000  0.000  0.000  0.000  0.500

band     2 # energy   -3.17856044 # occ.  2.00000000

ion      s     py     pz     px    dxy    dyz    dz2    dxz  x2-y2    tot
    1  0.002  0.000  0.042  0.042  0.000  0.000  0.000  0.000  0.000  0.087
    2  0.412  0.000  0.000  0.000  0.000  0.000  0.000  0.000  0.000  0.413
tot    0.415  0.000  0.043  0.043  0.000  0.000  0.000  0.000  0.000  0.500

band     3 # energy    1.14905584 # occ.  2.00000000

ion      s     py     pz     px    dxy    dyz    dz2    dxz  x2-y2    tot
    1  0.000  0.000  0.091  0.091  0.000  0.000  0.000  0.000  0.000  0.183
    2  0.000  0.143  0.000  0.000  0.000  0.000  0.000  0.000  0.000  0.143
tot    0.000  0.143  0.092  0.092  0.000  0.000  0.000  0.000  0.000  0.327

band     4 # energy    1.14905959 # occ.  2.00000000

ion      s     py     pz     px    dxy    dyz    dz2    dxz  x2-y2    tot
    1  0.000  0.143  0.000  0.000  0.000  0.000  0.000  0.000  0.000  0.143
    2  0.000  0.000  0.091  0.091  0.000  0.000  0.000  0.000  0.000  0.183
tot    0.000  0.143  0.092  0.092  0.000  0.000  0.000  0.000  0.000  0.327

band     5 # energy   10.31560773 # occ.  0.00000000

ion      s     py     pz     px    dxy    dyz    dz2    dxz  x2-y2    tot
    1  0.000  0.155  0.000  0.000  0.000  0.000  0.000  0.000  0.000  0.155
    2  0.000  0.008  0.000  0.000  0.000  0.000  0.000  0.000  0.000  0.008
tot    0.000  0.163  0.000  0.000  0.000  0.000  0.000  0.000  0.000  0.163

band     6 # energy   10.31561755 # occ.  0.00000000

ion      s     py     pz     px    dxy    dyz    dz2    dxz  x2-y2    tot
    1  0.000  0.008  0.000  0.000  0.000  0.000  0.000  0.000  0.000  0.008
    2  0.000  0.155  0.000  0.000  0.000  0.000  0.000  0.000  0.000  0.155
tot    0.000  0.163  0.000  0.000  0.000  0.000  0.000  0.000  0.000  0.163

band     7 # energy   11.16725355 # occ.  0.00000000

ion      s     py     pz     px    dxy    dyz    dz2    dxz  x2-y2    tot
    1  0.002  0.000  0.100  0.100  0.000  0.000  0.000  0.000  0.000  0.202
    2  0.126  0.000  0.002  0.002  0.000  0.000  0.000  0.000  0.000  0.129
tot    0.128  0.000  0.102  0.102  0.000  0.000  0.000  0.000  0.000  0.331

band     8 # energy   11.16726926 # occ.  0.00000000

ion      s     py     pz     px    dxy    dyz    dz2    dxz  x2-y2    tot
    1  0.126  0.000  0.002  0.002  0.000  0.000  0.000  0.000  0.000  0.129
    2  0.002  0.000  0.100  0.100  0.000  0.000  0.000  0.000  0.000  0.202
tot    0.128  0.000  0.102  0.102  0.000  0.000  0.000  0.000  0.000  0.331

band     9 # energy   17.03769072 # occ.  0.00000000

ion      s     py     pz     px    dxy    dyz    dz2    dxz  x2-y2    tot
    1  0.000  0.015  0.078  0.078  0.000  0.000  0.000  0.000  0.000  0.172
    2  0.000  0.063  0.019  0.019  0.000  0.000  0.000  0.000  0.000  0.101
tot    0.000  0.079  0.097  0.097  0.000  0.000  0.000  0.000  0.000  0.273


 k-point    30 :    0.00000000 0.00000000 0.00000000     weight = 0.00000000

band     1 # energy   -7.89175454 # occ.  2.00000000

ion      s     py     pz     px    dxy    dyz    dz2    dxz  x2-y2    tot
    1  0.218  0.000  0.000  0.000  0.000  0.000  0.000  0.000  0.000  0.218
    2  0.218  0.000  0.000  0.000  0.000  0.000  0.000  0.000  0.000  0.218
tot    0.436  0.000  0.000  0.000  0.000  0.000  0.000  0.000  0.000  0.436

band     2 # energy    5.25325955 # occ.  2.00000000

ion      s     py     pz     px    dxy    dyz    dz2    dxz  x2-y2    tot
    1  0.000  0.099  0.075  0.041  0.000  0.000  0.000  0.000  0.000  0.215
    2  0.000  0.099  0.075  0.041  0.000  0.000  0.000  0.000  0.000  0.215
tot    0.000  0.198  0.150  0.082  0.000  0.000  0.000  0.000  0.000  0.430

band     3 # energy    5.25326592 # occ.  2.00000000

ion      s     py     pz     px    dxy    dyz    dz2    dxz  x2-y2    tot
    1  0.000  0.035  0.008  0.172  0.000  0.000  0.000  0.000  0.000  0.215
    2  0.000  0.035  0.008  0.172  0.000  0.000  0.000  0.000  0.000  0.215
tot    0.000  0.070  0.017  0.344  0.000  0.000  0.000  0.000  0.000  0.430

band     4 # energy    5.25326747 # occ.  2.00000000

ion      s     py     pz     px    dxy    dyz    dz2    dxz  x2-y2    tot
    1  0.000  0.081  0.132  0.002  0.000  0.000  0.000  0.000  0.000  0.215
    2  0.000  0.081  0.132  0.002  0.000  0.000  0.000  0.000  0.000  0.215
tot    0.000  0.162  0.263  0.005  0.000  0.000  0.000  0.000  0.000  0.430

band     5 # energy    8.58137515 # occ.  0.00000000

ion      s     py     pz     px    dxy    dyz    dz2    dxz  x2-y2    tot
    1  0.000  0.097  0.051  0.002  0.000  0.000  0.000  0.000  0.000  0.150
    2  0.000  0.097  0.051  0.002  0.000  0.000  0.000  0.000  0.000  0.150
tot    0.000  0.194  0.101  0.004  0.000  0.000  0.000  0.000  0.000  0.300

band     6 # energy    8.58137768 # occ.  0.00000000

ion      s     py     pz     px    dxy    dyz    dz2    dxz  x2-y2    tot
    1  0.000  0.007  0.033  0.110  0.000  0.000  0.000  0.000  0.000  0.150
    2  0.000  0.007  0.033  0.110  0.000  0.000  0.000  0.000  0.000  0.150
tot    0.000  0.013  0.066  0.221  0.000  0.000  0.000  0.000  0.000  0.300

band     7 # energy    8.58138385 # occ.  0.00000000

ion      s     py     pz     px    dxy    dyz    dz2    dxz  x2-y2    tot
    1  0.000  0.046  0.066  0.037  0.000  0.000  0.000  0.000  0.000  0.150
    2  0.000  0.046  0.066  0.037  0.000  0.000  0.000  0.000  0.000  0.150
tot    0.000  0.092  0.133  0.075  0.000  0.000  0.000  0.000  0.000  0.300

band     8 # energy    9.32329021 # occ.  0.00000000

ion      s     py     pz     px    dxy    dyz    dz2    dxz  x2-y2    tot
    1  0.365  0.000  0.000  0.000  0.000  0.000  0.000  0.000  0.000  0.365
    2  0.365  0.000  0.000  0.000  0.000  0.000  0.000  0.000  0.000  0.365
tot    0.731  0.000  0.000  0.000  0.000  0.000  0.000  0.000  0.000  0.731

band     9 # energy   13.97211376 # occ.  0.00000000

ion      s     py     pz     px    dxy    dyz    dz2    dxz  x2-y2    tot
    1  0.101  0.000  0.000  0.000  0.000  0.000  0.000  0.000  0.000  0.101
    2  0.101  0.000  0.000  0.000  0.000  0.000  0.000  0.000  0.000  0.101
tot    0.203  0.000  0.000  0.000  0.000  0.000  0.000  0.000  0.000  0.203


 k-point    31 :    0.02380952 0.00000000 0.02380952     weight = 0.00000000

band     1 # energy   -7.88095741 # occ.  2.00000000

ion      s     py     pz     px    dxy    dyz    dz2    dxz  x2-y2    tot
    1  0.218  0.000  0.000  0.000  0.000  0.000  0.000  0.000  0.000  0.218
    2  0.218  0.000  0.000  0.000  0.000  0.000  0.000  0.000  0.000  0.218
tot    0.436  0.000  0.000  0.000  0.000  0.000  0.000  0.000  0.000  0.437

band     2 # energy    5.18361847 # occ.  2.00000000

ion      s     py     pz     px    dxy    dyz    dz2    dxz  x2-y2    tot
    1  0.007  0.210  0.000  0.000  0.000  0.000  0.000  0.000  0.000  0.217
    2  0.007  0.210  0.000  0.000  0.000  0.000  0.000  0.000  0.000  0.217
tot    0.014  0.420  0.000  0.000  0.000  0.000  0.000  0.000  0.000  0.435

band     3 # energy    5.21177633 # occ.  2.00000000

ion      s     py     pz     px    dxy    dyz    dz2    dxz  x2-y2    tot
    1  0.000  0.000  0.109  0.105  0.000  0.000  0.000  0.000  0.000  0.214
    2  0.000  0.000  0.110  0.104  0.000  0.000  0.000  0.000  0.000  0.214
tot    0.000  0.000  0.219  0.210  0.000  0.000  0.000  0.000  0.000  0.428

band     4 # energy    5.21177978 # occ.  2.00000000

ion      s     py     pz     px    dxy    dyz    dz2    dxz  x2-y2    tot
    1  0.000  0.000  0.105  0.109  0.000  0.000  0.000  0.000  0.000  0.214
    2  0.000  0.000  0.104  0.110  0.000  0.000  0.000  0.000  0.000  0.214
tot    0.000  0.000  0.210  0.219  0.000  0.000  0.000  0.000  0.000  0.428

band     5 # energy    8.55404086 # occ.  0.00000000

ion      s     py     pz     px    dxy    dyz    dz2    dxz  x2-y2    tot
    1  0.001  0.148  0.000  0.000  0.000  0.000  0.000  0.000  0.000  0.149
    2  0.001  0.148  0.000  0.000  0.000  0.000  0.000  0.000  0.000  0.149
tot    0.002  0.296  0.000  0.000  0.000  0.000  0.000  0.000  0.000  0.298

band     6 # energy    8.63567381 # occ.  0.00000000

ion      s     py     pz     px    dxy    dyz    dz2    dxz  x2-y2    tot
    1  0.000  0.000  0.067  0.084  0.000  0.000  0.000  0.000  0.000  0.151
    2  0.000  0.000  0.067  0.083  0.000  0.000  0.000  0.000  0.000  0.151
tot    0.000  0.000  0.134  0.167  0.000  0.000  0.000  0.000  0.000  0.301

band     7 # energy    8.63567748 # occ.  0.00000000

ion      s     py     pz     px    dxy    dyz    dz2    dxz  x2-y2    tot
    1  0.000  0.000  0.084  0.067  0.000  0.000  0.000  0.000  0.000  0.151
    2  0.000  0.000  0.083  0.067  0.000  0.000  0.000  0.000  0.000  0.151
tot    0.000  0.000  0.167  0.134  0.000  0.000  0.000  0.000  0.000  0.301

band     8 # energy    9.39020725 # occ.  0.00000000

ion      s     py     pz     px    dxy    dyz    dz2    dxz  x2-y2    tot
    1  0.358  0.005  0.000  0.000  0.000  0.000  0.000  0.000  0.000  0.363
    2  0.358  0.005  0.000  0.000  0.000  0.000  0.000  0.000  0.000  0.363
tot    0.716  0.011  0.000  0.000  0.000  0.000  0.000  0.000  0.000  0.727

band     9 # energy   14.01911823 # occ.  0.00000000

ion      s     py     pz     px    dxy    dyz    dz2    dxz  x2-y2    tot
    1  0.099  0.002  0.000  0.000  0.000  0.000  0.000  0.000  0.000  0.101
    2  0.100  0.002  0.000  0.000  0.000  0.000  0.000  0.000  0.000  0.102
tot    0.199  0.004  0.000  0.000  0.000  0.000  0.000  0.000  0.000  0.203


 k-point    32 :    0.04761905 0.00000000 0.04761905     weight = 0.00000000

band     1 # energy   -7.84854159 # occ.  2.00000000

ion      s     py     pz     px    dxy    dyz    dz2    dxz  x2-y2    tot
    1  0.218  0.000  0.000  0.000  0.000  0.000  0.000  0.000  0.000  0.218
    2  0.218  0.000  0.000  0.000  0.000  0.000  0.000  0.000  0.000  0.218
tot    0.436  0.001  0.000  0.000  0.000  0.000  0.000  0.000  0.000  0.437

band     2 # energy    4.98780963 # occ.  2.00000000

ion      s     py     pz     px    dxy    dyz    dz2    dxz  x2-y2    tot
    1  0.025  0.198  0.000  0.000  0.000  0.000  0.000  0.000  0.000  0.223
    2  0.025  0.198  0.000  0.000  0.000  0.000  0.000  0.000  0.000  0.223
tot    0.050  0.396  0.000  0.000  0.000  0.000  0.000  0.000  0.000  0.446

band     3 # energy    5.09524652 # occ.  2.00000000

ion      s     py     pz     px    dxy    dyz    dz2    dxz  x2-y2    tot
    1  0.000  0.000  0.103  0.109  0.000  0.000  0.000  0.000  0.000  0.212
    2  0.000  0.000  0.109  0.103  0.000  0.000  0.000  0.000  0.000  0.212
tot    0.000  0.000  0.212  0.212  0.000  0.000  0.000  0.000  0.000  0.424

band     4 # energy    5.09524972 # occ.  2.00000000

ion      s     py     pz     px    dxy    dyz    dz2    dxz  x2-y2    tot
    1  0.000  0.000  0.109  0.103  0.000  0.000  0.000  0.000  0.000  0.212
    2  0.000  0.000  0.103  0.109  0.000  0.000  0.000  0.000  0.000  0.212
tot    0.000  0.000  0.212  0.212  0.000  0.000  0.000  0.000  0.000  0.424

band     5 # energy    8.47518299 # occ.  0.00000000

ion      s     py     pz     px    dxy    dyz    dz2    dxz  x2-y2    tot
    1  0.004  0.143  0.000  0.000  0.000  0.000  0.000  0.000  0.000  0.147
    2  0.004  0.143  0.000  0.000  0.000  0.000  0.000  0.000  0.000  0.147
tot    0.009  0.286  0.000  0.000  0.000  0.000  0.000  0.000  0.000  0.295

band     6 # energy    8.79062648 # occ.  0.00000000

ion      s     py     pz     px    dxy    dyz    dz2    dxz  x2-y2    tot
    1  0.000  0.000  0.074  0.079  0.000  0.000  0.000  0.000  0.000  0.153
    2  0.000  0.000  0.080  0.073  0.000  0.000  0.000  0.000  0.000  0.153
tot    0.000  0.000  0.154  0.152  0.000  0.000  0.000  0.000  0.000  0.306

band     7 # energy    8.79062988 # occ.  0.00000000

ion      s     py     pz     px    dxy    dyz    dz2    dxz  x2-y2    tot
    1  0.000  0.000  0.079  0.074  0.000  0.000  0.000  0.000  0.000  0.153
    2  0.000  0.000  0.073  0.080  0.000  0.000  0.000  0.000  0.000  0.153
tot    0.000  0.000  0.152  0.154  0.000  0.000  0.000  0.000  0.000  0.306

band     8 # energy    9.57520363 # occ.  0.00000000

ion      s     py     pz     px    dxy    dyz    dz2    dxz  x2-y2    tot
    1  0.339  0.019  0.000  0.000  0.000  0.000  0.000  0.000  0.000  0.358
    2  0.339  0.019  0.000  0.000  0.000  0.000  0.000  0.000  0.000  0.358
tot    0.678  0.038  0.000  0.000  0.000  0.000  0.000  0.000  0.000  0.716

band     9 # energy   13.72559310 # occ.  0.00000000

ion      s     py     pz     px    dxy    dyz    dz2    dxz  x2-y2    tot
    1  0.001  0.001  0.000  0.000  0.000  0.000  0.000  0.000  0.000  0.002
    2  0.001  0.001  0.000  0.000  0.000  0.000  0.000  0.000  0.000  0.002
tot    0.001  0.002  0.000  0.000  0.000  0.000  0.000  0.000  0.000  0.003


 k-point    33 :    0.07142857 0.00000000 0.07142857     weight = 0.00000000

band     1 # energy   -7.79453202 # occ.  2.00000000

ion      s     py     pz     px    dxy    dyz    dz2    dxz  x2-y2    tot
    1  0.218  0.001  0.000  0.000  0.000  0.000  0.000  0.000  0.000  0.219
    2  0.218  0.001  0.000  0.000  0.000  0.000  0.000  0.000  0.000  0.219
tot    0.435  0.002  0.000  0.000  0.000  0.000  0.000  0.000  0.000  0.437

band     2 # energy    4.69549313 # occ.  2.00000000

ion      s     py     pz     px    dxy    dyz    dz2    dxz  x2-y2    tot
    1  0.047  0.183  0.000  0.000  0.000  0.000  0.000  0.000  0.000  0.230
    2  0.047  0.183  0.000  0.000  0.000  0.000  0.000  0.000  0.000  0.230
tot    0.094  0.366  0.000  0.000  0.000  0.000  0.000  0.000  0.000  0.460

band     3 # energy    4.92222941 # occ.  2.00000000

ion      s     py     pz     px    dxy    dyz    dz2    dxz  x2-y2    tot
    1  0.000  0.000  0.098  0.111  0.000  0.000  0.000  0.000  0.000  0.209
    2  0.000  0.000  0.111  0.098  0.000  0.000  0.000  0.000  0.000  0.209
tot    0.000  0.000  0.209  0.209  0.000  0.000  0.000  0.000  0.000  0.419

band     4 # energy    4.92223230 # occ.  2.00000000

ion      s     py     pz     px    dxy    dyz    dz2    dxz  x2-y2    tot
    1  0.000  0.000  0.111  0.098  0.000  0.000  0.000  0.000  0.000  0.209
    2  0.000  0.000  0.098  0.111  0.000  0.000  0.000  0.000  0.000  0.209
tot    0.000  0.000  0.209  0.209  0.000  0.000  0.000  0.000  0.000  0.419

band     5 # energy    8.35307251 # occ.  0.00000000

ion      s     py     pz     px    dxy    dyz    dz2    dxz  x2-y2    tot
    1  0.009  0.136  0.000  0.000  0.000  0.000  0.000  0.000  0.000  0.145
    2  0.009  0.136  0.000  0.000  0.000  0.000  0.000  0.000  0.000  0.145
tot    0.018  0.271  0.000  0.000  0.000  0.000  0.000  0.000  0.000  0.289

band     6 # energy    9.02752166 # occ.  0.00000000

ion      s     py     pz     px    dxy    dyz    dz2    dxz  x2-y2    tot
    1  0.000  0.000  0.072  0.083  0.000  0.000  0.000  0.000  0.000  0.155
    2  0.000  0.000  0.084  0.071  0.000  0.000  0.000  0.000  0.000  0.155
tot    0.000  0.000  0.157  0.154  0.000  0.000  0.000  0.000  0.000  0.311

band     7 # energy    9.02752473 # occ.  0.00000000

ion      s     py     pz     px    dxy    dyz    dz2    dxz  x2-y2    tot
    1  0.000  0.000  0.083  0.072  0.000  0.000  0.000  0.000  0.000  0.155
    2  0.000  0.000  0.071  0.084  0.000  0.000  0.000  0.000  0.000  0.155
tot    0.000  0.000  0.154  0.157  0.000  0.000  0.000  0.000  0.000  0.311

band     8 # energy    9.83914456 # occ.  0.00000000

ion      s     py     pz     px    dxy    dyz    dz2    dxz  x2-y2    tot
    1  0.314  0.037  0.000  0.000  0.000  0.000  0.000  0.000  0.000  0.351
    2  0.314  0.037  0.000  0.000  0.000  0.000  0.000  0.000  0.000  0.351
tot    0.628  0.073  0.000  0.000  0.000  0.000  0.000  0.000  0.000  0.701

band     9 # energy   13.38613718 # occ.  0.00000000

ion      s     py     pz     px    dxy    dyz    dz2    dxz  x2-y2    tot
    1  0.003  0.001  0.000  0.000  0.000  0.000  0.000  0.000  0.000  0.004
    2  0.003  0.001  0.000  0.000  0.000  0.000  0.000  0.000  0.000  0.004
tot    0.007  0.002  0.000  0.000  0.000  0.000  0.000  0.000  0.000  0.008


 k-point    34 :    0.09523810 0.00000000 0.09523810     weight = 0.00000000

band     1 # energy   -7.71900503 # occ.  2.00000000

ion      s     py     pz     px    dxy    dyz    dz2    dxz  x2-y2    tot
    1  0.217  0.002  0.000  0.000  0.000  0.000  0.000  0.000  0.000  0.219
    2  0.217  0.002  0.000  0.000  0.000  0.000  0.000  0.000  0.000  0.219
tot    0.435  0.003  0.000  0.000  0.000  0.000  0.000  0.000  0.000  0.438

band     2 # energy    4.33674503 # occ.  2.00000000

ion      s     py     pz     px    dxy    dyz    dz2    dxz  x2-y2    tot
    1  0.069  0.168  0.000  0.000  0.000  0.000  0.000  0.000  0.000  0.236
    2  0.069  0.168  0.000  0.000  0.000  0.000  0.000  0.000  0.000  0.236
tot    0.137  0.335  0.000  0.000  0.000  0.000  0.000  0.000  0.000  0.473

band     3 # energy    4.71278420 # occ.  2.00000000

ion      s     py     pz     px    dxy    dyz    dz2    dxz  x2-y2    tot
    1  0.000  0.000  0.093  0.114  0.000  0.000  0.000  0.000  0.000  0.207
    2  0.000  0.000  0.114  0.093  0.000  0.000  0.000  0.000  0.000  0.207
tot    0.000  0.000  0.207  0.207  0.000  0.000  0.000  0.000  0.000  0.414

band     4 # energy    4.71278678 # occ.  2.00000000

ion      s     py     pz     px    dxy    dyz    dz2    dxz  x2-y2    tot
    1  0.000  0.000  0.114  0.093  0.000  0.000  0.000  0.000  0.000  0.207
    2  0.000  0.000  0.093  0.114  0.000  0.000  0.000  0.000  0.000  0.207
tot    0.000  0.000  0.207  0.207  0.000  0.000  0.000  0.000  0.000  0.414

band     5 # energy    8.19857676 # occ.  0.00000000

ion      s     py     pz     px    dxy    dyz    dz2    dxz  x2-y2    tot
    1  0.014  0.127  0.000  0.000  0.000  0.000  0.000  0.000  0.000  0.141
    2  0.014  0.127  0.000  0.000  0.000  0.000  0.000  0.000  0.000  0.141
tot    0.029  0.254  0.000  0.000  0.000  0.000  0.000  0.000  0.000  0.283

band     6 # energy    9.32596395 # occ.  0.00000000

ion      s     py     pz     px    dxy    dyz    dz2    dxz  x2-y2    tot
    1  0.000  0.000  0.070  0.088  0.000  0.000  0.000  0.000  0.000  0.158
    2  0.000  0.000  0.089  0.069  0.000  0.000  0.000  0.000  0.000  0.158
tot    0.000  0.000  0.158  0.158  0.000  0.000  0.000  0.000  0.000  0.316

band     7 # energy    9.32596670 # occ.  0.00000000

ion      s     py     pz     px    dxy    dyz    dz2    dxz  x2-y2    tot
    1  0.000  0.000  0.088  0.070  0.000  0.000  0.000  0.000  0.000  0.158
    2  0.000  0.000  0.069  0.089  0.000  0.000  0.000  0.000  0.000  0.158
tot    0.000  0.000  0.158  0.158  0.000  0.000  0.000  0.000  0.000  0.316

band     8 # energy   10.12955582 # occ.  0.00000000

ion      s     py     pz     px    dxy    dyz    dz2    dxz  x2-y2    tot
    1  0.284  0.054  0.000  0.000  0.000  0.000  0.000  0.000  0.000  0.339
    2  0.284  0.054  0.000  0.000  0.000  0.000  0.000  0.000  0.000  0.339
tot    0.569  0.109  0.000  0.000  0.000  0.000  0.000  0.000  0.000  0.677

band     9 # energy   13.03642733 # occ.  0.00000000

ion      s     py     pz     px    dxy    dyz    dz2    dxz  x2-y2    tot
    1  0.011  0.000  0.000  0.000  0.000  0.000  0.000  0.000  0.000  0.011
    2  0.011  0.000  0.000  0.000  0.000  0.000  0.000  0.000  0.000  0.011
tot    0.023  0.000  0.000  0.000  0.000  0.000  0.000  0.000  0.000  0.023


 k-point    35 :    0.11904762 0.00000000 0.11904762     weight = 0.00000000

band     1 # energy   -7.62205811 # occ.  2.00000000

ion      s     py     pz     px    dxy    dyz    dz2    dxz  x2-y2    tot
    1  0.217  0.003  0.000  0.000  0.000  0.000  0.000  0.000  0.000  0.220
    2  0.217  0.003  0.000  0.000  0.000  0.000  0.000  0.000  0.000  0.220
tot    0.434  0.005  0.000  0.000  0.000  0.000  0.000  0.000  0.000  0.439

band     2 # energy    3.93434383 # occ.  2.00000000

ion      s     py     pz     px    dxy    dyz    dz2    dxz  x2-y2    tot
    1  0.088  0.154  0.000  0.000  0.000  0.000  0.000  0.000  0.000  0.242
    2  0.088  0.154  0.000  0.000  0.000  0.000  0.000  0.000  0.000  0.242
tot    0.176  0.308  0.000  0.000  0.000  0.000  0.000  0.000  0.000  0.484

band     3 # energy    4.48331437 # occ.  2.00000000

ion      s     py     pz     px    dxy    dyz    dz2    dxz  x2-y2    tot
    1  0.000  0.000  0.088  0.116  0.000  0.000  0.000  0.000  0.000  0.205
    2  0.000  0.000  0.118  0.087  0.000  0.000  0.000  0.000  0.000  0.205
tot    0.000  0.000  0.206  0.203  0.000  0.000  0.000  0.000  0.000  0.409

band     4 # energy    4.48331668 # occ.  2.00000000

ion      s     py     pz     px    dxy    dyz    dz2    dxz  x2-y2    tot
    1  0.000  0.000  0.116  0.088  0.000  0.000  0.000  0.000  0.000  0.205
    2  0.000  0.000  0.087  0.118  0.000  0.000  0.000  0.000  0.000  0.205
tot    0.000  0.000  0.203  0.206  0.000  0.000  0.000  0.000  0.000  0.409

band     5 # energy    8.02273583 # occ.  0.00000000

ion      s     py     pz     px    dxy    dyz    dz2    dxz  x2-y2    tot
    1  0.020  0.118  0.000  0.000  0.000  0.000  0.000  0.000  0.000  0.138
    2  0.020  0.118  0.000  0.000  0.000  0.000  0.000  0.000  0.000  0.138
tot    0.040  0.236  0.000  0.000  0.000  0.000  0.000  0.000  0.000  0.276

band     6 # energy    9.66914160 # occ.  0.00000000

ion      s     py     pz     px    dxy    dyz    dz2    dxz  x2-y2    tot
    1  0.000  0.000  0.060  0.100  0.000  0.000  0.000  0.000  0.000  0.160
    2  0.000  0.000  0.093  0.068  0.000  0.000  0.000  0.000  0.000  0.160
tot    0.000  0.000  0.153  0.168  0.000  0.000  0.000  0.000  0.000  0.321

band     7 # energy    9.66914409 # occ.  0.00000000

ion      s     py     pz     px    dxy    dyz    dz2    dxz  x2-y2    tot
    1  0.000  0.000  0.100  0.060  0.000  0.000  0.000  0.000  0.000  0.160
    2  0.000  0.000  0.068  0.093  0.000  0.000  0.000  0.000  0.000  0.160
tot    0.000  0.000  0.168  0.153  0.000  0.000  0.000  0.000  0.000  0.321

band     8 # energy   10.37443591 # occ.  0.00000000

ion      s     py     pz     px    dxy    dyz    dz2    dxz  x2-y2    tot
    1  0.244  0.069  0.000  0.000  0.000  0.000  0.000  0.000  0.000  0.313
    2  0.244  0.069  0.000  0.000  0.000  0.000  0.000  0.000  0.000  0.313
tot    0.489  0.137  0.000  0.000  0.000  0.000  0.000  0.000  0.000  0.626

band     9 # energy   12.75339633 # occ.  0.00000000

ion      s     py     pz     px    dxy    dyz    dz2    dxz  x2-y2    tot
    1  0.032  0.001  0.000  0.000  0.000  0.000  0.000  0.000  0.000  0.033
    2  0.032  0.001  0.000  0.000  0.000  0.000  0.000  0.000  0.000  0.033
tot    0.064  0.003  0.000  0.000  0.000  0.000  0.000  0.000  0.000  0.067


 k-point    36 :    0.14285714 0.00000000 0.14285714     weight = 0.00000000

band     1 # energy   -7.50376452 # occ.  2.00000000

ion      s     py     pz     px    dxy    dyz    dz2    dxz  x2-y2    tot
    1  0.216  0.004  0.000  0.000  0.000  0.000  0.000  0.000  0.000  0.220
    2  0.216  0.004  0.000  0.000  0.000  0.000  0.000  0.000  0.000  0.220
tot    0.433  0.008  0.000  0.000  0.000  0.000  0.000  0.000  0.000  0.440

band     2 # energy    3.50358617 # occ.  2.00000000

ion      s     py     pz     px    dxy    dyz    dz2    dxz  x2-y2    tot
    1  0.105  0.142  0.000  0.000  0.000  0.000  0.000  0.000  0.000  0.247
    2  0.105  0.142  0.000  0.000  0.000  0.000  0.000  0.000  0.000  0.247
tot    0.209  0.284  0.000  0.000  0.000  0.000  0.000  0.000  0.000  0.493

band     3 # energy    4.24565584 # occ.  2.00000000

ion      s     py     pz     px    dxy    dyz    dz2    dxz  x2-y2    tot
    1  0.000  0.000  0.083  0.120  0.000  0.000  0.000  0.000  0.000  0.203
    2  0.000  0.000  0.121  0.082  0.000  0.000  0.000  0.000  0.000  0.203
tot    0.000  0.000  0.204  0.202  0.000  0.000  0.000  0.000  0.000  0.405

band     4 # energy    4.24565791 # occ.  2.00000000

ion      s     py     pz     px    dxy    dyz    dz2    dxz  x2-y2    tot
    1  0.000  0.000  0.120  0.083  0.000  0.000  0.000  0.000  0.000  0.203
    2  0.000  0.000  0.082  0.121  0.000  0.000  0.000  0.000  0.000  0.203
tot    0.000  0.000  0.202  0.204  0.000  0.000  0.000  0.000  0.000  0.405

band     5 # energy    7.83535764 # occ.  0.00000000

ion      s     py     pz     px    dxy    dyz    dz2    dxz  x2-y2    tot
    1  0.025  0.109  0.000  0.000  0.000  0.000  0.000  0.000  0.000  0.134
    2  0.025  0.109  0.000  0.000  0.000  0.000  0.000  0.000  0.000  0.134
tot    0.050  0.218  0.000  0.000  0.000  0.000  0.000  0.000  0.000  0.268

band     6 # energy   10.04461452 # occ.  0.00000000

ion      s     py     pz     px    dxy    dyz    dz2    dxz  x2-y2    tot
    1  0.000  0.000  0.055  0.107  0.000  0.000  0.000  0.000  0.000  0.162
    2  0.000  0.000  0.098  0.064  0.000  0.000  0.000  0.000  0.000  0.162
tot    0.000  0.000  0.153  0.171  0.000  0.000  0.000  0.000  0.000  0.324

band     7 # energy   10.04461681 # occ.  0.00000000

ion      s     py     pz     px    dxy    dyz    dz2    dxz  x2-y2    tot
    1  0.000  0.000  0.107  0.055  0.000  0.000  0.000  0.000  0.000  0.162
    2  0.000  0.000  0.064  0.098  0.000  0.000  0.000  0.000  0.000  0.162
tot    0.000  0.000  0.171  0.153  0.000  0.000  0.000  0.000  0.000  0.324

band     8 # energy   10.47312952 # occ.  0.00000000

ion      s     py     pz     px    dxy    dyz    dz2    dxz  x2-y2    tot
    1  0.187  0.072  0.000  0.000  0.000  0.000  0.000  0.000  0.000  0.259
    2  0.187  0.072  0.000  0.000  0.000  0.000  0.000  0.000  0.000  0.259
tot    0.373  0.145  0.000  0.000  0.000  0.000  0.000  0.000  0.000  0.518

band     9 # energy   12.64158182 # occ.  0.00000000

ion      s     py     pz     px    dxy    dyz    dz2    dxz  x2-y2    tot
    1  0.074  0.011  0.000  0.000  0.000  0.000  0.000  0.000  0.000  0.085
    2  0.074  0.011  0.000  0.000  0.000  0.000  0.000  0.000  0.000  0.085
tot    0.147  0.022  0.000  0.000  0.000  0.000  0.000  0.000  0.000  0.170


 k-point    37 :    0.16666667 0.00000000 0.16666667     weight = 0.00000000

band     1 # energy   -7.36426641 # occ.  2.00000000

ion      s     py     pz     px    dxy    dyz    dz2    dxz  x2-y2    tot
    1  0.216  0.005  0.000  0.000  0.000  0.000  0.000  0.000  0.000  0.221
    2  0.216  0.005  0.000  0.000  0.000  0.000  0.000  0.000  0.000  0.221
tot    0.431  0.011  0.000  0.000  0.000  0.000  0.000  0.000  0.000  0.442

band     2 # energy    3.05435629 # occ.  2.00000000

ion      s     py     pz     px    dxy    dyz    dz2    dxz  x2-y2    tot
    1  0.119  0.131  0.000  0.000  0.000  0.000  0.000  0.000  0.000  0.250
    2  0.119  0.131  0.000  0.000  0.000  0.000  0.000  0.000  0.000  0.250
tot    0.238  0.262  0.000  0.000  0.000  0.000  0.000  0.000  0.000  0.500

band     3 # energy    4.00806556 # occ.  2.00000000

ion      s     py     pz     px    dxy    dyz    dz2    dxz  x2-y2    tot
    1  0.000  0.000  0.078  0.123  0.000  0.000  0.000  0.000  0.000  0.201
    2  0.000  0.000  0.124  0.077  0.000  0.000  0.000  0.000  0.000  0.201
tot    0.000  0.000  0.202  0.201  0.000  0.000  0.000  0.000  0.000  0.402

band     4 # energy    4.00806744 # occ.  2.00000000

ion      s     py     pz     px    dxy    dyz    dz2    dxz  x2-y2    tot
    1  0.000  0.000  0.123  0.078  0.000  0.000  0.000  0.000  0.000  0.201
    2  0.000  0.000  0.077  0.124  0.000  0.000  0.000  0.000  0.000  0.201
tot    0.000  0.000  0.201  0.202  0.000  0.000  0.000  0.000  0.000  0.402

band     5 # energy    7.64454640 # occ.  0.00000000

ion      s     py     pz     px    dxy    dyz    dz2    dxz  x2-y2    tot
    1  0.030  0.101  0.000  0.000  0.000  0.000  0.000  0.000  0.000  0.131
    2  0.030  0.101  0.000  0.000  0.000  0.000  0.000  0.000  0.000  0.131
tot    0.060  0.201  0.000  0.000  0.000  0.000  0.000  0.000  0.000  0.261

band     6 # energy   10.35897675 # occ.  0.00000000

ion      s     py     pz     px    dxy    dyz    dz2    dxz  x2-y2    tot
    1  0.126  0.064  0.000  0.000  0.000  0.000  0.000  0.000  0.000  0.190
    2  0.126  0.064  0.000  0.000  0.000  0.000  0.000  0.000  0.000  0.190
tot    0.253  0.128  0.000  0.000  0.000  0.000  0.000  0.000  0.000  0.380

band     7 # energy   10.44407626 # occ.  0.00000000

ion      s     py     pz     px    dxy    dyz    dz2    dxz  x2-y2    tot
    1  0.000  0.000  0.054  0.110  0.000  0.000  0.000  0.000  0.000  0.163
    2  0.000  0.000  0.103  0.060  0.000  0.000  0.000  0.000  0.000  0.163
tot    0.000  0.000  0.157  0.170  0.000  0.000  0.000  0.000  0.000  0.327

band     8 # energy   10.44407836 # occ.  0.00000000

ion      s     py     pz     px    dxy    dyz    dz2    dxz  x2-y2    tot
    1  0.000  0.000  0.110  0.054  0.000  0.000  0.000  0.000  0.000  0.163
    2  0.000  0.000  0.060  0.103  0.000  0.000  0.000  0.000  0.000  0.163
tot    0.000  0.000  0.170  0.157  0.000  0.000  0.000  0.000  0.000  0.327

band     9 # energy   12.77195002 # occ.  0.00000000

ion      s     py     pz     px    dxy    dyz    dz2    dxz  x2-y2    tot
    1  0.120  0.032  0.000  0.000  0.000  0.000  0.000  0.000  0.000  0.152
    2  0.120  0.032  0.000  0.000  0.000  0.000  0.000  0.000  0.000  0.152
tot    0.240  0.064  0.000  0.000  0.000  0.000  0.000  0.000  0.000  0.304


 k-point    38 :    0.19047619 0.00000000 0.19047619     weight = 0.00000000

band     1 # energy   -7.20376412 # occ.  2.00000000

ion      s     py     pz     px    dxy    dyz    dz2    dxz  x2-y2    tot
    1  0.215  0.007  0.000  0.000  0.000  0.000  0.000  0.000  0.000  0.222
    2  0.215  0.007  0.000  0.000  0.000  0.000  0.000  0.000  0.000  0.222
tot    0.430  0.014  0.000  0.000  0.000  0.000  0.000  0.000  0.000  0.443

band     2 # energy    2.59310100 # occ.  2.00000000

ion      s     py     pz     px    dxy    dyz    dz2    dxz  x2-y2    tot
    1  0.131  0.122  0.000  0.000  0.000  0.000  0.000  0.000  0.000  0.253
    2  0.131  0.122  0.000  0.000  0.000  0.000  0.000  0.000  0.000  0.253
tot    0.262  0.243  0.000  0.000  0.000  0.000  0.000  0.000  0.000  0.505

band     3 # energy    3.77603922 # occ.  2.00000000

ion      s     py     pz     px    dxy    dyz    dz2    dxz  x2-y2    tot
    1  0.000  0.000  0.075  0.125  0.000  0.000  0.000  0.000  0.000  0.200
    2  0.000  0.000  0.130  0.070  0.000  0.000  0.000  0.000  0.000  0.200
tot    0.000  0.000  0.205  0.195  0.000  0.000  0.000  0.000  0.000  0.400

band     4 # energy    3.77604093 # occ.  2.00000000

ion      s     py     pz     px    dxy    dyz    dz2    dxz  x2-y2    tot
    1  0.000  0.000  0.125  0.075  0.000  0.000  0.000  0.000  0.000  0.200
    2  0.000  0.000  0.070  0.130  0.000  0.000  0.000  0.000  0.000  0.200
tot    0.000  0.000  0.195  0.205  0.000  0.000  0.000  0.000  0.000  0.400

band     5 # energy    7.45657074 # occ.  0.00000000

ion      s     py     pz     px    dxy    dyz    dz2    dxz  x2-y2    tot
    1  0.035  0.092  0.000  0.000  0.000  0.000  0.000  0.000  0.000  0.127
    2  0.035  0.092  0.000  0.000  0.000  0.000  0.000  0.000  0.000  0.127
tot    0.069  0.185  0.000  0.000  0.000  0.000  0.000  0.000  0.000  0.254

band     6 # energy   10.08160608 # occ.  0.00000000

ion      s     py     pz     px    dxy    dyz    dz2    dxz  x2-y2    tot
    1  0.087  0.053  0.000  0.000  0.000  0.000  0.000  0.000  0.000  0.140
    2  0.087  0.053  0.000  0.000  0.000  0.000  0.000  0.000  0.000  0.140
tot    0.173  0.106  0.000  0.000  0.000  0.000  0.000  0.000  0.000  0.279

band     7 # energy   10.86097775 # occ.  0.00000000

ion      s     py     pz     px    dxy    dyz    dz2    dxz  x2-y2    tot
    1  0.000  0.000  0.052  0.113  0.000  0.000  0.000  0.000  0.000  0.164
    2  0.000  0.000  0.094  0.070  0.000  0.000  0.000  0.000  0.000  0.164
tot    0.000  0.000  0.146  0.182  0.000  0.000  0.000  0.000  0.000  0.328

band     8 # energy   10.86100528 # occ.  0.00000000

ion      s     py     pz     px    dxy    dyz    dz2    dxz  x2-y2    tot
    1  0.000  0.000  0.113  0.052  0.000  0.000  0.000  0.000  0.000  0.164
    2  0.000  0.000  0.070  0.094  0.000  0.000  0.000  0.000  0.000  0.164
tot    0.000  0.000  0.182  0.146  0.000  0.000  0.000  0.000  0.000  0.328

band     9 # energy   13.09627542 # occ.  0.00000000

ion      s     py     pz     px    dxy    dyz    dz2    dxz  x2-y2    tot
    1  0.147  0.054  0.000  0.000  0.000  0.000  0.000  0.000  0.000  0.202
    2  0.148  0.054  0.000  0.000  0.000  0.000  0.000  0.000  0.000  0.202
tot    0.295  0.108  0.000  0.000  0.000  0.000  0.000  0.000  0.000  0.404


 k-point    39 :    0.21428571 0.00000000 0.21428571     weight = 0.00000000

band     1 # energy   -7.02243082 # occ.  2.00000000

ion      s     py     pz     px    dxy    dyz    dz2    dxz  x2-y2    tot
    1  0.214  0.009  0.000  0.000  0.000  0.000  0.000  0.000  0.000  0.223
    2  0.214  0.009  0.000  0.000  0.000  0.000  0.000  0.000  0.000  0.223
tot    0.428  0.017  0.000  0.000  0.000  0.000  0.000  0.000  0.000  0.445

band     2 # energy    2.12415110 # occ.  2.00000000

ion      s     py     pz     px    dxy    dyz    dz2    dxz  x2-y2    tot
    1  0.141  0.113  0.000  0.000  0.000  0.000  0.000  0.000  0.000  0.255
    2  0.141  0.113  0.000  0.000  0.000  0.000  0.000  0.000  0.000  0.255
tot    0.283  0.226  0.000  0.000  0.000  0.000  0.000  0.000  0.000  0.509

band     3 # energy    3.55356605 # occ.  2.00000000

ion      s     py     pz     px    dxy    dyz    dz2    dxz  x2-y2    tot
    1  0.000  0.000  0.070  0.130  0.000  0.000  0.000  0.000  0.000  0.199
    2  0.000  0.000  0.133  0.066  0.000  0.000  0.000  0.000  0.000  0.199
tot    0.000  0.000  0.203  0.195  0.000  0.000  0.000  0.000  0.000  0.398

band     4 # energy    3.55356763 # occ.  2.00000000

ion      s     py     pz     px    dxy    dyz    dz2    dxz  x2-y2    tot
    1  0.000  0.000  0.130  0.070  0.000  0.000  0.000  0.000  0.000  0.199
    2  0.000  0.000  0.066  0.133  0.000  0.000  0.000  0.000  0.000  0.199
tot    0.000  0.000  0.195  0.203  0.000  0.000  0.000  0.000  0.000  0.398

band     5 # energy    7.27648224 # occ.  0.00000000

ion      s     py     pz     px    dxy    dyz    dz2    dxz  x2-y2    tot
    1  0.039  0.085  0.000  0.000  0.000  0.000  0.000  0.000  0.000  0.124
    2  0.039  0.085  0.000  0.000  0.000  0.000  0.000  0.000  0.000  0.124
tot    0.077  0.170  0.000  0.000  0.000  0.000  0.000  0.000  0.000  0.247

band     6 # energy    9.72726796 # occ.  0.00000000

ion      s     py     pz     px    dxy    dyz    dz2    dxz  x2-y2    tot
    1  0.066  0.045  0.000  0.000  0.000  0.000  0.000  0.000  0.000  0.110
    2  0.066  0.045  0.000  0.000  0.000  0.000  0.000  0.000  0.000  0.110
tot    0.131  0.089  0.000  0.000  0.000  0.000  0.000  0.000  0.000  0.221

band     7 # energy   11.29118564 # occ.  0.00000000

ion      s     py     pz     px    dxy    dyz    dz2    dxz  x2-y2    tot
    1  0.000  0.000  0.054  0.111  0.000  0.000  0.000  0.000  0.000  0.165
    2  0.000  0.000  0.105  0.060  0.000  0.000  0.000  0.000  0.000  0.165
tot    0.000  0.000  0.158  0.171  0.000  0.000  0.000  0.000  0.000  0.329

band     8 # energy   11.29122732 # occ.  0.00000000

ion      s     py     pz     px    dxy    dyz    dz2    dxz  x2-y2    tot
    1  0.000  0.000  0.111  0.054  0.000  0.000  0.000  0.000  0.000  0.165
    2  0.000  0.000  0.060  0.105  0.000  0.000  0.000  0.000  0.000  0.165
tot    0.000  0.000  0.171  0.158  0.000  0.000  0.000  0.000  0.000  0.330

band     9 # energy   13.52901566 # occ.  0.00000000

ion      s     py     pz     px    dxy    dyz    dz2    dxz  x2-y2    tot
    1  0.158  0.073  0.000  0.000  0.000  0.000  0.000  0.000  0.000  0.231
    2  0.159  0.073  0.000  0.000  0.000  0.000  0.000  0.000  0.000  0.232
tot    0.317  0.146  0.000  0.000  0.000  0.000  0.000  0.000  0.000  0.463


 k-point    40 :    0.23809524 0.00000000 0.23809524     weight = 0.00000000

band     1 # energy   -6.82048420 # occ.  2.00000000

ion      s     py     pz     px    dxy    dyz    dz2    dxz  x2-y2    tot
    1  0.213  0.011  0.000  0.000  0.000  0.000  0.000  0.000  0.000  0.224
    2  0.213  0.011  0.000  0.000  0.000  0.000  0.000  0.000  0.000  0.224
tot    0.426  0.021  0.000  0.000  0.000  0.000  0.000  0.000  0.000  0.447

band     2 # energy    1.65055284 # occ.  2.00000000

ion      s     py     pz     px    dxy    dyz    dz2    dxz  x2-y2    tot
    1  0.150  0.105  0.000  0.000  0.000  0.000  0.000  0.000  0.000  0.256
    2  0.150  0.105  0.000  0.000  0.000  0.000  0.000  0.000  0.000  0.256
tot    0.301  0.211  0.000  0.000  0.000  0.000  0.000  0.000  0.000  0.512

band     3 # energy    3.34343494 # occ.  2.00000000

ion      s     py     pz     px    dxy    dyz    dz2    dxz  x2-y2    tot
    1  0.000  0.000  0.066  0.133  0.000  0.000  0.000  0.000  0.000  0.198
    2  0.000  0.000  0.135  0.063  0.000  0.000  0.000  0.000  0.000  0.198
tot    0.000  0.000  0.201  0.196  0.000  0.000  0.000  0.000  0.000  0.397

band     4 # energy    3.34343641 # occ.  2.00000000

ion      s     py     pz     px    dxy    dyz    dz2    dxz  x2-y2    tot
    1  0.000  0.000  0.133  0.066  0.000  0.000  0.000  0.000  0.000  0.198
    2  0.000  0.000  0.063  0.135  0.000  0.000  0.000  0.000  0.000  0.198
tot    0.000  0.000  0.196  0.201  0.000  0.000  0.000  0.000  0.000  0.397

band     5 # energy    7.10811195 # occ.  0.00000000

ion      s     py     pz     px    dxy    dyz    dz2    dxz  x2-y2    tot
    1  0.042  0.078  0.000  0.000  0.000  0.000  0.000  0.000  0.000  0.120
    2  0.042  0.078  0.000  0.000  0.000  0.000  0.000  0.000  0.000  0.120
tot    0.084  0.156  0.000  0.000  0.000  0.000  0.000  0.000  0.000  0.240

band     6 # energy    9.34893443 # occ.  0.00000000

ion      s     py     pz     px    dxy    dyz    dz2    dxz  x2-y2    tot
    1  0.055  0.039  0.000  0.000  0.000  0.000  0.000  0.000  0.000  0.094
    2  0.055  0.039  0.000  0.000  0.000  0.000  0.000  0.000  0.000  0.094
tot    0.109  0.078  0.000  0.000  0.000  0.000  0.000  0.000  0.000  0.187

band     7 # energy   11.73171565 # occ.  0.00000000

ion      s     py     pz     px    dxy    dyz    dz2    dxz  x2-y2    tot
    1  0.000  0.000  0.057  0.108  0.000  0.000  0.000  0.000  0.000  0.165
    2  0.000  0.000  0.112  0.053  0.000  0.000  0.000  0.000  0.000  0.165
tot    0.000  0.000  0.169  0.161  0.000  0.000  0.000  0.000  0.000  0.330

band     8 # energy   11.73180343 # occ.  0.00000000

ion      s     py     pz     px    dxy    dyz    dz2    dxz  x2-y2    tot
    1  0.000  0.000  0.108  0.057  0.000  0.000  0.000  0.000  0.000  0.165
    2  0.000  0.000  0.053  0.112  0.000  0.000  0.000  0.000  0.000  0.165
tot    0.000  0.000  0.161  0.169  0.000  0.000  0.000  0.000  0.000  0.330

band     9 # energy   14.01735376 # occ.  0.00000000

ion      s     py     pz     px    dxy    dyz    dz2    dxz  x2-y2    tot
    1  0.160  0.088  0.000  0.000  0.000  0.000  0.000  0.000  0.000  0.249
    2  0.161  0.089  0.000  0.000  0.000  0.000  0.000  0.000  0.000  0.250
tot    0.321  0.177  0.000  0.000  0.000  0.000  0.000  0.000  0.000  0.498


 k-point    41 :    0.26190476 0.00000000 0.26190476     weight = 0.00000000

band     1 # energy   -6.59820894 # occ.  2.00000000

ion      s     py     pz     px    dxy    dyz    dz2    dxz  x2-y2    tot
    1  0.212  0.013  0.000  0.000  0.000  0.000  0.000  0.000  0.000  0.225
    2  0.212  0.013  0.000  0.000  0.000  0.000  0.000  0.000  0.000  0.225
tot    0.424  0.026  0.000  0.000  0.000  0.000  0.000  0.000  0.000  0.450

band     2 # energy    1.17464044 # occ.  2.00000000

ion      s     py     pz     px    dxy    dyz    dz2    dxz  x2-y2    tot
    1  0.158  0.098  0.000  0.000  0.000  0.000  0.000  0.000  0.000  0.256
    2  0.158  0.098  0.000  0.000  0.000  0.000  0.000  0.000  0.000  0.256
tot    0.316  0.197  0.000  0.000  0.000  0.000  0.000  0.000  0.000  0.513

band     3 # energy    3.14759523 # occ.  2.00000000

ion      s     py     pz     px    dxy    dyz    dz2    dxz  x2-y2    tot
    1  0.000  0.000  0.061  0.137  0.000  0.000  0.000  0.000  0.000  0.198
    2  0.000  0.000  0.137  0.061  0.000  0.000  0.000  0.000  0.000  0.198
tot    0.000  0.000  0.198  0.198  0.000  0.000  0.000  0.000  0.000  0.396

band     4 # energy    3.14759664 # occ.  2.00000000

ion      s     py     pz     px    dxy    dyz    dz2    dxz  x2-y2    tot
    1  0.000  0.000  0.137  0.061  0.000  0.000  0.000  0.000  0.000  0.198
    2  0.000  0.000  0.061  0.137  0.000  0.000  0.000  0.000  0.000  0.198
tot    0.000  0.000  0.198  0.198  0.000  0.000  0.000  0.000  0.000  0.396

band     5 # energy    6.95442336 # occ.  0.00000000

ion      s     py     pz     px    dxy    dyz    dz2    dxz  x2-y2    tot
    1  0.045  0.072  0.000  0.000  0.000  0.000  0.000  0.000  0.000  0.117
    2  0.045  0.072  0.000  0.000  0.000  0.000  0.000  0.000  0.000  0.117
tot    0.090  0.144  0.000  0.000  0.000  0.000  0.000  0.000  0.000  0.234

band     6 # energy    8.97264007 # occ.  0.00000000

ion      s     py     pz     px    dxy    dyz    dz2    dxz  x2-y2    tot
    1  0.049  0.035  0.000  0.000  0.000  0.000  0.000  0.000  0.000  0.084
    2  0.049  0.035  0.000  0.000  0.000  0.000  0.000  0.000  0.000  0.084
tot    0.098  0.071  0.000  0.000  0.000  0.000  0.000  0.000  0.000  0.168

band     7 # energy   12.17998375 # occ.  0.00000000

ion      s     py     pz     px    dxy    dyz    dz2    dxz  x2-y2    tot
    1  0.000  0.000  0.062  0.102  0.000  0.000  0.000  0.000  0.000  0.165
    2  0.000  0.000  0.115  0.049  0.000  0.000  0.000  0.000  0.000  0.165
tot    0.000  0.000  0.178  0.152  0.000  0.000  0.000  0.000  0.000  0.330

band     8 # energy   12.18001423 # occ.  0.00000000

ion      s     py     pz     px    dxy    dyz    dz2    dxz  x2-y2    tot
    1  0.000  0.000  0.102  0.062  0.000  0.000  0.000  0.000  0.000  0.165
    2  0.000  0.000  0.049  0.115  0.000  0.000  0.000  0.000  0.000  0.165
tot    0.000  0.000  0.152  0.178  0.000  0.000  0.000  0.000  0.000  0.330

band     9 # energy   14.53394236 # occ.  0.00000000

ion      s     py     pz     px    dxy    dyz    dz2    dxz  x2-y2    tot
    1  0.158  0.102  0.000  0.000  0.000  0.000  0.000  0.000  0.000  0.260
    2  0.158  0.102  0.000  0.000  0.000  0.000  0.000  0.000  0.000  0.260
tot    0.317  0.204  0.000  0.000  0.000  0.000  0.000  0.000  0.000  0.521


 k-point    42 :    0.28571429 0.00000000 0.28571429     weight = 0.00000000

band     1 # energy   -6.35593557 # occ.  2.00000000

ion      s     py     pz     px    dxy    dyz    dz2    dxz  x2-y2    tot
    1  0.211  0.015  0.000  0.000  0.000  0.000  0.000  0.000  0.000  0.226
    2  0.211  0.015  0.000  0.000  0.000  0.000  0.000  0.000  0.000  0.226
tot    0.422  0.030  0.000  0.000  0.000  0.000  0.000  0.000  0.000  0.452

band     2 # energy    0.69833806 # occ.  2.00000000

ion      s     py     pz     px    dxy    dyz    dz2    dxz  x2-y2    tot
    1  0.165  0.092  0.000  0.000  0.000  0.000  0.000  0.000  0.000  0.256
    2  0.165  0.092  0.000  0.000  0.000  0.000  0.000  0.000  0.000  0.256
tot    0.329  0.183  0.000  0.000  0.000  0.000  0.000  0.000  0.000  0.512

band     3 # energy    2.96755844 # occ.  2.00000000

ion      s     py     pz     px    dxy    dyz    dz2    dxz  x2-y2    tot
    1  0.000  0.000  0.058  0.140  0.000  0.000  0.000  0.000  0.000  0.197
    2  0.000  0.000  0.140  0.058  0.000  0.000  0.000  0.000  0.000  0.197
tot    0.000  0.000  0.197  0.198  0.000  0.000  0.000  0.000  0.000  0.395

band     4 # energy    2.96755977 # occ.  2.00000000

ion      s     py     pz     px    dxy    dyz    dz2    dxz  x2-y2    tot
    1  0.000  0.000  0.140  0.058  0.000  0.000  0.000  0.000  0.000  0.197
    2  0.000  0.000  0.058  0.140  0.000  0.000  0.000  0.000  0.000  0.197
tot    0.000  0.000  0.198  0.197  0.000  0.000  0.000  0.000  0.000  0.395

band     5 # energy    6.81782672 # occ.  0.00000000

ion      s     py     pz     px    dxy    dyz    dz2    dxz  x2-y2    tot
    1  0.047  0.066  0.000  0.000  0.000  0.000  0.000  0.000  0.000  0.114
    2  0.047  0.066  0.000  0.000  0.000  0.000  0.000  0.000  0.000  0.114
tot    0.095  0.132  0.000  0.000  0.000  0.000  0.000  0.000  0.000  0.227

band     6 # energy    8.61155660 # occ.  0.00000000

ion      s     py     pz     px    dxy    dyz    dz2    dxz  x2-y2    tot
    1  0.046  0.033  0.000  0.000  0.000  0.000  0.000  0.000  0.000  0.079
    2  0.046  0.033  0.000  0.000  0.000  0.000  0.000  0.000  0.000  0.079
tot    0.092  0.066  0.000  0.000  0.000  0.000  0.000  0.000  0.000  0.158

band     7 # energy   12.63457973 # occ.  0.00000000

ion      s     py     pz     px    dxy    dyz    dz2    dxz  x2-y2    tot
    1  0.000  0.000  0.068  0.097  0.000  0.000  0.000  0.000  0.000  0.165
    2  0.000  0.000  0.118  0.047  0.000  0.000  0.000  0.000  0.000  0.165
tot    0.000  0.000  0.186  0.144  0.000  0.000  0.000  0.000  0.000  0.329

band     8 # energy   12.63464583 # occ.  0.00000000

ion      s     py     pz     px    dxy    dyz    dz2    dxz  x2-y2    tot
    1  0.000  0.000  0.097  0.068  0.000  0.000  0.000  0.000  0.000  0.165
    2  0.000  0.000  0.046  0.118  0.000  0.000  0.000  0.000  0.000  0.164
tot    0.000  0.000  0.143  0.186  0.000  0.000  0.000  0.000  0.000  0.329

band     9 # energy   15.06457464 # occ.  0.00000000

ion      s     py     pz     px    dxy    dyz    dz2    dxz  x2-y2    tot
    1  0.153  0.114  0.000  0.000  0.000  0.000  0.000  0.000  0.000  0.268
    2  0.153  0.115  0.000  0.000  0.000  0.000  0.000  0.000  0.000  0.268
tot    0.307  0.229  0.000  0.000  0.000  0.000  0.000  0.000  0.000  0.536


 k-point    43 :    0.30952381 0.00000000 0.30952381     weight = 0.00000000

band     1 # energy   -6.09399806 # occ.  2.00000000

ion      s     py     pz     px    dxy    dyz    dz2    dxz  x2-y2    tot
    1  0.210  0.018  0.000  0.000  0.000  0.000  0.000  0.000  0.000  0.227
    2  0.210  0.018  0.000  0.000  0.000  0.000  0.000  0.000  0.000  0.227
tot    0.419  0.036  0.000  0.000  0.000  0.000  0.000  0.000  0.000  0.455

band     2 # energy    0.22330748 # occ.  2.00000000

ion      s     py     pz     px    dxy    dyz    dz2    dxz  x2-y2    tot
    1  0.170  0.085  0.000  0.000  0.000  0.000  0.000  0.000  0.000  0.256
    2  0.170  0.085  0.000  0.000  0.000  0.000  0.000  0.000  0.000  0.256
tot    0.340  0.171  0.000  0.000  0.000  0.000  0.000  0.000  0.000  0.511

band     3 # energy    2.80443499 # occ.  2.00000000

ion      s     py     pz     px    dxy    dyz    dz2    dxz  x2-y2    tot
    1  0.000  0.000  0.055  0.142  0.000  0.000  0.000  0.000  0.000  0.197
    2  0.000  0.000  0.142  0.055  0.000  0.000  0.000  0.000  0.000  0.197
tot    0.000  0.000  0.197  0.197  0.000  0.000  0.000  0.000  0.000  0.394

band     4 # energy    2.80443627 # occ.  2.00000000

ion      s     py     pz     px    dxy    dyz    dz2    dxz  x2-y2    tot
    1  0.000  0.000  0.142  0.055  0.000  0.000  0.000  0.000  0.000  0.197
    2  0.000  0.000  0.055  0.142  0.000  0.000  0.000  0.000  0.000  0.197
tot    0.000  0.000  0.197  0.197  0.000  0.000  0.000  0.000  0.000  0.394

band     5 # energy    6.70022840 # occ.  0.00000000

ion      s     py     pz     px    dxy    dyz    dz2    dxz  x2-y2    tot
    1  0.049  0.061  0.000  0.000  0.000  0.000  0.000  0.000  0.000  0.110
    2  0.049  0.061  0.000  0.000  0.000  0.000  0.000  0.000  0.000  0.110
tot    0.099  0.122  0.000  0.000  0.000  0.000  0.000  0.000  0.000  0.221

band     6 # energy    8.27270138 # occ.  0.00000000

ion      s     py     pz     px    dxy    dyz    dz2    dxz  x2-y2    tot
    1  0.045  0.031  0.000  0.000  0.000  0.000  0.000  0.000  0.000  0.076
    2  0.045  0.031  0.000  0.000  0.000  0.000  0.000  0.000  0.000  0.076
tot    0.090  0.062  0.000  0.000  0.000  0.000  0.000  0.000  0.000  0.152

band     7 # energy   13.09434252 # occ.  0.00000000

ion      s     py     pz     px    dxy    dyz    dz2    dxz  x2-y2    tot
    1  0.000  0.000  0.071  0.093  0.000  0.000  0.000  0.000  0.000  0.164
    2  0.000  0.000  0.121  0.043  0.000  0.000  0.000  0.000  0.000  0.164
tot    0.000  0.000  0.192  0.136  0.000  0.000  0.000  0.000  0.000  0.328

band     8 # energy   13.09447273 # occ.  0.00000000

ion      s     py     pz     px    dxy    dyz    dz2    dxz  x2-y2    tot
    1  0.000  0.000  0.093  0.071  0.000  0.000  0.000  0.000  0.000  0.164
    2  0.000  0.000  0.043  0.121  0.000  0.000  0.000  0.000  0.000  0.164
tot    0.000  0.000  0.136  0.192  0.000  0.000  0.000  0.000  0.000  0.328

band     9 # energy   15.59994622 # occ.  0.00000000

ion      s     py     pz     px    dxy    dyz    dz2    dxz  x2-y2    tot
    1  0.147  0.126  0.000  0.000  0.000  0.000  0.000  0.000  0.000  0.273
    2  0.147  0.126  0.000  0.000  0.000  0.000  0.000  0.000  0.000  0.273
tot    0.294  0.252  0.000  0.000  0.000  0.000  0.000  0.000  0.000  0.546


 k-point    44 :    0.33333333 0.00000000 0.33333333     weight = 0.00000000

band     1 # energy   -5.81280738 # occ.  2.00000000

ion      s     py     pz     px    dxy    dyz    dz2    dxz  x2-y2    tot
    1  0.208  0.021  0.000  0.000  0.000  0.000  0.000  0.000  0.000  0.229
    2  0.208  0.021  0.000  0.000  0.000  0.000  0.000  0.000  0.000  0.229
tot    0.417  0.041  0.000  0.000  0.000  0.000  0.000  0.000  0.000  0.458

band     2 # energy   -0.24888090 # occ.  2.00000000

ion      s     py     pz     px    dxy    dyz    dz2    dxz  x2-y2    tot
    1  0.175  0.080  0.000  0.000  0.000  0.000  0.000  0.000  0.000  0.255
    2  0.175  0.080  0.000  0.000  0.000  0.000  0.000  0.000  0.000  0.255
tot    0.350  0.159  0.000  0.000  0.000  0.000  0.000  0.000  0.000  0.510

band     3 # energy    2.65902761 # occ.  2.00000000

ion      s     py     pz     px    dxy    dyz    dz2    dxz  x2-y2    tot
    1  0.000  0.000  0.052  0.145  0.000  0.000  0.000  0.000  0.000  0.197
    2  0.000  0.000  0.145  0.052  0.000  0.000  0.000  0.000  0.000  0.197
tot    0.000  0.000  0.197  0.197  0.000  0.000  0.000  0.000  0.000  0.394

band     4 # energy    2.65902884 # occ.  2.00000000

ion      s     py     pz     px    dxy    dyz    dz2    dxz  x2-y2    tot
    1  0.000  0.000  0.145  0.052  0.000  0.000  0.000  0.000  0.000  0.197
    2  0.000  0.000  0.052  0.145  0.000  0.000  0.000  0.000  0.000  0.197
tot    0.000  0.000  0.197  0.197  0.000  0.000  0.000  0.000  0.000  0.394

band     5 # energy    6.60309570 # occ.  0.00000000

ion      s     py     pz     px    dxy    dyz    dz2    dxz  x2-y2    tot
    1  0.051  0.056  0.000  0.000  0.000  0.000  0.000  0.000  0.000  0.107
    2  0.051  0.056  0.000  0.000  0.000  0.000  0.000  0.000  0.000  0.107
tot    0.102  0.112  0.000  0.000  0.000  0.000  0.000  0.000  0.000  0.215

band     6 # energy    7.95984248 # occ.  0.00000000

ion      s     py     pz     px    dxy    dyz    dz2    dxz  x2-y2    tot
    1  0.045  0.030  0.000  0.000  0.000  0.000  0.000  0.000  0.000  0.075
    2  0.045  0.030  0.000  0.000  0.000  0.000  0.000  0.000  0.000  0.075
tot    0.089  0.060  0.000  0.000  0.000  0.000  0.000  0.000  0.000  0.149

band     7 # energy   13.55855203 # occ.  0.00000000

ion      s     py     pz     px    dxy    dyz    dz2    dxz  x2-y2    tot
    1  0.000  0.000  0.073  0.090  0.000  0.000  0.000  0.000  0.000  0.164
    2  0.000  0.000  0.124  0.040  0.000  0.000  0.000  0.000  0.000  0.164
tot    0.000  0.000  0.197  0.130  0.000  0.000  0.000  0.000  0.000  0.327

band     8 # energy   13.55877700 # occ.  0.00000000

ion      s     py     pz     px    dxy    dyz    dz2    dxz  x2-y2    tot
    1  0.000  0.000  0.090  0.074  0.000  0.000  0.000  0.000  0.000  0.164
    2  0.000  0.000  0.040  0.124  0.000  0.000  0.000  0.000  0.000  0.164
tot    0.000  0.000  0.130  0.198  0.000  0.000  0.000  0.000  0.000  0.328

band     9 # energy   16.13341511 # occ.  0.00000000

ion      s     py     pz     px    dxy    dyz    dz2    dxz  x2-y2    tot
    1  0.139  0.137  0.000  0.000  0.000  0.000  0.000  0.000  0.000  0.276
    2  0.139  0.137  0.000  0.000  0.000  0.000  0.000  0.000  0.000  0.277
tot    0.279  0.274  0.000  0.000  0.000  0.000  0.000  0.000  0.000  0.553


 k-point    45 :    0.35714286 0.00000000 0.35714286     weight = 0.00000000

band     1 # energy   -5.51283913 # occ.  2.00000000

ion      s     py     pz     px    dxy    dyz    dz2    dxz  x2-y2    tot
    1  0.207  0.024  0.000  0.000  0.000  0.000  0.000  0.000  0.000  0.230
    2  0.207  0.024  0.000  0.000  0.000  0.000  0.000  0.000  0.000  0.230
tot    0.414  0.047  0.000  0.000  0.000  0.000  0.000  0.000  0.000  0.461

band     2 # energy   -0.71670313 # occ.  2.00000000

ion      s     py     pz     px    dxy    dyz    dz2    dxz  x2-y2    tot
    1  0.179  0.074  0.000  0.000  0.000  0.000  0.000  0.000  0.000  0.253
    2  0.179  0.074  0.000  0.000  0.000  0.000  0.000  0.000  0.000  0.253
tot    0.359  0.148  0.000  0.000  0.000  0.000  0.000  0.000  0.000  0.507

band     3 # energy    2.53200341 # occ.  2.00000000

ion      s     py     pz     px    dxy    dyz    dz2    dxz  x2-y2    tot
    1  0.000  0.000  0.049  0.147  0.000  0.000  0.000  0.000  0.000  0.197
    2  0.000  0.000  0.147  0.049  0.000  0.000  0.000  0.000  0.000  0.197
tot    0.000  0.000  0.197  0.197  0.000  0.000  0.000  0.000  0.000  0.393

band     4 # energy    2.53200460 # occ.  2.00000000

ion      s     py     pz     px    dxy    dyz    dz2    dxz  x2-y2    tot
    1  0.000  0.000  0.147  0.049  0.000  0.000  0.000  0.000  0.000  0.197
    2  0.000  0.000  0.049  0.147  0.000  0.000  0.000  0.000  0.000  0.197
tot    0.000  0.000  0.197  0.197  0.000  0.000  0.000  0.000  0.000  0.393

band     5 # energy    6.52807843 # occ.  0.00000000

ion      s     py     pz     px    dxy    dyz    dz2    dxz  x2-y2    tot
    1  0.052  0.052  0.000  0.000  0.000  0.000  0.000  0.000  0.000  0.104
    2  0.052  0.052  0.000  0.000  0.000  0.000  0.000  0.000  0.000  0.104
tot    0.105  0.104  0.000  0.000  0.000  0.000  0.000  0.000  0.000  0.208

band     6 # energy    7.67574746 # occ.  0.00000000

ion      s     py     pz     px    dxy    dyz    dz2    dxz  x2-y2    tot
    1  0.045  0.029  0.000  0.000  0.000  0.000  0.000  0.000  0.000  0.075
    2  0.045  0.029  0.000  0.000  0.000  0.000  0.000  0.000  0.000  0.075
tot    0.090  0.059  0.000  0.000  0.000  0.000  0.000  0.000  0.000  0.149

band     7 # energy   14.02677217 # occ.  0.00000000

ion      s     py     pz     px    dxy    dyz    dz2    dxz  x2-y2    tot
    1  0.000  0.000  0.079  0.085  0.000  0.000  0.000  0.000  0.000  0.163
    2  0.000  0.000  0.124  0.040  0.000  0.000  0.000  0.000  0.000  0.163
tot    0.000  0.000  0.203  0.124  0.000  0.000  0.000  0.000  0.000  0.327

band     8 # energy   14.02682772 # occ.  0.00000000

ion      s     py     pz     px    dxy    dyz    dz2    dxz  x2-y2    tot
    1  0.000  0.000  0.085  0.079  0.000  0.000  0.000  0.000  0.000  0.163
    2  0.000  0.000  0.040  0.124  0.000  0.000  0.000  0.000  0.000  0.163
tot    0.000  0.000  0.124  0.203  0.000  0.000  0.000  0.000  0.000  0.327

band     9 # energy   16.65954668 # occ.  0.00000000

ion      s     py     pz     px    dxy    dyz    dz2    dxz  x2-y2    tot
    1  0.130  0.146  0.000  0.000  0.000  0.000  0.000  0.000  0.000  0.276
    2  0.130  0.147  0.000  0.000  0.000  0.000  0.000  0.000  0.000  0.277
tot    0.259  0.293  0.000  0.000  0.000  0.000  0.000  0.000  0.000  0.553


 k-point    46 :    0.38095238 0.00000000 0.38095238     weight = 0.00000000

band     1 # energy   -5.19463245 # occ.  2.00000000

ion      s     py     pz     px    dxy    dyz    dz2    dxz  x2-y2    tot
    1  0.205  0.027  0.000  0.000  0.000  0.000  0.000  0.000  0.000  0.232
    2  0.205  0.027  0.000  0.000  0.000  0.000  0.000  0.000  0.000  0.232
tot    0.411  0.053  0.000  0.000  0.000  0.000  0.000  0.000  0.000  0.464

band     2 # energy   -1.17870454 # occ.  2.00000000

ion      s     py     pz     px    dxy    dyz    dz2    dxz  x2-y2    tot
    1  0.183  0.069  0.000  0.000  0.000  0.000  0.000  0.000  0.000  0.252
    2  0.183  0.069  0.000  0.000  0.000  0.000  0.000  0.000  0.000  0.252
tot    0.366  0.137  0.000  0.000  0.000  0.000  0.000  0.000  0.000  0.504

band     3 # energy    2.42382886 # occ.  2.00000000

ion      s     py     pz     px    dxy    dyz    dz2    dxz  x2-y2    tot
    1  0.000  0.000  0.047  0.149  0.000  0.000  0.000  0.000  0.000  0.197
    2  0.000  0.000  0.149  0.047  0.000  0.000  0.000  0.000  0.000  0.197
tot    0.000  0.000  0.197  0.196  0.000  0.000  0.000  0.000  0.000  0.393

band     4 # energy    2.42383002 # occ.  2.00000000

ion      s     py     pz     px    dxy    dyz    dz2    dxz  x2-y2    tot
    1  0.000  0.000  0.149  0.047  0.000  0.000  0.000  0.000  0.000  0.197
    2  0.000  0.000  0.047  0.149  0.000  0.000  0.000  0.000  0.000  0.197
tot    0.000  0.000  0.196  0.197  0.000  0.000  0.000  0.000  0.000  0.393

band     5 # energy    6.47624262 # occ.  0.00000000

ion      s     py     pz     px    dxy    dyz    dz2    dxz  x2-y2    tot
    1  0.053  0.048  0.000  0.000  0.000  0.000  0.000  0.000  0.000  0.101
    2  0.053  0.048  0.000  0.000  0.000  0.000  0.000  0.000  0.000  0.101
tot    0.106  0.096  0.000  0.000  0.000  0.000  0.000  0.000  0.000  0.202

band     6 # energy    7.42109543 # occ.  0.00000000

ion      s     py     pz     px    dxy    dyz    dz2    dxz  x2-y2    tot
    1  0.046  0.029  0.000  0.000  0.000  0.000  0.000  0.000  0.000  0.075
    2  0.046  0.029  0.000  0.000  0.000  0.000  0.000  0.000  0.000  0.075
tot    0.092  0.059  0.000  0.000  0.000  0.000  0.000  0.000  0.000  0.151

band     7 # energy   14.49825616 # occ.  0.00000000

ion      s     py     pz     px    dxy    dyz    dz2    dxz  x2-y2    tot
    1  0.000  0.000  0.080  0.083  0.000  0.000  0.000  0.000  0.000  0.164
    2  0.000  0.000  0.126  0.037  0.000  0.000  0.000  0.000  0.000  0.164
tot    0.000  0.000  0.207  0.121  0.000  0.000  0.000  0.000  0.000  0.327

band     8 # energy   14.49833794 # occ.  0.00000000

ion      s     py     pz     px    dxy    dyz    dz2    dxz  x2-y2    tot
    1  0.000  0.000  0.084  0.080  0.000  0.000  0.000  0.000  0.000  0.164
    2  0.000  0.000  0.037  0.127  0.000  0.000  0.000  0.000  0.000  0.164
tot    0.000  0.000  0.121  0.207  0.000  0.000  0.000  0.000  0.000  0.327

band     9 # energy   17.13617966 # occ.  0.00000000

ion      s     py     pz     px    dxy    dyz    dz2    dxz  x2-y2    tot
    1  0.024  0.030  0.000  0.000  0.000  0.000  0.000  0.000  0.000  0.054
    2  0.026  0.037  0.000  0.001  0.000  0.000  0.000  0.000  0.000  0.064
tot    0.050  0.067  0.000  0.001  0.000  0.000  0.000  0.000  0.000  0.118


 k-point    47 :    0.40476190 0.00000000 0.40476190     weight = 0.00000000

band     1 # energy   -4.85874488 # occ.  2.00000000

ion      s     py     pz     px    dxy    dyz    dz2    dxz  x2-y2    tot
    1  0.204  0.030  0.000  0.000  0.000  0.000  0.000  0.000  0.000  0.234
    2  0.204  0.030  0.000  0.000  0.000  0.000  0.000  0.000  0.000  0.234
tot    0.408  0.060  0.000  0.000  0.000  0.000  0.000  0.000  0.000  0.468

band     2 # energy   -1.63344519 # occ.  2.00000000

ion      s     py     pz     px    dxy    dyz    dz2    dxz  x2-y2    tot
    1  0.187  0.064  0.000  0.000  0.000  0.000  0.000  0.000  0.000  0.250
    2  0.187  0.064  0.000  0.000  0.000  0.000  0.000  0.000  0.000  0.250
tot    0.373  0.127  0.000  0.000  0.000  0.000  0.000  0.000  0.000  0.500

band     3 # energy    2.33490027 # occ.  2.00000000

ion      s     py     pz     px    dxy    dyz    dz2    dxz  x2-y2    tot
    1  0.000  0.000  0.046  0.151  0.000  0.000  0.000  0.000  0.000  0.196
    2  0.000  0.000  0.151  0.045  0.000  0.000  0.000  0.000  0.000  0.196
tot    0.000  0.000  0.197  0.196  0.000  0.000  0.000  0.000  0.000  0.393

band     4 # energy    2.33490140 # occ.  2.00000000

ion      s     py     pz     px    dxy    dyz    dz2    dxz  x2-y2    tot
    1  0.000  0.000  0.151  0.046  0.000  0.000  0.000  0.000  0.000  0.196
    2  0.000  0.000  0.045  0.151  0.000  0.000  0.000  0.000  0.000  0.196
tot    0.000  0.000  0.196  0.197  0.000  0.000  0.000  0.000  0.000  0.393

band     5 # energy    6.44850755 # occ.  0.00000000

ion      s     py     pz     px    dxy    dyz    dz2    dxz  x2-y2    tot
    1  0.054  0.044  0.000  0.000  0.000  0.000  0.000  0.000  0.000  0.098
    2  0.054  0.044  0.000  0.000  0.000  0.000  0.000  0.000  0.000  0.098
tot    0.107  0.089  0.000  0.000  0.000  0.000  0.000  0.000  0.000  0.196

band     6 # energy    7.19660247 # occ.  0.00000000

ion      s     py     pz     px    dxy    dyz    dz2    dxz  x2-y2    tot
    1  0.047  0.030  0.000  0.000  0.000  0.000  0.000  0.000  0.000  0.077
    2  0.047  0.030  0.000  0.000  0.000  0.000  0.000  0.000  0.000  0.077
tot    0.095  0.059  0.000  0.000  0.000  0.000  0.000  0.000  0.000  0.154

band     7 # energy   14.97194662 # occ.  0.00000000

ion      s     py     pz     px    dxy    dyz    dz2    dxz  x2-y2    tot
    1  0.000  0.000  0.096  0.069  0.000  0.000  0.000  0.000  0.000  0.165
    2  0.000  0.000  0.116  0.049  0.000  0.000  0.000  0.000  0.000  0.165
tot    0.000  0.000  0.212  0.118  0.000  0.000  0.000  0.000  0.000  0.330

band     8 # energy   14.97199062 # occ.  0.00000000

ion      s     py     pz     px    dxy    dyz    dz2    dxz  x2-y2    tot
    1  0.000  0.000  0.069  0.096  0.000  0.000  0.000  0.000  0.000  0.165
    2  0.000  0.000  0.049  0.116  0.000  0.000  0.000  0.000  0.000  0.165
tot    0.000  0.000  0.118  0.212  0.000  0.000  0.000  0.000  0.000  0.331

band     9 # energy   17.33392654 # occ.  0.00000000

ion      s     py     pz     px    dxy    dyz    dz2    dxz  x2-y2    tot
    1  0.000  0.000  0.000  0.000  0.000  0.000  0.000  0.000  0.000  0.000
    2  0.000  0.000  0.000  0.000  0.000  0.000  0.000  0.000  0.000  0.000
tot    0.000  0.000  0.000  0.000  0.000  0.000  0.000  0.000  0.000  0.000


 k-point    48 :    0.42857143 0.00000000 0.42857143     weight = 0.00000000

band     1 # energy   -4.50585892 # occ.  2.00000000

ion      s     py     pz     px    dxy    dyz    dz2    dxz  x2-y2    tot
    1  0.202  0.034  0.000  0.000  0.000  0.000  0.000  0.000  0.000  0.236
    2  0.202  0.034  0.000  0.000  0.000  0.000  0.000  0.000  0.000  0.236
tot    0.405  0.067  0.000  0.000  0.000  0.000  0.000  0.000  0.000  0.472

band     2 # energy   -2.07956660 # occ.  2.00000000

ion      s     py     pz     px    dxy    dyz    dz2    dxz  x2-y2    tot
    1  0.189  0.059  0.000  0.000  0.000  0.000  0.000  0.000  0.000  0.248
    2  0.189  0.059  0.000  0.000  0.000  0.000  0.000  0.000  0.000  0.248
tot    0.379  0.117  0.000  0.000  0.000  0.000  0.000  0.000  0.000  0.496

band     3 # energy    2.26547585 # occ.  2.00000000

ion      s     py     pz     px    dxy    dyz    dz2    dxz  x2-y2    tot
    1  0.000  0.000  0.044  0.152  0.000  0.000  0.000  0.000  0.000  0.196
    2  0.000  0.000  0.153  0.044  0.000  0.000  0.000  0.000  0.000  0.196
tot    0.000  0.000  0.197  0.196  0.000  0.000  0.000  0.000  0.000  0.393

band     4 # energy    2.26547697 # occ.  2.00000000

ion      s     py     pz     px    dxy    dyz    dz2    dxz  x2-y2    tot
    1  0.000  0.000  0.152  0.044  0.000  0.000  0.000  0.000  0.000  0.196
    2  0.000  0.000  0.044  0.153  0.000  0.000  0.000  0.000  0.000  0.196
tot    0.000  0.000  0.196  0.197  0.000  0.000  0.000  0.000  0.000  0.393

band     5 # energy    6.44587564 # occ.  0.00000000

ion      s     py     pz     px    dxy    dyz    dz2    dxz  x2-y2    tot
    1  0.054  0.041  0.000  0.000  0.000  0.000  0.000  0.000  0.000  0.095
    2  0.054  0.041  0.000  0.000  0.000  0.000  0.000  0.000  0.000  0.095
tot    0.107  0.083  0.000  0.000  0.000  0.000  0.000  0.000  0.000  0.190

band     6 # energy    7.00229289 # occ.  0.00000000

ion      s     py     pz     px    dxy    dyz    dz2    dxz  x2-y2    tot
    1  0.049  0.030  0.000  0.000  0.000  0.000  0.000  0.000  0.000  0.079
    2  0.049  0.030  0.000  0.000  0.000  0.000  0.000  0.000  0.000  0.079
tot    0.097  0.060  0.000  0.000  0.000  0.000  0.000  0.000  0.000  0.158

band     7 # energy   15.44527819 # occ.  0.00000000

ion      s     py     pz     px    dxy    dyz    dz2    dxz  x2-y2    tot
    1  0.000  0.000  0.092  0.077  0.000  0.000  0.000  0.000  0.000  0.169
    2  0.000  0.000  0.123  0.045  0.000  0.000  0.000  0.000  0.000  0.169
tot    0.000  0.000  0.215  0.122  0.000  0.000  0.000  0.000  0.000  0.337

band     8 # energy   15.44531702 # occ.  0.00000000

ion      s     py     pz     px    dxy    dyz    dz2    dxz  x2-y2    tot
    1  0.000  0.000  0.077  0.092  0.000  0.000  0.000  0.000  0.000  0.169
    2  0.000  0.000  0.046  0.123  0.000  0.000  0.000  0.000  0.000  0.169
tot    0.000  0.000  0.123  0.215  0.000  0.000  0.000  0.000  0.000  0.338

band     9 # energy   17.73034546 # occ.  0.00000000

ion      s     py     pz     px    dxy    dyz    dz2    dxz  x2-y2    tot
    1  0.000  0.000  0.000  0.000  0.000  0.000  0.000  0.000  0.000  0.001
    2  0.000  0.000  0.000  0.000  0.000  0.000  0.000  0.000  0.000  0.001
tot    0.000  0.001  0.000  0.000  0.000  0.000  0.000  0.000  0.000  0.002


 k-point    49 :    0.45238095 0.00000000 0.45238095     weight = 0.00000000

band     1 # energy   -4.13674674 # occ.  2.00000000

ion      s     py     pz     px    dxy    dyz    dz2    dxz  x2-y2    tot
    1  0.201  0.037  0.000  0.000  0.000  0.000  0.000  0.000  0.000  0.238
    2  0.201  0.037  0.000  0.000  0.000  0.000  0.000  0.000  0.000  0.238
tot    0.401  0.075  0.000  0.000  0.000  0.000  0.000  0.000  0.000  0.476

band     2 # energy   -2.51571588 # occ.  2.00000000

ion      s     py     pz     px    dxy    dyz    dz2    dxz  x2-y2    tot
    1  0.192  0.054  0.000  0.000  0.000  0.000  0.000  0.000  0.000  0.246
    2  0.192  0.054  0.000  0.000  0.000  0.000  0.000  0.000  0.000  0.246
tot    0.384  0.108  0.000  0.000  0.000  0.000  0.000  0.000  0.000  0.492

band     3 # energy    2.21575109 # occ.  2.00000000

ion      s     py     pz     px    dxy    dyz    dz2    dxz  x2-y2    tot
    1  0.000  0.000  0.043  0.153  0.000  0.000  0.000  0.000  0.000  0.196
    2  0.000  0.000  0.154  0.043  0.000  0.000  0.000  0.000  0.000  0.196
tot    0.000  0.000  0.196  0.196  0.000  0.000  0.000  0.000  0.000  0.393

band     4 # energy    2.21575219 # occ.  2.00000000

ion      s     py     pz     px    dxy    dyz    dz2    dxz  x2-y2    tot
    1  0.000  0.000  0.153  0.043  0.000  0.000  0.000  0.000  0.000  0.196
    2  0.000  0.000  0.043  0.154  0.000  0.000  0.000  0.000  0.000  0.196
tot    0.000  0.000  0.196  0.196  0.000  0.000  0.000  0.000  0.000  0.393

band     5 # energy    6.46922954 # occ.  0.00000000

ion      s     py     pz     px    dxy    dyz    dz2    dxz  x2-y2    tot
    1  0.053  0.039  0.000  0.000  0.000  0.000  0.000  0.000  0.000  0.092
    2  0.053  0.039  0.000  0.000  0.000  0.000  0.000  0.000  0.000  0.092
tot    0.107  0.077  0.000  0.000  0.000  0.000  0.000  0.000  0.000  0.184

band     6 # energy    6.83791570 # occ.  0.00000000

ion      s     py     pz     px    dxy    dyz    dz2    dxz  x2-y2    tot
    1  0.050  0.031  0.000  0.000  0.000  0.000  0.000  0.000  0.000  0.081
    2  0.050  0.031  0.000  0.000  0.000  0.000  0.000  0.000  0.000  0.081
tot    0.100  0.062  0.000  0.000  0.000  0.000  0.000  0.000  0.000  0.162

band     7 # energy   15.91081952 # occ.  0.00000000

ion      s     py     pz     px    dxy    dyz    dz2    dxz  x2-y2    tot
    1  0.000  0.000  0.098  0.080  0.000  0.000  0.000  0.000  0.000  0.178
    2  0.000  0.000  0.127  0.051  0.000  0.000  0.000  0.000  0.000  0.178
tot    0.000  0.000  0.225  0.131  0.000  0.000  0.000  0.000  0.000  0.356

band     8 # energy   15.91083263 # occ.  0.00000000

ion      s     py     pz     px    dxy    dyz    dz2    dxz  x2-y2    tot
    1  0.000  0.000  0.080  0.098  0.000  0.000  0.000  0.000  0.000  0.178
    2  0.000  0.000  0.051  0.127  0.000  0.000  0.000  0.000  0.000  0.178
tot    0.000  0.000  0.131  0.225  0.000  0.000  0.000  0.000  0.000  0.356

band     9 # energy   18.12484411 # occ.  0.00000000

ion      s     py     pz     px    dxy    dyz    dz2    dxz  x2-y2    tot
    1  0.000  0.001  0.016  0.014  0.000  0.000  0.000  0.000  0.000  0.031
    2  0.000  0.001  0.027  0.003  0.000  0.000  0.000  0.000  0.000  0.031
tot    0.001  0.001  0.043  0.017  0.000  0.000  0.000  0.000  0.000  0.062


 k-point    50 :    0.47619048 0.00000000 0.47619048     weight = 0.00000000

band     1 # energy   -3.75221408 # occ.  2.00000000

ion      s     py     pz     px    dxy    dyz    dz2    dxz  x2-y2    tot
    1  0.199  0.041  0.000  0.000  0.000  0.000  0.000  0.000  0.000  0.240
    2  0.199  0.041  0.000  0.000  0.000  0.000  0.000  0.000  0.000  0.240
tot    0.397  0.082  0.000  0.000  0.000  0.000  0.000  0.000  0.000  0.480

band     2 # energy   -2.94063611 # occ.  2.00000000

ion      s     py     pz     px    dxy    dyz    dz2    dxz  x2-y2    tot
    1  0.194  0.050  0.000  0.000  0.000  0.000  0.000  0.000  0.000  0.244
    2  0.194  0.050  0.000  0.000  0.000  0.000  0.000  0.000  0.000  0.244
tot    0.389  0.099  0.000  0.000  0.000  0.000  0.000  0.000  0.000  0.488

band     3 # energy    2.18586525 # occ.  2.00000000

ion      s     py     pz     px    dxy    dyz    dz2    dxz  x2-y2    tot
    1  0.000  0.000  0.042  0.154  0.000  0.000  0.000  0.000  0.000  0.196
    2  0.000  0.000  0.154  0.042  0.000  0.000  0.000  0.000  0.000  0.196
tot    0.000  0.000  0.196  0.196  0.000  0.000  0.000  0.000  0.000  0.393

band     4 # energy    2.18586634 # occ.  2.00000000

ion      s     py     pz     px    dxy    dyz    dz2    dxz  x2-y2    tot
    1  0.000  0.000  0.154  0.042  0.000  0.000  0.000  0.000  0.000  0.196
    2  0.000  0.000  0.042  0.154  0.000  0.000  0.000  0.000  0.000  0.196
tot    0.000  0.000  0.196  0.196  0.000  0.000  0.000  0.000  0.000  0.393

band     5 # energy    6.51937055 # occ.  0.00000000

ion      s     py     pz     px    dxy    dyz    dz2    dxz  x2-y2    tot
    1  0.053  0.036  0.000  0.000  0.000  0.000  0.000  0.000  0.000  0.089
    2  0.053  0.036  0.000  0.000  0.000  0.000  0.000  0.000  0.000  0.089
tot    0.106  0.072  0.000  0.000  0.000  0.000  0.000  0.000  0.000  0.178

band     6 # energy    6.70301858 # occ.  0.00000000

ion      s     py     pz     px    dxy    dyz    dz2    dxz  x2-y2    tot
    1  0.051  0.033  0.000  0.000  0.000  0.000  0.000  0.000  0.000  0.084
    2  0.051  0.033  0.000  0.000  0.000  0.000  0.000  0.000  0.000  0.084
tot    0.102  0.065  0.000  0.000  0.000  0.000  0.000  0.000  0.000  0.167

band     7 # energy   16.33885155 # occ.  0.00000000

ion      s     py     pz     px    dxy    dyz    dz2    dxz  x2-y2    tot
    1  0.000  0.000  0.115  0.088  0.000  0.000  0.000  0.000  0.000  0.203
    2  0.000  0.000  0.128  0.075  0.000  0.000  0.000  0.000  0.000  0.203
tot    0.000  0.000  0.243  0.163  0.000  0.000  0.000  0.000  0.000  0.406

band     8 # energy   16.33943983 # occ.  0.00000000

ion      s     py     pz     px    dxy    dyz    dz2    dxz  x2-y2    tot
    1  0.000  0.000  0.086  0.114  0.000  0.000  0.000  0.000  0.000  0.200
    2  0.000  0.000  0.073  0.126  0.000  0.000  0.000  0.000  0.000  0.200
tot    0.000  0.000  0.159  0.241  0.000  0.000  0.000  0.000  0.000  0.399

band     9 # energy   17.66724034 # occ.  0.00000000

ion      s     py     pz     px    dxy    dyz    dz2    dxz  x2-y2    tot
    1  0.000  0.000  0.003  0.045  0.000  0.000  0.000  0.000  0.000  0.048
    2  0.000  0.000  0.013  0.035  0.000  0.000  0.000  0.000  0.000  0.048
tot    0.000  0.000  0.016  0.080  0.000  0.000  0.000  0.000  0.000  0.096


 k-point    51 :    0.50000000 0.00000000 0.50000000     weight = 0.00000000

band     1 # energy   -3.35319268 # occ.  2.00000000

ion      s     py     pz     px    dxy    dyz    dz2    dxz  x2-y2    tot
    1  0.393  0.000  0.000  0.000  0.000  0.000  0.000  0.000  0.000  0.393
    2  0.000  0.091  0.000  0.000  0.000  0.000  0.000  0.000  0.000  0.091
tot    0.393  0.091  0.000  0.000  0.000  0.000  0.000  0.000  0.000  0.484

band     2 # energy   -3.35316358 # occ.  2.00000000

ion      s     py     pz     px    dxy    dyz    dz2    dxz  x2-y2    tot
    1  0.000  0.091  0.000  0.000  0.000  0.000  0.000  0.000  0.000  0.091
    2  0.393  0.000  0.000  0.000  0.000  0.000  0.000  0.000  0.000  0.393
tot    0.393  0.091  0.000  0.000  0.000  0.000  0.000  0.000  0.000  0.484

band     3 # energy    2.17589006 # occ.  2.00000000

ion      s     py     pz     px    dxy    dyz    dz2    dxz  x2-y2    tot
    1  0.000  0.000  0.041  0.155  0.000  0.000  0.000  0.000  0.000  0.196
    2  0.000  0.000  0.155  0.041  0.000  0.000  0.000  0.000  0.000  0.196
tot    0.000  0.000  0.196  0.196  0.000  0.000  0.000  0.000  0.000  0.393

band     4 # energy    2.17589114 # occ.  2.00000000

ion      s     py     pz     px    dxy    dyz    dz2    dxz  x2-y2    tot
    1  0.000  0.000  0.155  0.041  0.000  0.000  0.000  0.000  0.000  0.196
    2  0.000  0.000  0.041  0.155  0.000  0.000  0.000  0.000  0.000  0.196
tot    0.000  0.000  0.196  0.196  0.000  0.000  0.000  0.000  0.000  0.393

band     5 # energy    6.59705426 # occ.  0.00000000

ion      s     py     pz     px    dxy    dyz    dz2    dxz  x2-y2    tot
    1  0.006  0.064  0.000  0.000  0.000  0.000  0.000  0.000  0.000  0.071
    2  0.098  0.004  0.000  0.000  0.000  0.000  0.000  0.000  0.000  0.102
tot    0.104  0.068  0.000  0.000  0.000  0.000  0.000  0.000  0.000  0.172

band     6 # energy    6.59705805 # occ.  0.00000000

ion      s     py     pz     px    dxy    dyz    dz2    dxz  x2-y2    tot
    1  0.098  0.004  0.000  0.000  0.000  0.000  0.000  0.000  0.000  0.102
    2  0.006  0.064  0.000  0.000  0.000  0.000  0.000  0.000  0.000  0.071
tot    0.104  0.068  0.000  0.000  0.000  0.000  0.000  0.000  0.000  0.172

band     7 # energy   16.57031610 # occ.  0.00000000

ion      s     py     pz     px    dxy    dyz    dz2    dxz  x2-y2    tot
    1  0.000  0.000  0.122  0.118  0.000  0.000  0.000  0.000  0.000  0.240
    2  0.000  0.000  0.118  0.122  0.000  0.000  0.000  0.000  0.000  0.240
tot    0.000  0.000  0.240  0.240  0.000  0.000  0.000  0.000  0.000  0.479

band     8 # energy   16.57466785 # occ.  0.00000000

ion      s     py     pz     px    dxy    dyz    dz2    dxz  x2-y2    tot
    1  0.000  0.000  0.115  0.126  0.000  0.000  0.000  0.000  0.000  0.240
    2  0.000  0.000  0.118  0.120  0.000  0.000  0.000  0.000  0.000  0.238
tot    0.000  0.000  0.233  0.246  0.000  0.000  0.000  0.000  0.000  0.479

band     9 # energy   17.42884019 # occ.  0.00000000

ion      s     py     pz     px    dxy    dyz    dz2    dxz  x2-y2    tot
    1  0.000  0.000  0.007  0.005  0.000  0.000  0.000  0.000  0.000  0.012
    2  0.000  0.000  0.005  0.007  0.000  0.000  0.000  0.000  0.000  0.012
tot    0.000  0.000  0.012  0.012  0.000  0.000  0.000  0.000  0.000  0.024


 k-point    52 :    0.50000000 0.00000000 0.50000000     weight = 0.00000000

band     1 # energy   -3.35319268 # occ.  2.00000000

ion      s     py     pz     px    dxy    dyz    dz2    dxz  x2-y2    tot
    1  0.393  0.000  0.000  0.000  0.000  0.000  0.000  0.000  0.000  0.393
    2  0.000  0.091  0.000  0.000  0.000  0.000  0.000  0.000  0.000  0.091
tot    0.393  0.091  0.000  0.000  0.000  0.000  0.000  0.000  0.000  0.484

band     2 # energy   -3.35316358 # occ.  2.00000000

ion      s     py     pz     px    dxy    dyz    dz2    dxz  x2-y2    tot
    1  0.000  0.091  0.000  0.000  0.000  0.000  0.000  0.000  0.000  0.091
    2  0.393  0.000  0.000  0.000  0.000  0.000  0.000  0.000  0.000  0.393
tot    0.393  0.091  0.000  0.000  0.000  0.000  0.000  0.000  0.000  0.484

band     3 # energy    2.17589006 # occ.  2.00000000

ion      s     py     pz     px    dxy    dyz    dz2    dxz  x2-y2    tot
    1  0.000  0.000  0.041  0.155  0.000  0.000  0.000  0.000  0.000  0.196
    2  0.000  0.000  0.155  0.041  0.000  0.000  0.000  0.000  0.000  0.196
tot    0.000  0.000  0.196  0.196  0.000  0.000  0.000  0.000  0.000  0.393

band     4 # energy    2.17589114 # occ.  2.00000000

ion      s     py     pz     px    dxy    dyz    dz2    dxz  x2-y2    tot
    1  0.000  0.000  0.155  0.041  0.000  0.000  0.000  0.000  0.000  0.196
    2  0.000  0.000  0.041  0.155  0.000  0.000  0.000  0.000  0.000  0.196
tot    0.000  0.000  0.196  0.196  0.000  0.000  0.000  0.000  0.000  0.393

band     5 # energy    6.59705426 # occ.  0.00000000

ion      s     py     pz     px    dxy    dyz    dz2    dxz  x2-y2    tot
    1  0.006  0.064  0.000  0.000  0.000  0.000  0.000  0.000  0.000  0.071
    2  0.098  0.004  0.000  0.000  0.000  0.000  0.000  0.000  0.000  0.102
tot    0.104  0.068  0.000  0.000  0.000  0.000  0.000  0.000  0.000  0.172

band     6 # energy    6.59705805 # occ.  0.00000000

ion      s     py     pz     px    dxy    dyz    dz2    dxz  x2-y2    tot
    1  0.098  0.004  0.000  0.000  0.000  0.000  0.000  0.000  0.000  0.102
    2  0.006  0.064  0.000  0.000  0.000  0.000  0.000  0.000  0.000  0.071
tot    0.104  0.068  0.000  0.000  0.000  0.000  0.000  0.000  0.000  0.172

band     7 # energy   16.57031610 # occ.  0.00000000

ion      s     py     pz     px    dxy    dyz    dz2    dxz  x2-y2    tot
    1  0.000  0.000  0.122  0.118  0.000  0.000  0.000  0.000  0.000  0.240
    2  0.000  0.000  0.118  0.122  0.000  0.000  0.000  0.000  0.000  0.240
tot    0.000  0.000  0.240  0.240  0.000  0.000  0.000  0.000  0.000  0.479

band     8 # energy   16.57466785 # occ.  0.00000000

ion      s     py     pz     px    dxy    dyz    dz2    dxz  x2-y2    tot
    1  0.000  0.000  0.115  0.126  0.000  0.000  0.000  0.000  0.000  0.240
    2  0.000  0.000  0.118  0.120  0.000  0.000  0.000  0.000  0.000  0.238
tot    0.000  0.000  0.233  0.246  0.000  0.000  0.000  0.000  0.000  0.479

band     9 # energy   17.42884019 # occ.  0.00000000

ion      s     py     pz     px    dxy    dyz    dz2    dxz  x2-y2    tot
    1  0.000  0.000  0.007  0.005  0.000  0.000  0.000  0.000  0.000  0.012
    2  0.000  0.000  0.005  0.007  0.000  0.000  0.000  0.000  0.000  0.012
tot    0.000  0.000  0.012  0.012  0.000  0.000  0.000  0.000  0.000  0.024


 k-point    53 :    0.50000000 0.02500000 0.52500000     weight = 0.00000000

band     1 # energy   -3.34927302 # occ.  2.00000000

ion      s     py     pz     px    dxy    dyz    dz2    dxz  x2-y2    tot
    1  0.393  0.000  0.000  0.000  0.000  0.000  0.000  0.000  0.000  0.393
    2  0.000  0.090  0.000  0.000  0.000  0.000  0.000  0.000  0.000  0.091
tot    0.394  0.090  0.000  0.000  0.000  0.000  0.000  0.000  0.000  0.484

band     2 # energy   -3.34924387 # occ.  2.00000000

ion      s     py     pz     px    dxy    dyz    dz2    dxz  x2-y2    tot
    1  0.000  0.090  0.000  0.000  0.000  0.000  0.000  0.000  0.000  0.091
    2  0.393  0.000  0.000  0.000  0.000  0.000  0.000  0.000  0.000  0.393
tot    0.394  0.090  0.000  0.000  0.000  0.000  0.000  0.000  0.000  0.484

band     3 # energy    2.14369724 # occ.  2.00000000

ion      s     py     pz     px    dxy    dyz    dz2    dxz  x2-y2    tot
    1  0.000  0.000  0.053  0.141  0.000  0.000  0.000  0.000  0.000  0.195
    2  0.000  0.001  0.141  0.053  0.000  0.000  0.000  0.000  0.000  0.195
tot    0.001  0.002  0.194  0.194  0.000  0.000  0.000  0.000  0.000  0.390

band     4 # energy    2.14369823 # occ.  2.00000000

ion      s     py     pz     px    dxy    dyz    dz2    dxz  x2-y2    tot
    1  0.000  0.001  0.141  0.053  0.000  0.000  0.000  0.000  0.000  0.195
    2  0.000  0.000  0.053  0.141  0.000  0.000  0.000  0.000  0.000  0.195
tot    0.001  0.002  0.194  0.194  0.000  0.000  0.000  0.000  0.000  0.390

band     5 # energy    6.65854800 # occ.  0.00000000

ion      s     py     pz     px    dxy    dyz    dz2    dxz  x2-y2    tot
    1  0.007  0.063  0.002  0.000  0.000  0.000  0.000  0.000  0.000  0.072
    2  0.096  0.004  0.000  0.003  0.000  0.000  0.000  0.000  0.000  0.103
tot    0.103  0.067  0.002  0.003  0.000  0.000  0.000  0.000  0.000  0.175

band     6 # energy    6.65855170 # occ.  0.00000000

ion      s     py     pz     px    dxy    dyz    dz2    dxz  x2-y2    tot
    1  0.096  0.004  0.000  0.003  0.000  0.000  0.000  0.000  0.000  0.103
    2  0.007  0.063  0.002  0.000  0.000  0.000  0.000  0.000  0.000  0.072
tot    0.103  0.067  0.002  0.003  0.000  0.000  0.000  0.000  0.000  0.175

band     7 # energy   16.45719025 # occ.  0.00000000

ion      s     py     pz     px    dxy    dyz    dz2    dxz  x2-y2    tot
    1  0.002  0.003  0.118  0.106  0.000  0.000  0.000  0.000  0.000  0.228
    2  0.002  0.002  0.094  0.132  0.000  0.000  0.000  0.000  0.000  0.231
tot    0.004  0.005  0.212  0.238  0.000  0.000  0.000  0.000  0.000  0.459

band     8 # energy   16.45807885 # occ.  0.00000000

ion      s     py     pz     px    dxy    dyz    dz2    dxz  x2-y2    tot
    1  0.002  0.003  0.092  0.132  0.000  0.000  0.000  0.000  0.000  0.229
    2  0.002  0.003  0.115  0.106  0.000  0.000  0.000  0.000  0.000  0.226
tot    0.004  0.006  0.207  0.238  0.000  0.000  0.000  0.000  0.000  0.455

band     9 # energy   17.29320611 # occ.  0.00000000

ion      s     py     pz     px    dxy    dyz    dz2    dxz  x2-y2    tot
    1  0.002  0.008  0.018  0.000  0.000  0.000  0.000  0.000  0.000  0.028
    2  0.002  0.007  0.017  0.000  0.000  0.000  0.000  0.000  0.000  0.027
tot    0.004  0.015  0.035  0.000  0.000  0.000  0.000  0.000  0.000  0.055


 k-point    54 :    0.50000000 0.05000000 0.55000000     weight = 0.00000000

band     1 # energy   -3.33783388 # occ.  2.00000000

ion      s     py     pz     px    dxy    dyz    dz2    dxz  x2-y2    tot
    1  0.394  0.000  0.000  0.000  0.000  0.000  0.000  0.000  0.000  0.395
    2  0.000  0.089  0.001  0.000  0.000  0.000  0.000  0.000  0.000  0.091
tot    0.395  0.089  0.001  0.000  0.000  0.000  0.000  0.000  0.000  0.485

band     2 # energy   -3.33780454 # occ.  2.00000000

ion      s     py     pz     px    dxy    dyz    dz2    dxz  x2-y2    tot
    1  0.000  0.089  0.001  0.000  0.000  0.000  0.000  0.000  0.000  0.091
    2  0.394  0.000  0.000  0.000  0.000  0.000  0.000  0.000  0.000  0.395
tot    0.395  0.089  0.001  0.000  0.000  0.000  0.000  0.000  0.000  0.485

band     3 # energy    2.05348902 # occ.  2.00000000

ion      s     py     pz     px    dxy    dyz    dz2    dxz  x2-y2    tot
    1  0.001  0.003  0.096  0.091  0.000  0.000  0.000  0.000  0.000  0.191
    2  0.001  0.003  0.090  0.097  0.000  0.000  0.000  0.000  0.000  0.191
tot    0.002  0.007  0.187  0.187  0.000  0.000  0.000  0.000  0.000  0.383

band     4 # energy    2.05348988 # occ.  2.00000000

ion      s     py     pz     px    dxy    dyz    dz2    dxz  x2-y2    tot
    1  0.001  0.003  0.090  0.097  0.000  0.000  0.000  0.000  0.000  0.191
    2  0.001  0.003  0.096  0.091  0.000  0.000  0.000  0.000  0.000  0.191
tot    0.002  0.007  0.187  0.187  0.000  0.000  0.000  0.000  0.000  0.383

band     5 # energy    6.83678640 # occ.  0.00000000

ion      s     py     pz     px    dxy    dyz    dz2    dxz  x2-y2    tot
    1  0.008  0.059  0.007  0.001  0.000  0.000  0.000  0.000  0.000  0.075
    2  0.091  0.005  0.001  0.010  0.000  0.000  0.000  0.000  0.000  0.107
tot    0.099  0.064  0.007  0.011  0.000  0.000  0.000  0.000  0.000  0.181

band     6 # energy    6.83678985 # occ.  0.00000000

ion      s     py     pz     px    dxy    dyz    dz2    dxz  x2-y2    tot
    1  0.091  0.005  0.001  0.010  0.000  0.000  0.000  0.000  0.000  0.107
    2  0.008  0.059  0.007  0.001  0.000  0.000  0.000  0.000  0.000  0.075
tot    0.099  0.064  0.007  0.011  0.000  0.000  0.000  0.000  0.000  0.181

band     7 # energy   16.07472524 # occ.  0.00000000

ion      s     py     pz     px    dxy    dyz    dz2    dxz  x2-y2    tot
    1  0.005  0.016  0.098  0.063  0.000  0.000  0.000  0.000  0.000  0.182
    2  0.011  0.007  0.045  0.139  0.000  0.000  0.000  0.000  0.000  0.202
tot    0.016  0.023  0.143  0.202  0.000  0.000  0.000  0.000  0.000  0.384

band     8 # energy   16.07524921 # occ.  0.00000000

ion      s     py     pz     px    dxy    dyz    dz2    dxz  x2-y2    tot
    1  0.011  0.007  0.044  0.138  0.000  0.000  0.000  0.000  0.000  0.201
    2  0.005  0.016  0.097  0.063  0.000  0.000  0.000  0.000  0.000  0.181
tot    0.016  0.024  0.141  0.202  0.000  0.000  0.000  0.000  0.000  0.382

band     9 # energy   17.12705568 # occ.  0.00000000

ion      s     py     pz     px    dxy    dyz    dz2    dxz  x2-y2    tot
    1  0.002  0.013  0.049  0.008  0.000  0.000  0.000  0.000  0.000  0.072
    2  0.002  0.012  0.048  0.008  0.000  0.000  0.000  0.000  0.000  0.071
tot    0.004  0.025  0.097  0.016  0.000  0.000  0.000  0.000  0.000  0.142


 k-point    55 :    0.50000000 0.07500000 0.57500000     weight = 0.00000000

band     1 # energy   -3.31973561 # occ.  2.00000000

ion      s     py     pz     px    dxy    dyz    dz2    dxz  x2-y2    tot
    1  0.397  0.000  0.000  0.000  0.000  0.000  0.000  0.000  0.000  0.397
    2  0.001  0.086  0.003  0.000  0.000  0.000  0.000  0.000  0.000  0.090
tot    0.397  0.086  0.003  0.000  0.000  0.000  0.000  0.000  0.000  0.487

band     2 # energy   -3.31970597 # occ.  2.00000000

ion      s     py     pz     px    dxy    dyz    dz2    dxz  x2-y2    tot
    1  0.001  0.086  0.003  0.000  0.000  0.000  0.000  0.000  0.000  0.090
    2  0.397  0.000  0.000  0.000  0.000  0.000  0.000  0.000  0.000  0.397
tot    0.397  0.086  0.003  0.000  0.000  0.000  0.000  0.000  0.000  0.487

band     3 # energy    1.92128842 # occ.  2.00000000

ion      s     py     pz     px    dxy    dyz    dz2    dxz  x2-y2    tot
    1  0.001  0.011  0.148  0.029  0.000  0.000  0.000  0.000  0.000  0.189
    2  0.003  0.002  0.029  0.150  0.000  0.000  0.000  0.000  0.000  0.184
tot    0.003  0.014  0.177  0.179  0.000  0.000  0.000  0.000  0.000  0.373

band     4 # energy    1.92128950 # occ.  2.00000000

ion      s     py     pz     px    dxy    dyz    dz2    dxz  x2-y2    tot
    1  0.003  0.002  0.029  0.150  0.000  0.000  0.000  0.000  0.000  0.184
    2  0.001  0.011  0.148  0.029  0.000  0.000  0.000  0.000  0.000  0.189
tot    0.003  0.014  0.177  0.179  0.000  0.000  0.000  0.000  0.000  0.373

band     5 # energy    7.11635098 # occ.  0.00000000

ion      s     py     pz     px    dxy    dyz    dz2    dxz  x2-y2    tot
    1  0.011  0.053  0.013  0.003  0.000  0.000  0.000  0.000  0.000  0.079
    2  0.083  0.007  0.002  0.019  0.000  0.000  0.000  0.000  0.000  0.111
tot    0.094  0.060  0.014  0.022  0.000  0.000  0.000  0.000  0.000  0.189

band     6 # energy    7.11635411 # occ.  0.00000000

ion      s     py     pz     px    dxy    dyz    dz2    dxz  x2-y2    tot
    1  0.083  0.007  0.002  0.019  0.000  0.000  0.000  0.000  0.000  0.111
    2  0.011  0.053  0.013  0.003  0.000  0.000  0.000  0.000  0.000  0.079
tot    0.094  0.060  0.014  0.022  0.000  0.000  0.000  0.000  0.000  0.189

band     7 # energy   15.49299492 # occ.  0.00000000

ion      s     py     pz     px    dxy    dyz    dz2    dxz  x2-y2    tot
    1  0.003  0.035  0.084  0.020  0.000  0.000  0.000  0.000  0.000  0.144
    2  0.024  0.005  0.012  0.141  0.000  0.000  0.000  0.000  0.000  0.182
tot    0.027  0.041  0.097  0.161  0.000  0.000  0.000  0.000  0.000  0.326

band     8 # energy   15.49327999 # occ.  0.00000000

ion      s     py     pz     px    dxy    dyz    dz2    dxz  x2-y2    tot
    1  0.024  0.005  0.011  0.140  0.000  0.000  0.000  0.000  0.000  0.180
    2  0.003  0.036  0.083  0.020  0.000  0.000  0.000  0.000  0.000  0.142
tot    0.027  0.041  0.094  0.159  0.000  0.000  0.000  0.000  0.000  0.322

band     9 # energy   17.05789778 # occ.  0.00000000

ion      s     py     pz     px    dxy    dyz    dz2    dxz  x2-y2    tot
    1  0.001  0.014  0.069  0.021  0.000  0.000  0.000  0.000  0.000  0.106
    2  0.001  0.013  0.065  0.022  0.000  0.000  0.000  0.000  0.000  0.102
tot    0.002  0.028  0.134  0.043  0.000  0.000  0.000  0.000  0.000  0.207


 k-point    56 :    0.50000000 0.10000000 0.60000000     weight = 0.00000000

band     1 # energy   -3.29643141 # occ.  2.00000000

ion      s     py     pz     px    dxy    dyz    dz2    dxz  x2-y2    tot
    1  0.399  0.000  0.000  0.000  0.000  0.000  0.000  0.000  0.000  0.399
    2  0.001  0.083  0.006  0.000  0.000  0.000  0.000  0.000  0.000  0.089
tot    0.400  0.083  0.006  0.000  0.000  0.000  0.000  0.000  0.000  0.489

band     2 # energy   -3.29640137 # occ.  2.00000000

ion      s     py     pz     px    dxy    dyz    dz2    dxz  x2-y2    tot
    1  0.001  0.083  0.006  0.000  0.000  0.000  0.000  0.000  0.000  0.089
    2  0.399  0.000  0.000  0.000  0.000  0.000  0.000  0.000  0.000  0.399
tot    0.400  0.083  0.006  0.000  0.000  0.000  0.000  0.000  0.000  0.489

band     3 # energy    1.76638721 # occ.  2.00000000

ion      s     py     pz     px    dxy    dyz    dz2    dxz  x2-y2    tot
    1  0.000  0.021  0.159  0.007  0.000  0.000  0.000  0.000  0.000  0.188
    2  0.004  0.001  0.007  0.163  0.000  0.000  0.000  0.000  0.000  0.175
tot    0.004  0.022  0.166  0.170  0.000  0.000  0.000  0.000  0.000  0.363

band     4 # energy    1.76638890 # occ.  2.00000000

ion      s     py     pz     px    dxy    dyz    dz2    dxz  x2-y2    tot
    1  0.004  0.001  0.007  0.163  0.000  0.000  0.000  0.000  0.000  0.175
    2  0.000  0.021  0.159  0.007  0.000  0.000  0.000  0.000  0.000  0.188
tot    0.004  0.022  0.166  0.170  0.000  0.000  0.000  0.000  0.000  0.363

band     5 # energy    7.47867827 # occ.  0.00000000

ion      s     py     pz     px    dxy    dyz    dz2    dxz  x2-y2    tot
    1  0.015  0.045  0.018  0.006  0.000  0.000  0.000  0.000  0.000  0.084
    2  0.073  0.009  0.004  0.028  0.000  0.000  0.000  0.000  0.000  0.114
tot    0.088  0.055  0.021  0.034  0.000  0.000  0.000  0.000  0.000  0.198

band     6 # energy    7.47868106 # occ.  0.00000000

ion      s     py     pz     px    dxy    dyz    dz2    dxz  x2-y2    tot
    1  0.073  0.009  0.004  0.028  0.000  0.000  0.000  0.000  0.000  0.114
    2  0.015  0.045  0.018  0.006  0.000  0.000  0.000  0.000  0.000  0.084
tot    0.088  0.055  0.021  0.034  0.000  0.000  0.000  0.000  0.000  0.198

band     7 # energy   14.83266966 # occ.  0.00000000

ion      s     py     pz     px    dxy    dyz    dz2    dxz  x2-y2    tot
    1  0.002  0.048  0.072  0.007  0.000  0.000  0.000  0.000  0.000  0.130
    2  0.034  0.003  0.004  0.128  0.000  0.000  0.000  0.000  0.000  0.169
tot    0.037  0.051  0.076  0.135  0.000  0.000  0.000  0.000  0.000  0.299

band     8 # energy   14.83272935 # occ.  0.00000000

ion      s     py     pz     px    dxy    dyz    dz2    dxz  x2-y2    tot
    1  0.034  0.003  0.004  0.127  0.000  0.000  0.000  0.000  0.000  0.169
    2  0.002  0.049  0.071  0.007  0.000  0.000  0.000  0.000  0.000  0.129
tot    0.036  0.052  0.075  0.135  0.000  0.000  0.000  0.000  0.000  0.298

band     9 # energy   17.03417974 # occ.  0.00000000

ion      s     py     pz     px    dxy    dyz    dz2    dxz  x2-y2    tot
    1  0.001  0.017  0.077  0.028  0.000  0.000  0.000  0.000  0.000  0.122
    2  0.001  0.015  0.069  0.031  0.000  0.000  0.000  0.000  0.000  0.116
tot    0.001  0.032  0.146  0.058  0.000  0.000  0.000  0.000  0.000  0.238


 k-point    57 :    0.50000000 0.12500000 0.62500000     weight = 0.00000000

band     1 # energy   -3.26991721 # occ.  2.00000000

ion      s     py     pz     px    dxy    dyz    dz2    dxz  x2-y2    tot
    1  0.402  0.000  0.000  0.000  0.000  0.000  0.000  0.000  0.000  0.403
    2  0.001  0.078  0.010  0.000  0.000  0.000  0.000  0.000  0.000  0.089
tot    0.403  0.078  0.010  0.000  0.000  0.000  0.000  0.000  0.000  0.491

band     2 # energy   -3.26988669 # occ.  2.00000000

ion      s     py     pz     px    dxy    dyz    dz2    dxz  x2-y2    tot
    1  0.001  0.078  0.010  0.000  0.000  0.000  0.000  0.000  0.000  0.089
    2  0.402  0.000  0.000  0.000  0.000  0.000  0.000  0.000  0.000  0.403
tot    0.403  0.078  0.010  0.000  0.000  0.000  0.000  0.000  0.000  0.491

band     3 # energy    1.60668739 # occ.  2.00000000

ion      s     py     pz     px    dxy    dyz    dz2    dxz  x2-y2    tot
    1  0.000  0.032  0.152  0.002  0.000  0.000  0.000  0.000  0.000  0.186
    2  0.004  0.000  0.002  0.160  0.000  0.000  0.000  0.000  0.000  0.166
tot    0.004  0.032  0.154  0.162  0.000  0.000  0.000  0.000  0.000  0.353

band     4 # energy    1.60668986 # occ.  2.00000000

ion      s     py     pz     px    dxy    dyz    dz2    dxz  x2-y2    tot
    1  0.004  0.000  0.002  0.160  0.000  0.000  0.000  0.000  0.000  0.166
    2  0.000  0.032  0.152  0.002  0.000  0.000  0.000  0.000  0.000  0.186
tot    0.004  0.032  0.154  0.162  0.000  0.000  0.000  0.000  0.000  0.353

band     5 # energy    7.90673827 # occ.  0.00000000

ion      s     py     pz     px    dxy    dyz    dz2    dxz  x2-y2    tot
    1  0.020  0.037  0.021  0.012  0.000  0.000  0.000  0.000  0.000  0.090
    2  0.061  0.012  0.007  0.035  0.000  0.000  0.000  0.000  0.000  0.115
tot    0.081  0.050  0.027  0.047  0.000  0.000  0.000  0.000  0.000  0.205

band     6 # energy    7.90674078 # occ.  0.00000000

ion      s     py     pz     px    dxy    dyz    dz2    dxz  x2-y2    tot
    1  0.061  0.012  0.007  0.035  0.000  0.000  0.000  0.000  0.000  0.115
    2  0.020  0.037  0.021  0.012  0.000  0.000  0.000  0.000  0.000  0.090
tot    0.081  0.050  0.027  0.047  0.000  0.000  0.000  0.000  0.000  0.205

band     7 # energy   14.14742920 # occ.  0.00000000

ion      s     py     pz     px    dxy    dyz    dz2    dxz  x2-y2    tot
    1  0.004  0.053  0.060  0.010  0.000  0.000  0.000  0.000  0.000  0.127
    2  0.041  0.005  0.006  0.107  0.000  0.000  0.000  0.000  0.000  0.159
tot    0.045  0.058  0.066  0.117  0.000  0.000  0.000  0.000  0.000  0.286

band     8 # energy   14.14744615 # occ.  0.00000000

ion      s     py     pz     px    dxy    dyz    dz2    dxz  x2-y2    tot
    1  0.041  0.005  0.006  0.107  0.000  0.000  0.000  0.000  0.000  0.159
    2  0.004  0.053  0.060  0.010  0.000  0.000  0.000  0.000  0.000  0.127
tot    0.045  0.058  0.066  0.117  0.000  0.000  0.000  0.000  0.000  0.286

band     9 # energy   17.02766034 # occ.  0.00000000

ion      s     py     pz     px    dxy    dyz    dz2    dxz  x2-y2    tot
    1  0.000  0.021  0.078  0.031  0.000  0.000  0.000  0.000  0.000  0.131
    2  0.000  0.019  0.069  0.036  0.000  0.000  0.000  0.000  0.000  0.123
tot    0.001  0.040  0.147  0.067  0.000  0.000  0.000  0.000  0.000  0.254


 k-point    58 :    0.50000000 0.15000000 0.65000000     weight = 0.00000000

band     1 # energy   -3.24262872 # occ.  2.00000000

ion      s     py     pz     px    dxy    dyz    dz2    dxz  x2-y2    tot
    1  0.406  0.000  0.000  0.000  0.000  0.000  0.000  0.000  0.000  0.406
    2  0.001  0.073  0.014  0.000  0.000  0.000  0.000  0.000  0.000  0.088
tot    0.406  0.073  0.014  0.000  0.000  0.000  0.000  0.000  0.000  0.494

band     2 # energy   -3.24259768 # occ.  2.00000000

ion      s     py     pz     px    dxy    dyz    dz2    dxz  x2-y2    tot
    1  0.001  0.073  0.014  0.000  0.000  0.000  0.000  0.000  0.000  0.088
    2  0.406  0.000  0.000  0.000  0.000  0.000  0.000  0.000  0.000  0.406
tot    0.406  0.073  0.014  0.000  0.000  0.000  0.000  0.000  0.000  0.494

band     3 # energy    1.45699782 # occ.  2.00000000

ion      s     py     pz     px    dxy    dyz    dz2    dxz  x2-y2    tot
    1  0.000  0.042  0.142  0.001  0.000  0.000  0.000  0.000  0.000  0.185
    2  0.004  0.000  0.001  0.154  0.000  0.000  0.000  0.000  0.000  0.159
tot    0.004  0.043  0.142  0.155  0.000  0.000  0.000  0.000  0.000  0.344

band     4 # energy    1.45700111 # occ.  2.00000000

ion      s     py     pz     px    dxy    dyz    dz2    dxz  x2-y2    tot
    1  0.004  0.000  0.001  0.154  0.000  0.000  0.000  0.000  0.000  0.159
    2  0.000  0.042  0.142  0.001  0.000  0.000  0.000  0.000  0.000  0.185
tot    0.004  0.043  0.142  0.155  0.000  0.000  0.000  0.000  0.000  0.344

band     5 # energy    8.38638282 # occ.  0.00000000

ion      s     py     pz     px    dxy    dyz    dz2    dxz  x2-y2    tot
    1  0.027  0.028  0.020  0.022  0.000  0.000  0.000  0.000  0.000  0.098
    2  0.046  0.017  0.012  0.038  0.000  0.000  0.000  0.000  0.000  0.113
tot    0.074  0.045  0.032  0.060  0.000  0.000  0.000  0.000  0.000  0.211

band     6 # energy    8.38638515 # occ.  0.00000000

ion      s     py     pz     px    dxy    dyz    dz2    dxz  x2-y2    tot
    1  0.046  0.017  0.012  0.038  0.000  0.000  0.000  0.000  0.000  0.113
    2  0.027  0.028  0.020  0.022  0.000  0.000  0.000  0.000  0.000  0.098
tot    0.074  0.045  0.032  0.060  0.000  0.000  0.000  0.000  0.000  0.211

band     7 # energy   13.45906930 # occ.  0.00000000

ion      s     py     pz     px    dxy    dyz    dz2    dxz  x2-y2    tot
    1  0.003  0.060  0.058  0.005  0.000  0.000  0.000  0.000  0.000  0.126
    2  0.050  0.003  0.003  0.097  0.000  0.000  0.000  0.000  0.000  0.154
tot    0.053  0.063  0.061  0.102  0.000  0.000  0.000  0.000  0.000  0.280

band     8 # energy   13.45907731 # occ.  0.00000000

ion      s     py     pz     px    dxy    dyz    dz2    dxz  x2-y2    tot
    1  0.050  0.003  0.003  0.097  0.000  0.000  0.000  0.000  0.000  0.154
    2  0.003  0.060  0.058  0.005  0.000  0.000  0.000  0.000  0.000  0.126
tot    0.053  0.063  0.061  0.102  0.000  0.000  0.000  0.000  0.000  0.280

band     9 # energy   17.02795985 # occ.  0.00000000

ion      s     py     pz     px    dxy    dyz    dz2    dxz  x2-y2    tot
    1  0.000  0.026  0.076  0.033  0.000  0.000  0.000  0.000  0.000  0.136
    2  0.000  0.023  0.065  0.039  0.000  0.000  0.000  0.000  0.000  0.127
tot    0.000  0.049  0.141  0.072  0.000  0.000  0.000  0.000  0.000  0.263


 k-point    59 :    0.50000000 0.17500000 0.67500000     weight = 0.00000000

band     1 # energy   -3.21731917 # occ.  2.00000000

ion      s     py     pz     px    dxy    dyz    dz2    dxz  x2-y2    tot
    1  0.409  0.000  0.000  0.000  0.000  0.000  0.000  0.000  0.000  0.409
    2  0.001  0.066  0.020  0.000  0.000  0.000  0.000  0.000  0.000  0.087
tot    0.410  0.066  0.020  0.000  0.000  0.000  0.000  0.000  0.000  0.496

band     2 # energy   -3.21728760 # occ.  2.00000000

ion      s     py     pz     px    dxy    dyz    dz2    dxz  x2-y2    tot
    1  0.001  0.066  0.020  0.000  0.000  0.000  0.000  0.000  0.000  0.087
    2  0.409  0.000  0.000  0.000  0.000  0.000  0.000  0.000  0.000  0.409
tot    0.410  0.066  0.020  0.000  0.000  0.000  0.000  0.000  0.000  0.496

band     3 # energy    1.32887434 # occ.  2.00000000

ion      s     py     pz     px    dxy    dyz    dz2    dxz  x2-y2    tot
    1  0.000  0.054  0.130  0.000  0.000  0.000  0.000  0.000  0.000  0.184
    2  0.003  0.000  0.000  0.150  0.000  0.000  0.000  0.000  0.000  0.152
tot    0.003  0.054  0.130  0.150  0.000  0.000  0.000  0.000  0.000  0.336

band     4 # energy    1.32887840 # occ.  2.00000000

ion      s     py     pz     px    dxy    dyz    dz2    dxz  x2-y2    tot
    1  0.003  0.000  0.000  0.150  0.000  0.000  0.000  0.000  0.000  0.152
    2  0.000  0.054  0.130  0.000  0.000  0.000  0.000  0.000  0.000  0.184
tot    0.003  0.054  0.130  0.150  0.000  0.000  0.000  0.000  0.000  0.336

band     5 # energy    8.90547228 # occ.  0.00000000

ion      s     py     pz     px    dxy    dyz    dz2    dxz  x2-y2    tot
    1  0.036  0.018  0.016  0.041  0.000  0.000  0.000  0.000  0.000  0.110
    2  0.029  0.022  0.019  0.033  0.000  0.000  0.000  0.000  0.000  0.103
tot    0.065  0.040  0.034  0.074  0.000  0.000  0.000  0.000  0.000  0.213

band     6 # energy    8.90547459 # occ.  0.00000000

ion      s     py     pz     px    dxy    dyz    dz2    dxz  x2-y2    tot
    1  0.029  0.022  0.019  0.033  0.000  0.000  0.000  0.000  0.000  0.103
    2  0.036  0.018  0.016  0.041  0.000  0.000  0.000  0.000  0.000  0.110
tot    0.065  0.040  0.034  0.074  0.000  0.000  0.000  0.000  0.000  0.213

band     7 # energy   12.77993433 # occ.  0.00000000

ion      s     py     pz     px    dxy    dyz    dz2    dxz  x2-y2    tot
    1  0.003  0.064  0.057  0.004  0.000  0.000  0.000  0.000  0.000  0.129
    2  0.059  0.003  0.003  0.084  0.000  0.000  0.000  0.000  0.000  0.149
tot    0.062  0.068  0.061  0.088  0.000  0.000  0.000  0.000  0.000  0.279

band     8 # energy   12.77994255 # occ.  0.00000000

ion      s     py     pz     px    dxy    dyz    dz2    dxz  x2-y2    tot
    1  0.059  0.003  0.003  0.084  0.000  0.000  0.000  0.000  0.000  0.149
    2  0.003  0.064  0.057  0.004  0.000  0.000  0.000  0.000  0.000  0.129
tot    0.062  0.068  0.061  0.088  0.000  0.000  0.000  0.000  0.000  0.279

band     9 # energy   17.03106552 # occ.  0.00000000

ion      s     py     pz     px    dxy    dyz    dz2    dxz  x2-y2    tot
    1  0.000  0.032  0.072  0.034  0.000  0.000  0.000  0.000  0.000  0.139
    2  0.000  0.027  0.060  0.041  0.000  0.000  0.000  0.000  0.000  0.128
tot    0.000  0.059  0.133  0.075  0.000  0.000  0.000  0.000  0.000  0.267


 k-point    60 :    0.50000000 0.20000000 0.70000000     weight = 0.00000000

band     1 # energy   -3.19672865 # occ.  2.00000000

ion      s     py     pz     px    dxy    dyz    dz2    dxz  x2-y2    tot
    1  0.412  0.000  0.000  0.000  0.000  0.000  0.000  0.000  0.000  0.412
    2  0.001  0.059  0.027  0.000  0.000  0.000  0.000  0.000  0.000  0.086
tot    0.412  0.059  0.027  0.000  0.000  0.000  0.000  0.000  0.000  0.498

band     2 # energy   -3.19669661 # occ.  2.00000000

ion      s     py     pz     px    dxy    dyz    dz2    dxz  x2-y2    tot
    1  0.001  0.059  0.027  0.000  0.000  0.000  0.000  0.000  0.000  0.086
    2  0.412  0.000  0.000  0.000  0.000  0.000  0.000  0.000  0.000  0.412
tot    0.412  0.059  0.027  0.000  0.000  0.000  0.000  0.000  0.000  0.498

band     3 # energy    1.23109292 # occ.  2.00000000

ion      s     py     pz     px    dxy    dyz    dz2    dxz  x2-y2    tot
    1  0.000  0.066  0.117  0.000  0.000  0.000  0.000  0.000  0.000  0.184
    2  0.001  0.000  0.000  0.146  0.000  0.000  0.000  0.000  0.000  0.147
tot    0.001  0.066  0.118  0.146  0.000  0.000  0.000  0.000  0.000  0.331

band     4 # energy    1.23109765 # occ.  2.00000000

ion      s     py     pz     px    dxy    dyz    dz2    dxz  x2-y2    tot
    1  0.001  0.000  0.000  0.146  0.000  0.000  0.000  0.000  0.000  0.147
    2  0.000  0.066  0.117  0.000  0.000  0.000  0.000  0.000  0.000  0.184
tot    0.001  0.066  0.118  0.146  0.000  0.000  0.000  0.000  0.000  0.331

band     5 # energy    9.45016567 # occ.  0.00000000

ion      s     py     pz     px    dxy    dyz    dz2    dxz  x2-y2    tot
    1  0.041  0.007  0.007  0.071  0.000  0.000  0.000  0.000  0.000  0.127
    2  0.012  0.026  0.026  0.020  0.000  0.000  0.000  0.000  0.000  0.084
tot    0.053  0.033  0.033  0.092  0.000  0.000  0.000  0.000  0.000  0.211

band     6 # energy    9.45016847 # occ.  0.00000000

ion      s     py     pz     px    dxy    dyz    dz2    dxz  x2-y2    tot
    1  0.012  0.026  0.026  0.020  0.000  0.000  0.000  0.000  0.000  0.084
    2  0.041  0.007  0.007  0.071  0.000  0.000  0.000  0.000  0.000  0.127
tot    0.053  0.033  0.033  0.092  0.000  0.000  0.000  0.000  0.000  0.211

band     7 # energy   12.12230336 # occ.  0.00000000

ion      s     py     pz     px    dxy    dyz    dz2    dxz  x2-y2    tot
    1  0.003  0.070  0.062  0.003  0.000  0.000  0.000  0.000  0.000  0.137
    2  0.072  0.003  0.002  0.069  0.000  0.000  0.000  0.000  0.000  0.145
tot    0.074  0.073  0.064  0.071  0.000  0.000  0.000  0.000  0.000  0.282

band     8 # energy   12.12231216 # occ.  0.00000000

ion      s     py     pz     px    dxy    dyz    dz2    dxz  x2-y2    tot
    1  0.072  0.003  0.002  0.069  0.000  0.000  0.000  0.000  0.000  0.145
    2  0.003  0.070  0.061  0.003  0.000  0.000  0.000  0.000  0.000  0.137
tot    0.074  0.073  0.064  0.071  0.000  0.000  0.000  0.000  0.000  0.282

band     9 # energy   17.03437603 # occ.  0.00000000

ion      s     py     pz     px    dxy    dyz    dz2    dxz  x2-y2    tot
    1  0.000  0.039  0.067  0.035  0.000  0.000  0.000  0.000  0.000  0.141
    2  0.000  0.032  0.055  0.042  0.000  0.000  0.000  0.000  0.000  0.130
tot    0.000  0.071  0.122  0.077  0.000  0.000  0.000  0.000  0.000  0.270


 k-point    61 :    0.50000000 0.22500000 0.72500000     weight = 0.00000000

band     1 # energy   -3.18326598 # occ.  2.00000000

ion      s     py     pz     px    dxy    dyz    dz2    dxz  x2-y2    tot
    1  0.413  0.000  0.000  0.000  0.000  0.000  0.000  0.000  0.000  0.414
    2  0.001  0.051  0.034  0.000  0.000  0.000  0.000  0.000  0.000  0.086
tot    0.414  0.051  0.034  0.000  0.000  0.000  0.000  0.000  0.000  0.499

band     2 # energy   -3.18323356 # occ.  2.00000000

ion      s     py     pz     px    dxy    dyz    dz2    dxz  x2-y2    tot
    1  0.001  0.051  0.034  0.000  0.000  0.000  0.000  0.000  0.000  0.086
    2  0.413  0.000  0.000  0.000  0.000  0.000  0.000  0.000  0.000  0.414
tot    0.414  0.051  0.034  0.000  0.000  0.000  0.000  0.000  0.000  0.499

band     3 # energy    1.16988791 # occ.  2.00000000

ion      s     py     pz     px    dxy    dyz    dz2    dxz  x2-y2    tot
    1  0.000  0.078  0.104  0.001  0.000  0.000  0.000  0.000  0.000  0.183
    2  0.000  0.000  0.000  0.143  0.000  0.000  0.000  0.000  0.000  0.144
tot    0.000  0.079  0.105  0.144  0.000  0.000  0.000  0.000  0.000  0.328

band     4 # energy    1.16989315 # occ.  2.00000000

ion      s     py     pz     px    dxy    dyz    dz2    dxz  x2-y2    tot
    1  0.000  0.000  0.000  0.143  0.000  0.000  0.000  0.000  0.000  0.144
    2  0.000  0.078  0.104  0.001  0.000  0.000  0.000  0.000  0.000  0.183
tot    0.000  0.079  0.105  0.144  0.000  0.000  0.000  0.000  0.000  0.328

band     5 # energy    9.98799639 # occ.  0.00000000

ion      s     py     pz     px    dxy    dyz    dz2    dxz  x2-y2    tot
    1  0.031  0.001  0.001  0.113  0.000  0.000  0.000  0.000  0.000  0.146
    2  0.002  0.019  0.023  0.007  0.000  0.000  0.000  0.000  0.000  0.050
tot    0.033  0.020  0.024  0.120  0.000  0.000  0.000  0.000  0.000  0.197

band     6 # energy    9.98800144 # occ.  0.00000000

ion      s     py     pz     px    dxy    dyz    dz2    dxz  x2-y2    tot
    1  0.002  0.019  0.023  0.007  0.000  0.000  0.000  0.000  0.000  0.050
    2  0.031  0.001  0.001  0.113  0.000  0.000  0.000  0.000  0.000  0.146
tot    0.033  0.020  0.024  0.120  0.000  0.000  0.000  0.000  0.000  0.197

band     7 # energy   11.51725792 # occ.  0.00000000

ion      s     py     pz     px    dxy    dyz    dz2    dxz  x2-y2    tot
    1  0.001  0.083  0.074  0.001  0.000  0.000  0.000  0.000  0.000  0.159
    2  0.094  0.001  0.001  0.042  0.000  0.000  0.000  0.000  0.000  0.138
tot    0.095  0.084  0.075  0.043  0.000  0.000  0.000  0.000  0.000  0.298

band     8 # energy   11.51726934 # occ.  0.00000000

ion      s     py     pz     px    dxy    dyz    dz2    dxz  x2-y2    tot
    1  0.094  0.001  0.001  0.042  0.000  0.000  0.000  0.000  0.000  0.138
    2  0.001  0.083  0.074  0.001  0.000  0.000  0.000  0.000  0.000  0.159
tot    0.095  0.084  0.075  0.043  0.000  0.000  0.000  0.000  0.000  0.298

band     9 # energy   17.03680925 # occ.  0.00000000

ion      s     py     pz     px    dxy    dyz    dz2    dxz  x2-y2    tot
    1  0.000  0.046  0.061  0.035  0.000  0.000  0.000  0.000  0.000  0.142
    2  0.000  0.038  0.049  0.043  0.000  0.000  0.000  0.000  0.000  0.130
tot    0.000  0.084  0.110  0.078  0.000  0.000  0.000  0.000  0.000  0.272


 k-point    62 :    0.50000000 0.25000000 0.75000000     weight = 0.00000000

band     1 # energy   -3.17859561 # occ.  2.00000000

ion      s     py     pz     px    dxy    dyz    dz2    dxz  x2-y2    tot
    1  0.414  0.000  0.000  0.000  0.000  0.000  0.000  0.000  0.000  0.414
    2  0.001  0.042  0.042  0.000  0.000  0.000  0.000  0.000  0.000  0.086
tot    0.415  0.043  0.043  0.000  0.000  0.000  0.000  0.000  0.000  0.500

band     2 # energy   -3.17856296 # occ.  2.00000000

ion      s     py     pz     px    dxy    dyz    dz2    dxz  x2-y2    tot
    1  0.001  0.042  0.042  0.000  0.000  0.000  0.000  0.000  0.000  0.086
    2  0.414  0.000  0.000  0.000  0.000  0.000  0.000  0.000  0.000  0.414
tot    0.415  0.043  0.043  0.000  0.000  0.000  0.000  0.000  0.000  0.500

band     3 # energy    1.14905295 # occ.  2.00000000

ion      s     py     pz     px    dxy    dyz    dz2    dxz  x2-y2    tot
    1  0.000  0.091  0.091  0.001  0.000  0.000  0.000  0.000  0.000  0.183
    2  0.000  0.001  0.001  0.142  0.000  0.000  0.000  0.000  0.000  0.143
tot    0.000  0.092  0.092  0.143  0.000  0.000  0.000  0.000  0.000  0.327

band     4 # energy    1.14905851 # occ.  2.00000000

ion      s     py     pz     px    dxy    dyz    dz2    dxz  x2-y2    tot
    1  0.000  0.001  0.001  0.142  0.000  0.000  0.000  0.000  0.000  0.143
    2  0.000  0.091  0.091  0.001  0.000  0.000  0.000  0.000  0.000  0.183
tot    0.000  0.092  0.092  0.143  0.000  0.000  0.000  0.000  0.000  0.327

band     5 # energy   10.31560790 # occ.  0.00000000

ion      s     py     pz     px    dxy    dyz    dz2    dxz  x2-y2    tot
    1  0.000  0.000  0.000  0.159  0.000  0.000  0.000  0.000  0.000  0.159
    2  0.000  0.000  0.000  0.004  0.000  0.000  0.000  0.000  0.000  0.004
tot    0.000  0.000  0.000  0.163  0.000  0.000  0.000  0.000  0.000  0.163

band     6 # energy   10.31561756 # occ.  0.00000000

ion      s     py     pz     px    dxy    dyz    dz2    dxz  x2-y2    tot
    1  0.000  0.000  0.000  0.004  0.000  0.000  0.000  0.000  0.000  0.004
    2  0.000  0.000  0.000  0.159  0.000  0.000  0.000  0.000  0.000  0.159
tot    0.000  0.000  0.000  0.163  0.000  0.000  0.000  0.000  0.000  0.163

band     7 # energy   11.16725290 # occ.  0.00000000

ion      s     py     pz     px    dxy    dyz    dz2    dxz  x2-y2    tot
    1  0.000  0.101  0.101  0.000  0.000  0.000  0.000  0.000  0.000  0.203
    2  0.127  0.000  0.000  0.000  0.000  0.000  0.000  0.000  0.000  0.128
tot    0.128  0.102  0.102  0.000  0.000  0.000  0.000  0.000  0.000  0.331

band     8 # energy   11.16726879 # occ.  0.00000000

ion      s     py     pz     px    dxy    dyz    dz2    dxz  x2-y2    tot
    1  0.127  0.000  0.000  0.000  0.000  0.000  0.000  0.000  0.000  0.128
    2  0.000  0.101  0.101  0.000  0.000  0.000  0.000  0.000  0.000  0.203
tot    0.128  0.102  0.102  0.000  0.000  0.000  0.000  0.000  0.000  0.331

band     9 # energy   17.03770038 # occ.  0.00000000

ion      s     py     pz     px    dxy    dyz    dz2    dxz  x2-y2    tot
    1  0.000  0.053  0.054  0.035  0.000  0.000  0.000  0.000  0.000  0.142
    2  0.000  0.043  0.044  0.043  0.000  0.000  0.000  0.000  0.000  0.130
tot    0.000  0.097  0.097  0.079  0.000  0.000  0.000  0.000  0.000  0.273


 k-point    63 :    0.50000000 0.25000000 0.75000000     weight = 0.00000000

band     1 # energy   -3.17859561 # occ.  2.00000000

ion      s     py     pz     px    dxy    dyz    dz2    dxz  x2-y2    tot
    1  0.414  0.000  0.000  0.000  0.000  0.000  0.000  0.000  0.000  0.414
    2  0.001  0.042  0.042  0.000  0.000  0.000  0.000  0.000  0.000  0.086
tot    0.415  0.043  0.043  0.000  0.000  0.000  0.000  0.000  0.000  0.500

band     2 # energy   -3.17856296 # occ.  2.00000000

ion      s     py     pz     px    dxy    dyz    dz2    dxz  x2-y2    tot
    1  0.001  0.042  0.042  0.000  0.000  0.000  0.000  0.000  0.000  0.086
    2  0.414  0.000  0.000  0.000  0.000  0.000  0.000  0.000  0.000  0.414
tot    0.415  0.043  0.043  0.000  0.000  0.000  0.000  0.000  0.000  0.500

band     3 # energy    1.14905295 # occ.  2.00000000

ion      s     py     pz     px    dxy    dyz    dz2    dxz  x2-y2    tot
    1  0.000  0.091  0.091  0.001  0.000  0.000  0.000  0.000  0.000  0.183
    2  0.000  0.001  0.001  0.142  0.000  0.000  0.000  0.000  0.000  0.143
tot    0.000  0.092  0.092  0.143  0.000  0.000  0.000  0.000  0.000  0.327

band     4 # energy    1.14905851 # occ.  2.00000000

ion      s     py     pz     px    dxy    dyz    dz2    dxz  x2-y2    tot
    1  0.000  0.001  0.001  0.142  0.000  0.000  0.000  0.000  0.000  0.143
    2  0.000  0.091  0.091  0.001  0.000  0.000  0.000  0.000  0.000  0.183
tot    0.000  0.092  0.092  0.143  0.000  0.000  0.000  0.000  0.000  0.327

band     5 # energy   10.31560790 # occ.  0.00000000

ion      s     py     pz     px    dxy    dyz    dz2    dxz  x2-y2    tot
    1  0.000  0.000  0.000  0.159  0.000  0.000  0.000  0.000  0.000  0.159
    2  0.000  0.000  0.000  0.004  0.000  0.000  0.000  0.000  0.000  0.004
tot    0.000  0.000  0.000  0.163  0.000  0.000  0.000  0.000  0.000  0.163

band     6 # energy   10.31561756 # occ.  0.00000000

ion      s     py     pz     px    dxy    dyz    dz2    dxz  x2-y2    tot
    1  0.000  0.000  0.000  0.004  0.000  0.000  0.000  0.000  0.000  0.004
    2  0.000  0.000  0.000  0.159  0.000  0.000  0.000  0.000  0.000  0.159
tot    0.000  0.000  0.000  0.163  0.000  0.000  0.000  0.000  0.000  0.163

band     7 # energy   11.16725290 # occ.  0.00000000

ion      s     py     pz     px    dxy    dyz    dz2    dxz  x2-y2    tot
    1  0.000  0.101  0.101  0.000  0.000  0.000  0.000  0.000  0.000  0.203
    2  0.127  0.000  0.000  0.000  0.000  0.000  0.000  0.000  0.000  0.128
tot    0.128  0.102  0.102  0.000  0.000  0.000  0.000  0.000  0.000  0.331

band     8 # energy   11.16726879 # occ.  0.00000000

ion      s     py     pz     px    dxy    dyz    dz2    dxz  x2-y2    tot
    1  0.127  0.000  0.000  0.000  0.000  0.000  0.000  0.000  0.000  0.128
    2  0.000  0.101  0.101  0.000  0.000  0.000  0.000  0.000  0.000  0.203
tot    0.128  0.102  0.102  0.000  0.000  0.000  0.000  0.000  0.000  0.331

band     9 # energy   17.03770038 # occ.  0.00000000

ion      s     py     pz     px    dxy    dyz    dz2    dxz  x2-y2    tot
    1  0.000  0.053  0.054  0.035  0.000  0.000  0.000  0.000  0.000  0.142
    2  0.000  0.043  0.044  0.043  0.000  0.000  0.000  0.000  0.000  0.130
tot    0.000  0.097  0.097  0.079  0.000  0.000  0.000  0.000  0.000  0.273


 k-point    64 :    0.50000000 0.26666667 0.73333333     weight = 0.00000000

band     1 # energy   -3.41968835 # occ.  2.00000000

ion      s     py     pz     px    dxy    dyz    dz2    dxz  x2-y2    tot
    1  0.210  0.019  0.019  0.000  0.000  0.000  0.000  0.000  0.000  0.249
    2  0.210  0.019  0.019  0.000  0.000  0.000  0.000  0.000  0.000  0.249
tot    0.421  0.039  0.039  0.000  0.000  0.000  0.000  0.000  0.000  0.499

band     2 # energy   -2.94293050 # occ.  2.00000000

ion      s     py     pz     px    dxy    dyz    dz2    dxz  x2-y2    tot
    1  0.204  0.023  0.023  0.000  0.000  0.000  0.000  0.000  0.000  0.250
    2  0.204  0.023  0.023  0.000  0.000  0.000  0.000  0.000  0.000  0.250
tot    0.407  0.046  0.046  0.000  0.000  0.000  0.000  0.000  0.000  0.500

band     3 # energy    0.99214109 # occ.  2.00000000

ion      s     py     pz     px    dxy    dyz    dz2    dxz  x2-y2    tot
    1  0.000  0.047  0.047  0.068  0.000  0.000  0.000  0.000  0.000  0.161
    2  0.000  0.047  0.047  0.068  0.000  0.000  0.000  0.000  0.000  0.161
tot    0.001  0.093  0.093  0.136  0.000  0.000  0.000  0.000  0.000  0.323

band     4 # energy    1.34324354 # occ.  2.00000000

ion      s     py     pz     px    dxy    dyz    dz2    dxz  x2-y2    tot
    1  0.000  0.045  0.045  0.075  0.000  0.000  0.000  0.000  0.000  0.166
    2  0.000  0.045  0.045  0.075  0.000  0.000  0.000  0.000  0.000  0.166
tot    0.000  0.091  0.091  0.150  0.000  0.000  0.000  0.000  0.000  0.332

band     5 # energy   10.11106395 # occ.  0.00000000

ion      s     py     pz     px    dxy    dyz    dz2    dxz  x2-y2    tot
    1  0.002  0.002  0.002  0.077  0.000  0.000  0.000  0.000  0.000  0.084
    2  0.002  0.002  0.002  0.077  0.000  0.000  0.000  0.000  0.000  0.084
tot    0.005  0.004  0.004  0.155  0.000  0.000  0.000  0.000  0.000  0.168

band     6 # energy   10.40136968 # occ.  0.00000000

ion      s     py     pz     px    dxy    dyz    dz2    dxz  x2-y2    tot
    1  0.011  0.008  0.008  0.070  0.000  0.000  0.000  0.000  0.000  0.096
    2  0.011  0.008  0.008  0.070  0.000  0.000  0.000  0.000  0.000  0.096
tot    0.021  0.015  0.015  0.140  0.000  0.000  0.000  0.000  0.000  0.191

band     7 # energy   11.08075050 # occ.  0.00000000

ion      s     py     pz     px    dxy    dyz    dz2    dxz  x2-y2    tot
    1  0.057  0.041  0.041  0.012  0.000  0.000  0.000  0.000  0.000  0.152
    2  0.057  0.041  0.041  0.012  0.000  0.000  0.000  0.000  0.000  0.152
tot    0.114  0.083  0.083  0.025  0.000  0.000  0.000  0.000  0.000  0.304

band     8 # energy   11.41468778 # occ.  0.00000000

ion      s     py     pz     px    dxy    dyz    dz2    dxz  x2-y2    tot
    1  0.058  0.051  0.051  0.003  0.000  0.000  0.000  0.000  0.000  0.163
    2  0.058  0.051  0.051  0.003  0.000  0.000  0.000  0.000  0.000  0.163
tot    0.116  0.102  0.102  0.006  0.000  0.000  0.000  0.000  0.000  0.326

band     9 # energy   16.55137123 # occ.  0.00000000

ion      s     py     pz     px    dxy    dyz    dz2    dxz  x2-y2    tot
    1  0.001  0.049  0.051  0.039  0.000  0.000  0.000  0.000  0.000  0.141
    2  0.001  0.048  0.050  0.040  0.000  0.000  0.000  0.000  0.000  0.140
tot    0.003  0.098  0.101  0.079  0.000  0.000  0.000  0.000  0.000  0.281


 k-point    65 :    0.50000000 0.28333333 0.71666667     weight = 0.00000000

band     1 # energy   -3.65893854 # occ.  2.00000000

ion      s     py     pz     px    dxy    dyz    dz2    dxz  x2-y2    tot
    1  0.213  0.018  0.018  0.001  0.000  0.000  0.000  0.000  0.000  0.249
    2  0.213  0.018  0.018  0.001  0.000  0.000  0.000  0.000  0.000  0.249
tot    0.426  0.035  0.035  0.001  0.000  0.000  0.000  0.000  0.000  0.498

band     2 # energy   -2.72249695 # occ.  2.00000000

ion      s     py     pz     px    dxy    dyz    dz2    dxz  x2-y2    tot
    1  0.198  0.025  0.025  0.001  0.000  0.000  0.000  0.000  0.000  0.249
    2  0.198  0.025  0.025  0.001  0.000  0.000  0.000  0.000  0.000  0.249
tot    0.397  0.049  0.049  0.002  0.000  0.000  0.000  0.000  0.000  0.498

band     3 # energy    0.88361387 # occ.  2.00000000

ion      s     py     pz     px    dxy    dyz    dz2    dxz  x2-y2    tot
    1  0.002  0.048  0.048  0.064  0.000  0.000  0.000  0.000  0.000  0.161
    2  0.002  0.048  0.048  0.064  0.000  0.000  0.000  0.000  0.000  0.161
tot    0.003  0.095  0.095  0.128  0.000  0.000  0.000  0.000  0.000  0.322

band     4 # energy    1.56531962 # occ.  2.00000000

ion      s     py     pz     px    dxy    dyz    dz2    dxz  x2-y2    tot
    1  0.001  0.045  0.045  0.079  0.000  0.000  0.000  0.000  0.000  0.169
    2  0.001  0.045  0.045  0.079  0.000  0.000  0.000  0.000  0.000  0.169
tot    0.001  0.090  0.090  0.158  0.000  0.000  0.000  0.000  0.000  0.339

band     5 # energy    9.89198811 # occ.  0.00000000

ion      s     py     pz     px    dxy    dyz    dz2    dxz  x2-y2    tot
    1  0.005  0.005  0.005  0.072  0.000  0.000  0.000  0.000  0.000  0.086
    2  0.005  0.005  0.005  0.072  0.000  0.000  0.000  0.000  0.000  0.086
tot    0.010  0.009  0.009  0.144  0.000  0.000  0.000  0.000  0.000  0.172

band     6 # energy   10.27527054 # occ.  0.00000000

ion      s     py     pz     px    dxy    dyz    dz2    dxz  x2-y2    tot
    1  0.034  0.022  0.022  0.044  0.000  0.000  0.000  0.000  0.000  0.122
    2  0.034  0.022  0.022  0.044  0.000  0.000  0.000  0.000  0.000  0.122
tot    0.068  0.044  0.044  0.089  0.000  0.000  0.000  0.000  0.000  0.245

band     7 # energy   11.24716939 # occ.  0.00000000

ion      s     py     pz     px    dxy    dyz    dz2    dxz  x2-y2    tot
    1  0.037  0.025  0.025  0.038  0.000  0.000  0.000  0.000  0.000  0.126
    2  0.037  0.025  0.025  0.038  0.000  0.000  0.000  0.000  0.000  0.126
tot    0.075  0.050  0.050  0.076  0.000  0.000  0.000  0.000  0.000  0.251

band     8 # energy   11.71912790 # occ.  0.00000000

ion      s     py     pz     px    dxy    dyz    dz2    dxz  x2-y2    tot
    1  0.051  0.051  0.051  0.006  0.000  0.000  0.000  0.000  0.000  0.160
    2  0.051  0.051  0.051  0.006  0.000  0.000  0.000  0.000  0.000  0.160
tot    0.103  0.102  0.102  0.013  0.000  0.000  0.000  0.000  0.000  0.320

band     9 # energy   15.94564806 # occ.  0.00000000

ion      s     py     pz     px    dxy    dyz    dz2    dxz  x2-y2    tot
    1  0.005  0.049  0.050  0.039  0.000  0.000  0.000  0.000  0.000  0.144
    2  0.005  0.049  0.050  0.039  0.000  0.000  0.000  0.000  0.000  0.143
tot    0.011  0.099  0.100  0.078  0.000  0.000  0.000  0.000  0.000  0.287


 k-point    66 :    0.50000000 0.30000000 0.70000000     weight = 0.00000000

band     1 # energy   -3.89094881 # occ.  2.00000000

ion      s     py     pz     px    dxy    dyz    dz2    dxz  x2-y2    tot
    1  0.215  0.016  0.016  0.001  0.000  0.000  0.000  0.000  0.000  0.248
    2  0.215  0.016  0.016  0.001  0.000  0.000  0.000  0.000  0.000  0.248
tot    0.430  0.032  0.032  0.002  0.000  0.000  0.000  0.000  0.000  0.496

band     2 # energy   -2.52887472 # occ.  2.00000000

ion      s     py     pz     px    dxy    dyz    dz2    dxz  x2-y2    tot
    1  0.191  0.026  0.026  0.003  0.000  0.000  0.000  0.000  0.000  0.246
    2  0.191  0.026  0.026  0.003  0.000  0.000  0.000  0.000  0.000  0.246
tot    0.382  0.052  0.052  0.006  0.000  0.000  0.000  0.000  0.000  0.492

band     3 # energy    0.83608294 # occ.  2.00000000

ion      s     py     pz     px    dxy    dyz    dz2    dxz  x2-y2    tot
    1  0.005  0.049  0.049  0.059  0.000  0.000  0.000  0.000  0.000  0.162
    2  0.005  0.049  0.049  0.059  0.000  0.000  0.000  0.000  0.000  0.162
tot    0.010  0.098  0.098  0.119  0.000  0.000  0.000  0.000  0.000  0.324

band     4 # energy    1.80737363 # occ.  2.00000000

ion      s     py     pz     px    dxy    dyz    dz2    dxz  x2-y2    tot
    1  0.001  0.045  0.045  0.083  0.000  0.000  0.000  0.000  0.000  0.173
    2  0.001  0.045  0.045  0.083  0.000  0.000  0.000  0.000  0.000  0.173
tot    0.002  0.089  0.089  0.166  0.000  0.000  0.000  0.000  0.000  0.346

band     5 # energy    9.68808984 # occ.  0.00000000

ion      s     py     pz     px    dxy    dyz    dz2    dxz  x2-y2    tot
    1  0.007  0.007  0.007  0.067  0.000  0.000  0.000  0.000  0.000  0.088
    2  0.007  0.007  0.007  0.067  0.000  0.000  0.000  0.000  0.000  0.088
tot    0.013  0.014  0.014  0.134  0.000  0.000  0.000  0.000  0.000  0.175

band     6 # energy   10.05908021 # occ.  0.00000000

ion      s     py     pz     px    dxy    dyz    dz2    dxz  x2-y2    tot
    1  0.048  0.028  0.028  0.032  0.000  0.000  0.000  0.000  0.000  0.136
    2  0.048  0.028  0.028  0.032  0.000  0.000  0.000  0.000  0.000  0.136
tot    0.096  0.056  0.056  0.063  0.000  0.000  0.000  0.000  0.000  0.272

band     7 # energy   11.54382831 # occ.  0.00000000

ion      s     py     pz     px    dxy    dyz    dz2    dxz  x2-y2    tot
    1  0.027  0.017  0.017  0.050  0.000  0.000  0.000  0.000  0.000  0.112
    2  0.027  0.017  0.017  0.050  0.000  0.000  0.000  0.000  0.000  0.112
tot    0.054  0.035  0.035  0.101  0.000  0.000  0.000  0.000  0.000  0.224

band     8 # energy   12.05137773 # occ.  0.00000000

ion      s     py     pz     px    dxy    dyz    dz2    dxz  x2-y2    tot
    1  0.046  0.052  0.052  0.009  0.000  0.000  0.000  0.000  0.000  0.157
    2  0.046  0.052  0.052  0.009  0.000  0.000  0.000  0.000  0.000  0.157
tot    0.091  0.103  0.103  0.017  0.000  0.000  0.000  0.000  0.000  0.315

band     9 # energy   15.27197341 # occ.  0.00000000

ion      s     py     pz     px    dxy    dyz    dz2    dxz  x2-y2    tot
    1  0.010  0.048  0.049  0.038  0.000  0.000  0.000  0.000  0.000  0.145
    2  0.010  0.048  0.049  0.038  0.000  0.000  0.000  0.000  0.000  0.145
tot    0.020  0.097  0.097  0.077  0.000  0.000  0.000  0.000  0.000  0.291


 k-point    67 :    0.50000000 0.31666667 0.68333333     weight = 0.00000000

band     1 # energy   -4.11186215 # occ.  2.00000000

ion      s     py     pz     px    dxy    dyz    dz2    dxz  x2-y2    tot
    1  0.217  0.014  0.014  0.002  0.000  0.000  0.000  0.000  0.000  0.247
    2  0.217  0.014  0.014  0.002  0.000  0.000  0.000  0.000  0.000  0.247
tot    0.434  0.029  0.029  0.003  0.000  0.000  0.000  0.000  0.000  0.494

band     2 # energy   -2.37368018 # occ.  2.00000000

ion      s     py     pz     px    dxy    dyz    dz2    dxz  x2-y2    tot
    1  0.181  0.027  0.027  0.006  0.000  0.000  0.000  0.000  0.000  0.242
    2  0.181  0.027  0.027  0.006  0.000  0.000  0.000  0.000  0.000  0.242
tot    0.363  0.054  0.054  0.012  0.000  0.000  0.000  0.000  0.000  0.484

band     3 # energy    0.86163089 # occ.  2.00000000

ion      s     py     pz     px    dxy    dyz    dz2    dxz  x2-y2    tot
    1  0.010  0.051  0.051  0.054  0.000  0.000  0.000  0.000  0.000  0.165
    2  0.010  0.051  0.051  0.054  0.000  0.000  0.000  0.000  0.000  0.165
tot    0.021  0.101  0.101  0.107  0.000  0.000  0.000  0.000  0.000  0.331

band     4 # energy    2.06236717 # occ.  2.00000000

ion      s     py     pz     px    dxy    dyz    dz2    dxz  x2-y2    tot
    1  0.001  0.044  0.044  0.088  0.000  0.000  0.000  0.000  0.000  0.177
    2  0.001  0.044  0.044  0.088  0.000  0.000  0.000  0.000  0.000  0.177
tot    0.002  0.089  0.089  0.175  0.000  0.000  0.000  0.000  0.000  0.355

band     5 # energy    9.50931957 # occ.  0.00000000

ion      s     py     pz     px    dxy    dyz    dz2    dxz  x2-y2    tot
    1  0.008  0.009  0.009  0.062  0.000  0.000  0.000  0.000  0.000  0.088
    2  0.008  0.009  0.009  0.062  0.000  0.000  0.000  0.000  0.000  0.088
tot    0.015  0.018  0.018  0.124  0.000  0.000  0.000  0.000  0.000  0.176

band     6 # energy    9.82821841 # occ.  0.00000000

ion      s     py     pz     px    dxy    dyz    dz2    dxz  x2-y2    tot
    1  0.057  0.031  0.031  0.025  0.000  0.000  0.000  0.000  0.000  0.143
    2  0.057  0.031  0.031  0.025  0.000  0.000  0.000  0.000  0.000  0.143
tot    0.114  0.061  0.061  0.050  0.000  0.000  0.000  0.000  0.000  0.286

band     7 # energy   11.89418895 # occ.  0.00000000

ion      s     py     pz     px    dxy    dyz    dz2    dxz  x2-y2    tot
    1  0.022  0.014  0.014  0.055  0.000  0.000  0.000  0.000  0.000  0.105
    2  0.022  0.014  0.014  0.055  0.000  0.000  0.000  0.000  0.000  0.105
tot    0.045  0.027  0.027  0.111  0.000  0.000  0.000  0.000  0.000  0.210

band     8 # energy   12.40168873 # occ.  0.00000000

ion      s     py     pz     px    dxy    dyz    dz2    dxz  x2-y2    tot
    1  0.040  0.053  0.053  0.010  0.000  0.000  0.000  0.000  0.000  0.156
    2  0.040  0.053  0.053  0.010  0.000  0.000  0.000  0.000  0.000  0.156
tot    0.081  0.105  0.105  0.021  0.000  0.000  0.000  0.000  0.000  0.312

band     9 # energy   14.56538093 # occ.  0.00000000

ion      s     py     pz     px    dxy    dyz    dz2    dxz  x2-y2    tot
    1  0.015  0.047  0.047  0.039  0.000  0.000  0.000  0.000  0.000  0.147
    2  0.015  0.047  0.047  0.039  0.000  0.000  0.000  0.000  0.000  0.147
tot    0.029  0.094  0.094  0.077  0.000  0.000  0.000  0.000  0.000  0.294


 k-point    68 :    0.50000000 0.33333333 0.66666667     weight = 0.00000000

band     1 # energy   -4.31886833 # occ.  2.00000000

ion      s     py     pz     px    dxy    dyz    dz2    dxz  x2-y2    tot
    1  0.219  0.013  0.013  0.002  0.000  0.000  0.000  0.000  0.000  0.246
    2  0.219  0.013  0.013  0.002  0.000  0.000  0.000  0.000  0.000  0.246
tot    0.438  0.025  0.025  0.004  0.000  0.000  0.000  0.000  0.000  0.493

band     2 # energy   -2.26476421 # occ.  2.00000000

ion      s     py     pz     px    dxy    dyz    dz2    dxz  x2-y2    tot
    1  0.169  0.028  0.028  0.010  0.000  0.000  0.000  0.000  0.000  0.236
    2  0.169  0.028  0.028  0.010  0.000  0.000  0.000  0.000  0.000  0.236
tot    0.338  0.056  0.056  0.020  0.000  0.000  0.000  0.000  0.000  0.471

band     3 # energy    0.96811710 # occ.  2.00000000

ion      s     py     pz     px    dxy    dyz    dz2    dxz  x2-y2    tot
    1  0.018  0.053  0.053  0.047  0.000  0.000  0.000  0.000  0.000  0.171
    2  0.018  0.053  0.053  0.047  0.000  0.000  0.000  0.000  0.000  0.171
tot    0.035  0.106  0.106  0.094  0.000  0.000  0.000  0.000  0.000  0.341

band     4 # energy    2.32368937 # occ.  2.00000000

ion      s     py     pz     px    dxy    dyz    dz2    dxz  x2-y2    tot
    1  0.001  0.044  0.044  0.093  0.000  0.000  0.000  0.000  0.000  0.182
    2  0.001  0.044  0.044  0.093  0.000  0.000  0.000  0.000  0.000  0.182
tot    0.002  0.088  0.088  0.185  0.000  0.000  0.000  0.000  0.000  0.364

band     5 # energy    9.36048819 # occ.  0.00000000

ion      s     py     pz     px    dxy    dyz    dz2    dxz  x2-y2    tot
    1  0.008  0.011  0.011  0.057  0.000  0.000  0.000  0.000  0.000  0.088
    2  0.008  0.011  0.011  0.057  0.000  0.000  0.000  0.000  0.000  0.088
tot    0.016  0.023  0.023  0.113  0.000  0.000  0.000  0.000  0.000  0.175

band     6 # energy    9.60143622 # occ.  0.00000000

ion      s     py     pz     px    dxy    dyz    dz2    dxz  x2-y2    tot
    1  0.064  0.032  0.032  0.021  0.000  0.000  0.000  0.000  0.000  0.148
    2  0.064  0.032  0.032  0.021  0.000  0.000  0.000  0.000  0.000  0.148
tot    0.128  0.063  0.063  0.042  0.000  0.000  0.000  0.000  0.000  0.296

band     7 # energy   12.27766700 # occ.  0.00000000

ion      s     py     pz     px    dxy    dyz    dz2    dxz  x2-y2    tot
    1  0.019  0.012  0.012  0.057  0.000  0.000  0.000  0.000  0.000  0.099
    2  0.019  0.012  0.012  0.057  0.000  0.000  0.000  0.000  0.000  0.099
tot    0.039  0.023  0.023  0.114  0.000  0.000  0.000  0.000  0.000  0.199

band     8 # energy   12.76449560 # occ.  0.00000000

ion      s     py     pz     px    dxy    dyz    dz2    dxz  x2-y2    tot
    1  0.035  0.054  0.054  0.012  0.000  0.000  0.000  0.000  0.000  0.155
    2  0.035  0.054  0.054  0.012  0.000  0.000  0.000  0.000  0.000  0.155
tot    0.070  0.108  0.108  0.023  0.000  0.000  0.000  0.000  0.000  0.309

band     9 # energy   13.84908576 # occ.  0.00000000

ion      s     py     pz     px    dxy    dyz    dz2    dxz  x2-y2    tot
    1  0.019  0.044  0.045  0.040  0.000  0.000  0.000  0.000  0.000  0.148
    2  0.019  0.044  0.045  0.040  0.000  0.000  0.000  0.000  0.000  0.148
tot    0.038  0.089  0.090  0.080  0.000  0.000  0.000  0.000  0.000  0.297


 k-point    69 :    0.50000000 0.35000000 0.65000000     weight = 0.00000000

band     1 # energy   -4.50994561 # occ.  2.00000000

ion      s     py     pz     px    dxy    dyz    dz2    dxz  x2-y2    tot
    1  0.221  0.011  0.011  0.003  0.000  0.000  0.000  0.000  0.000  0.246
    2  0.221  0.011  0.011  0.003  0.000  0.000  0.000  0.000  0.000  0.246
tot    0.441  0.023  0.023  0.005  0.000  0.000  0.000  0.000  0.000  0.491

band     2 # energy   -2.20281305 # occ.  2.00000000

ion      s     py     pz     px    dxy    dyz    dz2    dxz  x2-y2    tot
    1  0.156  0.029  0.029  0.014  0.000  0.000  0.000  0.000  0.000  0.228
    2  0.156  0.029  0.029  0.014  0.000  0.000  0.000  0.000  0.000  0.228
tot    0.311  0.058  0.058  0.029  0.000  0.000  0.000  0.000  0.000  0.457

band     3 # energy    1.15557773 # occ.  2.00000000

ion      s     py     pz     px    dxy    dyz    dz2    dxz  x2-y2    tot
    1  0.026  0.056  0.056  0.040  0.000  0.000  0.000  0.000  0.000  0.177
    2  0.026  0.056  0.056  0.040  0.000  0.000  0.000  0.000  0.000  0.177
tot    0.051  0.111  0.111  0.081  0.000  0.000  0.000  0.000  0.000  0.355

band     4 # energy    2.58481260 # occ.  2.00000000

ion      s     py     pz     px    dxy    dyz    dz2    dxz  x2-y2    tot
    1  0.001  0.044  0.044  0.099  0.000  0.000  0.000  0.000  0.000  0.187
    2  0.001  0.044  0.044  0.099  0.000  0.000  0.000  0.000  0.000  0.187
tot    0.002  0.087  0.087  0.197  0.000  0.000  0.000  0.000  0.000  0.373

band     5 # energy    9.24495226 # occ.  0.00000000

ion      s     py     pz     px    dxy    dyz    dz2    dxz  x2-y2    tot
    1  0.008  0.014  0.014  0.051  0.000  0.000  0.000  0.000  0.000  0.087
    2  0.008  0.014  0.014  0.051  0.000  0.000  0.000  0.000  0.000  0.087
tot    0.017  0.028  0.028  0.102  0.000  0.000  0.000  0.000  0.000  0.174

band     6 # energy    9.38312716 # occ.  0.00000000

ion      s     py     pz     px    dxy    dyz    dz2    dxz  x2-y2    tot
    1  0.071  0.032  0.032  0.018  0.000  0.000  0.000  0.000  0.000  0.153
    2  0.071  0.032  0.032  0.018  0.000  0.000  0.000  0.000  0.000  0.153
tot    0.143  0.064  0.064  0.035  0.000  0.000  0.000  0.000  0.000  0.305

band     7 # energy   12.68586637 # occ.  0.00000000

ion      s     py     pz     px    dxy    dyz    dz2    dxz  x2-y2    tot
    1  0.015  0.010  0.010  0.052  0.000  0.000  0.000  0.000  0.000  0.088
    2  0.015  0.010  0.010  0.052  0.000  0.000  0.000  0.000  0.000  0.088
tot    0.031  0.021  0.021  0.104  0.000  0.000  0.000  0.000  0.000  0.176

band     8 # energy   13.13401273 # occ.  0.00000000

ion      s     py     pz     px    dxy    dyz    dz2    dxz  x2-y2    tot
    1  0.030  0.056  0.056  0.013  0.000  0.000  0.000  0.000  0.000  0.154
    2  0.030  0.056  0.055  0.013  0.000  0.000  0.000  0.000  0.000  0.154
tot    0.059  0.112  0.111  0.026  0.000  0.000  0.000  0.000  0.000  0.307

band     9 # energy   13.14018889 # occ.  0.00000000

ion      s     py     pz     px    dxy    dyz    dz2    dxz  x2-y2    tot
    1  0.024  0.041  0.042  0.048  0.000  0.000  0.000  0.000  0.000  0.155
    2  0.024  0.042  0.042  0.048  0.000  0.000  0.000  0.000  0.000  0.155
tot    0.048  0.083  0.084  0.095  0.000  0.000  0.000  0.000  0.000  0.310


 k-point    70 :    0.50000000 0.36666667 0.63333333     weight = 0.00000000

band     1 # energy   -4.68359411 # occ.  2.00000000

ion      s     py     pz     px    dxy    dyz    dz2    dxz  x2-y2    tot
    1  0.222  0.010  0.010  0.003  0.000  0.000  0.000  0.000  0.000  0.245
    2  0.222  0.010  0.010  0.003  0.000  0.000  0.000  0.000  0.000  0.245
tot    0.444  0.020  0.020  0.006  0.000  0.000  0.000  0.000  0.000  0.490

band     2 # energy   -2.18110860 # occ.  2.00000000

ion      s     py     pz     px    dxy    dyz    dz2    dxz  x2-y2    tot
    1  0.143  0.030  0.030  0.019  0.000  0.000  0.000  0.000  0.000  0.221
    2  0.143  0.030  0.030  0.019  0.000  0.000  0.000  0.000  0.000  0.221
tot    0.286  0.059  0.059  0.037  0.000  0.000  0.000  0.000  0.000  0.442

band     3 # energy    1.41589247 # occ.  2.00000000

ion      s     py     pz     px    dxy    dyz    dz2    dxz  x2-y2    tot
    1  0.033  0.059  0.059  0.034  0.000  0.000  0.000  0.000  0.000  0.184
    2  0.033  0.059  0.059  0.034  0.000  0.000  0.000  0.000  0.000  0.184
tot    0.065  0.118  0.118  0.067  0.000  0.000  0.000  0.000  0.000  0.369

band     4 # energy    2.83912630 # occ.  2.00000000

ion      s     py     pz     px    dxy    dyz    dz2    dxz  x2-y2    tot
    1  0.001  0.043  0.043  0.105  0.000  0.000  0.000  0.000  0.000  0.192
    2  0.001  0.043  0.043  0.105  0.000  0.000  0.000  0.000  0.000  0.192
tot    0.002  0.086  0.086  0.210  0.000  0.000  0.000  0.000  0.000  0.383

band     5 # energy    9.16494439 # occ.  0.00000000

ion      s     py     pz     px    dxy    dyz    dz2    dxz  x2-y2    tot
    1  0.008  0.017  0.017  0.044  0.000  0.000  0.000  0.000  0.000  0.086
    2  0.008  0.017  0.017  0.044  0.000  0.000  0.000  0.000  0.000  0.086
tot    0.016  0.034  0.034  0.089  0.000  0.000  0.000  0.000  0.000  0.173

band     6 # energy    9.17282663 # occ.  0.00000000

ion      s     py     pz     px    dxy    dyz    dz2    dxz  x2-y2    tot
    1  0.079  0.032  0.032  0.014  0.000  0.000  0.000  0.000  0.000  0.158
    2  0.079  0.032  0.032  0.015  0.000  0.000  0.000  0.000  0.000  0.158
tot    0.158  0.064  0.064  0.029  0.000  0.000  0.000  0.000  0.000  0.316

band     7 # energy   12.44181385 # occ.  0.00000000

ion      s     py     pz     px    dxy    dyz    dz2    dxz  x2-y2    tot
    1  0.020  0.038  0.038  0.036  0.000  0.000  0.000  0.000  0.000  0.134
    2  0.020  0.038  0.039  0.036  0.000  0.000  0.000  0.000  0.000  0.134
tot    0.041  0.077  0.077  0.073  0.000  0.000  0.000  0.000  0.000  0.267

band     8 # energy   13.13033370 # occ.  0.00000000

ion      s     py     pz     px    dxy    dyz    dz2    dxz  x2-y2    tot
    1  0.019  0.010  0.010  0.067  0.000  0.000  0.000  0.000  0.000  0.106
    2  0.020  0.010  0.009  0.066  0.000  0.000  0.000  0.000  0.000  0.105
tot    0.039  0.020  0.019  0.132  0.000  0.000  0.000  0.000  0.000  0.211

band     9 # energy   13.50301752 # occ.  0.00000000

ion      s     py     pz     px    dxy    dyz    dz2    dxz  x2-y2    tot
    1  0.024  0.057  0.058  0.014  0.000  0.000  0.000  0.000  0.000  0.154
    2  0.024  0.058  0.058  0.014  0.000  0.000  0.000  0.000  0.000  0.155
tot    0.048  0.115  0.117  0.028  0.000  0.000  0.000  0.000  0.000  0.309


 k-point    71 :    0.50000000 0.38333333 0.61666667     weight = 0.00000000

band     1 # energy   -4.83868891 # occ.  2.00000000

ion      s     py     pz     px    dxy    dyz    dz2    dxz  x2-y2    tot
    1  0.224  0.009  0.009  0.003  0.000  0.000  0.000  0.000  0.000  0.245
    2  0.224  0.009  0.009  0.003  0.000  0.000  0.000  0.000  0.000  0.245
tot    0.447  0.017  0.017  0.007  0.000  0.000  0.000  0.000  0.000  0.489

band     2 # energy   -2.18875701 # occ.  2.00000000

ion      s     py     pz     px    dxy    dyz    dz2    dxz  x2-y2    tot
    1  0.132  0.030  0.030  0.022  0.000  0.000  0.000  0.000  0.000  0.214
    2  0.132  0.030  0.030  0.022  0.000  0.000  0.000  0.000  0.000  0.214
tot    0.263  0.060  0.060  0.045  0.000  0.000  0.000  0.000  0.000  0.428

band     3 # energy    1.73570346 # occ.  2.00000000

ion      s     py     pz     px    dxy    dyz    dz2    dxz  x2-y2    tot
    1  0.037  0.063  0.063  0.028  0.000  0.000  0.000  0.000  0.000  0.191
    2  0.037  0.063  0.063  0.028  0.000  0.000  0.000  0.000  0.000  0.191
tot    0.075  0.126  0.126  0.055  0.000  0.000  0.000  0.000  0.000  0.382

band     4 # energy    3.08002329 # occ.  2.00000000

ion      s     py     pz     px    dxy    dyz    dz2    dxz  x2-y2    tot
    1  0.001  0.042  0.042  0.112  0.000  0.000  0.000  0.000  0.000  0.197
    2  0.001  0.042  0.042  0.112  0.000  0.000  0.000  0.000  0.000  0.197
tot    0.001  0.084  0.084  0.223  0.000  0.000  0.000  0.000  0.000  0.393

band     5 # energy    8.96679486 # occ.  0.00000000

ion      s     py     pz     px    dxy    dyz    dz2    dxz  x2-y2    tot
    1  0.089  0.032  0.032  0.011  0.000  0.000  0.000  0.000  0.000  0.164
    2  0.089  0.032  0.032  0.011  0.000  0.000  0.000  0.000  0.000  0.164
tot    0.177  0.064  0.064  0.022  0.000  0.000  0.000  0.000  0.000  0.328

band     6 # energy    9.12206536 # occ.  0.00000000

ion      s     py     pz     px    dxy    dyz    dz2    dxz  x2-y2    tot
    1  0.008  0.020  0.020  0.037  0.000  0.000  0.000  0.000  0.000  0.086
    2  0.008  0.020  0.020  0.037  0.000  0.000  0.000  0.000  0.000  0.086
tot    0.015  0.041  0.041  0.075  0.000  0.000  0.000  0.000  0.000  0.172

band     7 # energy   11.78032540 # occ.  0.00000000

ion      s     py     pz     px    dxy    dyz    dz2    dxz  x2-y2    tot
    1  0.022  0.034  0.035  0.043  0.000  0.000  0.000  0.000  0.000  0.134
    2  0.022  0.035  0.035  0.043  0.000  0.000  0.000  0.000  0.000  0.134
tot    0.044  0.069  0.069  0.086  0.000  0.000  0.000  0.000  0.000  0.268

band     8 # energy   13.58038851 # occ.  0.00000000

ion      s     py     pz     px    dxy    dyz    dz2    dxz  x2-y2    tot
    1  0.017  0.009  0.008  0.063  0.000  0.000  0.000  0.000  0.000  0.097
    2  0.017  0.008  0.008  0.063  0.000  0.000  0.000  0.000  0.000  0.096
tot    0.034  0.017  0.017  0.125  0.000  0.000  0.000  0.000  0.000  0.193

band     9 # energy   13.85355217 # occ.  0.00000000

ion      s     py     pz     px    dxy    dyz    dz2    dxz  x2-y2    tot
    1  0.017  0.060  0.059  0.015  0.000  0.000  0.000  0.000  0.000  0.152
    2  0.018  0.060  0.059  0.015  0.000  0.000  0.000  0.000  0.000  0.152
tot    0.035  0.119  0.119  0.030  0.000  0.000  0.000  0.000  0.000  0.303


 k-point    72 :    0.50000000 0.40000000 0.60000000     weight = 0.00000000

band     1 # energy   -4.97439283 # occ.  2.00000000

ion      s     py     pz     px    dxy    dyz    dz2    dxz  x2-y2    tot
    1  0.225  0.008  0.008  0.004  0.000  0.000  0.000  0.000  0.000  0.244
    2  0.225  0.008  0.008  0.004  0.000  0.000  0.000  0.000  0.000  0.244
tot    0.450  0.015  0.015  0.007  0.000  0.000  0.000  0.000  0.000  0.488

band     2 # energy   -2.21450027 # occ.  2.00000000

ion      s     py     pz     px    dxy    dyz    dz2    dxz  x2-y2    tot
    1  0.122  0.031  0.031  0.025  0.000  0.000  0.000  0.000  0.000  0.209
    2  0.122  0.031  0.031  0.025  0.000  0.000  0.000  0.000  0.000  0.209
tot    0.245  0.061  0.061  0.050  0.000  0.000  0.000  0.000  0.000  0.417

band     3 # energy    2.09967636 # occ.  2.00000000

ion      s     py     pz     px    dxy    dyz    dz2    dxz  x2-y2    tot
    1  0.039  0.068  0.068  0.022  0.000  0.000  0.000  0.000  0.000  0.197
    2  0.039  0.068  0.068  0.022  0.000  0.000  0.000  0.000  0.000  0.197
tot    0.078  0.136  0.136  0.044  0.000  0.000  0.000  0.000  0.000  0.394

band     4 # energy    3.30105343 # occ.  2.00000000

ion      s     py     pz     px    dxy    dyz    dz2    dxz  x2-y2    tot
    1  0.000  0.041  0.041  0.119  0.000  0.000  0.000  0.000  0.000  0.202
    2  0.000  0.041  0.041  0.119  0.000  0.000  0.000  0.000  0.000  0.202
tot    0.001  0.082  0.082  0.237  0.000  0.000  0.000  0.000  0.000  0.403

band     5 # energy    8.75770974 # occ.  0.00000000

ion      s     py     pz     px    dxy    dyz    dz2    dxz  x2-y2    tot
    1  0.101  0.032  0.032  0.007  0.000  0.000  0.000  0.000  0.000  0.172
    2  0.101  0.032  0.032  0.007  0.000  0.000  0.000  0.000  0.000  0.172
tot    0.201  0.064  0.064  0.015  0.000  0.000  0.000  0.000  0.000  0.345

band     6 # energy    9.11598874 # occ.  0.00000000

ion      s     py     pz     px    dxy    dyz    dz2    dxz  x2-y2    tot
    1  0.007  0.024  0.024  0.030  0.000  0.000  0.000  0.000  0.000  0.085
    2  0.007  0.024  0.024  0.030  0.000  0.000  0.000  0.000  0.000  0.085
tot    0.014  0.049  0.049  0.060  0.000  0.000  0.000  0.000  0.000  0.171

band     7 # energy   11.16395503 # occ.  0.00000000

ion      s     py     pz     px    dxy    dyz    dz2    dxz  x2-y2    tot
    1  0.020  0.030  0.030  0.048  0.000  0.000  0.000  0.000  0.000  0.128
    2  0.020  0.030  0.030  0.048  0.000  0.000  0.000  0.000  0.000  0.128
tot    0.041  0.060  0.060  0.096  0.000  0.000  0.000  0.000  0.000  0.257

band     8 # energy   14.05557336 # occ.  0.00000000

ion      s     py     pz     px    dxy    dyz    dz2    dxz  x2-y2    tot
    1  0.016  0.008  0.008  0.060  0.000  0.000  0.000  0.000  0.000  0.092
    2  0.016  0.008  0.008  0.060  0.000  0.000  0.000  0.000  0.000  0.092
tot    0.032  0.016  0.016  0.120  0.000  0.000  0.000  0.000  0.000  0.184

band     9 # energy   14.15692126 # occ.  0.00000000

ion      s     py     pz     px    dxy    dyz    dz2    dxz  x2-y2    tot
    1  0.010  0.061  0.060  0.016  0.000  0.000  0.000  0.000  0.000  0.147
    2  0.010  0.061  0.060  0.016  0.000  0.000  0.000  0.000  0.000  0.147
tot    0.021  0.121  0.121  0.032  0.000  0.000  0.000  0.000  0.000  0.295


 k-point    73 :    0.50000000 0.41666667 0.58333333     weight = 0.00000000

band     1 # energy   -5.09010473 # occ.  2.00000000

ion      s     py     pz     px    dxy    dyz    dz2    dxz  x2-y2    tot
    1  0.226  0.007  0.007  0.004  0.000  0.000  0.000  0.000  0.000  0.244
    2  0.226  0.007  0.007  0.004  0.000  0.000  0.000  0.000  0.000  0.244
tot    0.452  0.013  0.013  0.008  0.000  0.000  0.000  0.000  0.000  0.487

band     2 # energy   -2.24886915 # occ.  2.00000000

ion      s     py     pz     px    dxy    dyz    dz2    dxz  x2-y2    tot
    1  0.115  0.031  0.031  0.027  0.000  0.000  0.000  0.000  0.000  0.204
    2  0.115  0.031  0.031  0.027  0.000  0.000  0.000  0.000  0.000  0.204
tot    0.230  0.062  0.062  0.055  0.000  0.000  0.000  0.000  0.000  0.408

band     3 # energy    2.49172277 # occ.  2.00000000

ion      s     py     pz     px    dxy    dyz    dz2    dxz  x2-y2    tot
    1  0.038  0.073  0.073  0.017  0.000  0.000  0.000  0.000  0.000  0.202
    2  0.038  0.073  0.073  0.017  0.000  0.000  0.000  0.000  0.000  0.202
tot    0.075  0.147  0.147  0.035  0.000  0.000  0.000  0.000  0.000  0.404

band     4 # energy    3.49630488 # occ.  2.00000000

ion      s     py     pz     px    dxy    dyz    dz2    dxz  x2-y2    tot
    1  0.000  0.040  0.040  0.125  0.000  0.000  0.000  0.000  0.000  0.206
    2  0.000  0.040  0.040  0.125  0.000  0.000  0.000  0.000  0.000  0.206
tot    0.001  0.080  0.080  0.251  0.000  0.000  0.000  0.000  0.000  0.412

band     5 # energy    8.53408208 # occ.  0.00000000

ion      s     py     pz     px    dxy    dyz    dz2    dxz  x2-y2    tot
    1  0.116  0.031  0.031  0.004  0.000  0.000  0.000  0.000  0.000  0.182
    2  0.116  0.031  0.031  0.004  0.000  0.000  0.000  0.000  0.000  0.182
tot    0.232  0.063  0.063  0.007  0.000  0.000  0.000  0.000  0.000  0.365

band     6 # energy    9.14378520 # occ.  0.00000000

ion      s     py     pz     px    dxy    dyz    dz2    dxz  x2-y2    tot
    1  0.006  0.029  0.029  0.023  0.000  0.000  0.000  0.000  0.000  0.086
    2  0.006  0.029  0.029  0.023  0.000  0.000  0.000  0.000  0.000  0.086
tot    0.012  0.057  0.057  0.045  0.000  0.000  0.000  0.000  0.000  0.171

band     7 # energy   10.61399262 # occ.  0.00000000

ion      s     py     pz     px    dxy    dyz    dz2    dxz  x2-y2    tot
    1  0.016  0.025  0.025  0.054  0.000  0.000  0.000  0.000  0.000  0.120
    2  0.016  0.025  0.025  0.054  0.000  0.000  0.000  0.000  0.000  0.120
tot    0.032  0.050  0.050  0.107  0.000  0.000  0.000  0.000  0.000  0.239

band     8 # energy   14.35066494 # occ.  0.00000000

ion      s     py     pz     px    dxy    dyz    dz2    dxz  x2-y2    tot
    1  0.003  0.057  0.057  0.017  0.000  0.000  0.000  0.000  0.000  0.135
    2  0.003  0.057  0.057  0.017  0.000  0.000  0.000  0.000  0.000  0.135
tot    0.007  0.115  0.115  0.034  0.000  0.000  0.000  0.000  0.000  0.271

band     9 # energy   14.55120264 # occ.  0.00000000

ion      s     py     pz     px    dxy    dyz    dz2    dxz  x2-y2    tot
    1  0.015  0.008  0.007  0.059  0.000  0.000  0.000  0.000  0.000  0.088
    2  0.015  0.007  0.007  0.058  0.000  0.000  0.000  0.000  0.000  0.088
tot    0.030  0.015  0.015  0.117  0.000  0.000  0.000  0.000  0.000  0.177


 k-point    74 :    0.50000000 0.43333333 0.56666667     weight = 0.00000000

band     1 # energy   -5.18532973 # occ.  2.00000000

ion      s     py     pz     px    dxy    dyz    dz2    dxz  x2-y2    tot
    1  0.227  0.006  0.006  0.004  0.000  0.000  0.000  0.000  0.000  0.243
    2  0.227  0.006  0.006  0.004  0.000  0.000  0.000  0.000  0.000  0.243
tot    0.454  0.012  0.012  0.008  0.000  0.000  0.000  0.000  0.000  0.487

band     2 # energy   -2.28469640 # occ.  2.00000000

ion      s     py     pz     px    dxy    dyz    dz2    dxz  x2-y2    tot
    1  0.110  0.031  0.031  0.029  0.000  0.000  0.000  0.000  0.000  0.201
    2  0.110  0.031  0.031  0.029  0.000  0.000  0.000  0.000  0.000  0.201
tot    0.220  0.062  0.062  0.058  0.000  0.000  0.000  0.000  0.000  0.402

band     3 # energy    2.89389409 # occ.  2.00000000

ion      s     py     pz     px    dxy    dyz    dz2    dxz  x2-y2    tot
    1  0.033  0.080  0.080  0.013  0.000  0.000  0.000  0.000  0.000  0.206
    2  0.033  0.080  0.080  0.013  0.000  0.000  0.000  0.000  0.000  0.206
tot    0.066  0.160  0.160  0.026  0.000  0.000  0.000  0.000  0.000  0.412

band     4 # energy    3.66093294 # occ.  2.00000000

ion      s     py     pz     px    dxy    dyz    dz2    dxz  x2-y2    tot
    1  0.000  0.039  0.039  0.132  0.000  0.000  0.000  0.000  0.000  0.210
    2  0.000  0.039  0.039  0.132  0.000  0.000  0.000  0.000  0.000  0.210
tot    0.000  0.078  0.078  0.264  0.000  0.000  0.000  0.000  0.000  0.420

band     5 # energy    8.28336938 # occ.  0.00000000

ion      s     py     pz     px    dxy    dyz    dz2    dxz  x2-y2    tot
    1  0.134  0.029  0.029  0.001  0.000  0.000  0.000  0.000  0.000  0.193
    2  0.134  0.029  0.029  0.001  0.000  0.000  0.000  0.000  0.000  0.193
tot    0.268  0.058  0.058  0.001  0.000  0.000  0.000  0.000  0.000  0.386

band     6 # energy    9.19900393 # occ.  0.00000000

ion      s     py     pz     px    dxy    dyz    dz2    dxz  x2-y2    tot
    1  0.004  0.033  0.033  0.016  0.000  0.000  0.000  0.000  0.000  0.087
    2  0.004  0.033  0.033  0.016  0.000  0.000  0.000  0.000  0.000  0.087
tot    0.009  0.067  0.067  0.031  0.000  0.000  0.000  0.000  0.000  0.173

band     7 # energy   10.15617248 # occ.  0.00000000

ion      s     py     pz     px    dxy    dyz    dz2    dxz  x2-y2    tot
    1  0.009  0.021  0.021  0.059  0.000  0.000  0.000  0.000  0.000  0.109
    2  0.009  0.021  0.021  0.059  0.000  0.000  0.000  0.000  0.000  0.109
tot    0.019  0.041  0.041  0.117  0.000  0.000  0.000  0.000  0.000  0.219

band     8 # energy   14.36432182 # occ.  0.00000000

ion      s     py     pz     px    dxy    dyz    dz2    dxz  x2-y2    tot
    1  0.000  0.047  0.047  0.017  0.000  0.000  0.000  0.000  0.000  0.110
    2  0.000  0.047  0.047  0.017  0.000  0.000  0.000  0.000  0.000  0.110
tot    0.000  0.093  0.093  0.034  0.000  0.000  0.000  0.000  0.000  0.221

band     9 # energy   15.06995153 # occ.  0.00000000

ion      s     py     pz     px    dxy    dyz    dz2    dxz  x2-y2    tot
    1  0.014  0.008  0.006  0.055  0.000  0.000  0.000  0.000  0.000  0.083
    2  0.014  0.008  0.006  0.055  0.000  0.000  0.000  0.000  0.000  0.084
tot    0.028  0.016  0.013  0.110  0.000  0.000  0.000  0.000  0.000  0.167


 k-point    75 :    0.50000000 0.45000000 0.55000000     weight = 0.00000000

band     1 # energy   -5.25972381 # occ.  2.00000000

ion      s     py     pz     px    dxy    dyz    dz2    dxz  x2-y2    tot
    1  0.228  0.005  0.005  0.004  0.000  0.000  0.000  0.000  0.000  0.243
    2  0.228  0.005  0.005  0.004  0.000  0.000  0.000  0.000  0.000  0.243
tot    0.456  0.011  0.011  0.009  0.000  0.000  0.000  0.000  0.000  0.486

band     2 # energy   -2.31690695 # occ.  2.00000000

ion      s     py     pz     px    dxy    dyz    dz2    dxz  x2-y2    tot
    1  0.106  0.031  0.031  0.030  0.000  0.000  0.000  0.000  0.000  0.198
    2  0.106  0.031  0.031  0.030  0.000  0.000  0.000  0.000  0.000  0.198
tot    0.212  0.062  0.062  0.060  0.000  0.000  0.000  0.000  0.000  0.397

band     3 # energy    3.28291537 # occ.  2.00000000

ion      s     py     pz     px    dxy    dyz    dz2    dxz  x2-y2    tot
    1  0.025  0.088  0.088  0.008  0.000  0.000  0.000  0.000  0.000  0.210
    2  0.025  0.088  0.088  0.008  0.000  0.000  0.000  0.000  0.000  0.210
tot    0.050  0.176  0.176  0.017  0.000  0.000  0.000  0.000  0.000  0.420

band     4 # energy    3.79136811 # occ.  2.00000000

ion      s     py     pz     px    dxy    dyz    dz2    dxz  x2-y2    tot
    1  0.000  0.038  0.038  0.137  0.000  0.000  0.000  0.000  0.000  0.213
    2  0.000  0.038  0.038  0.137  0.000  0.000  0.000  0.000  0.000  0.213
tot    0.000  0.076  0.076  0.274  0.000  0.000  0.000  0.000  0.000  0.426

band     5 # energy    8.00421969 # occ.  0.00000000

ion      s     py     pz     px    dxy    dyz    dz2    dxz  x2-y2    tot
    1  0.153  0.024  0.024  0.000  0.000  0.000  0.000  0.000  0.000  0.202
    2  0.153  0.024  0.024  0.000  0.000  0.000  0.000  0.000  0.000  0.202
tot    0.305  0.049  0.049  0.000  0.000  0.000  0.000  0.000  0.000  0.403

band     6 # energy    9.27015532 # occ.  0.00000000

ion      s     py     pz     px    dxy    dyz    dz2    dxz  x2-y2    tot
    1  0.003  0.038  0.038  0.009  0.000  0.000  0.000  0.000  0.000  0.088
    2  0.003  0.038  0.038  0.009  0.000  0.000  0.000  0.000  0.000  0.088
tot    0.006  0.076  0.076  0.019  0.000  0.000  0.000  0.000  0.000  0.176

band     7 # energy    9.81113343 # occ.  0.00000000

ion      s     py     pz     px    dxy    dyz    dz2    dxz  x2-y2    tot
    1  0.004  0.018  0.018  0.062  0.000  0.000  0.000  0.000  0.000  0.100
    2  0.004  0.018  0.018  0.062  0.000  0.000  0.000  0.000  0.000  0.100
tot    0.008  0.035  0.035  0.123  0.000  0.000  0.000  0.000  0.000  0.201

band     8 # energy   14.22575970 # occ.  0.00000000

ion      s     py     pz     px    dxy    dyz    dz2    dxz  x2-y2    tot
    1  0.001  0.033  0.033  0.016  0.000  0.000  0.000  0.000  0.000  0.084
    2  0.001  0.033  0.033  0.016  0.000  0.000  0.000  0.000  0.000  0.084
tot    0.003  0.067  0.067  0.032  0.000  0.000  0.000  0.000  0.000  0.168

band     9 # energy   15.60264686 # occ.  0.00000000

ion      s     py     pz     px    dxy    dyz    dz2    dxz  x2-y2    tot
    1  0.013  0.008  0.005  0.052  0.000  0.000  0.000  0.000  0.000  0.078
    2  0.013  0.008  0.005  0.052  0.000  0.000  0.000  0.000  0.000  0.078
tot    0.026  0.017  0.010  0.104  0.000  0.000  0.000  0.000  0.000  0.156


 k-point    76 :    0.50000000 0.46666667 0.53333333     weight = 0.00000000

band     1 # energy   -5.31302899 # occ.  2.00000000

ion      s     py     pz     px    dxy    dyz    dz2    dxz  x2-y2    tot
    1  0.228  0.005  0.005  0.005  0.000  0.000  0.000  0.000  0.000  0.243
    2  0.228  0.005  0.005  0.005  0.000  0.000  0.000  0.000  0.000  0.243
tot    0.457  0.010  0.010  0.009  0.000  0.000  0.000  0.000  0.000  0.486

band     2 # energy   -2.34205989 # occ.  2.00000000

ion      s     py     pz     px    dxy    dyz    dz2    dxz  x2-y2    tot
    1  0.103  0.031  0.031  0.031  0.000  0.000  0.000  0.000  0.000  0.197
    2  0.103  0.031  0.031  0.031  0.000  0.000  0.000  0.000  0.000  0.197
tot    0.207  0.062  0.062  0.061  0.000  0.000  0.000  0.000  0.000  0.393

band     3 # energy    3.62481278 # occ.  2.00000000

ion      s     py     pz     px    dxy    dyz    dz2    dxz  x2-y2    tot
    1  0.015  0.097  0.097  0.004  0.000  0.000  0.000  0.000  0.000  0.213
    2  0.015  0.097  0.097  0.004  0.000  0.000  0.000  0.000  0.000  0.213
tot    0.030  0.194  0.194  0.009  0.000  0.000  0.000  0.000  0.000  0.427

band     4 # energy    3.88545919 # occ.  2.00000000

ion      s     py     pz     px    dxy    dyz    dz2    dxz  x2-y2    tot
    1  0.000  0.037  0.037  0.141  0.000  0.000  0.000  0.000  0.000  0.215
    2  0.000  0.037  0.037  0.141  0.000  0.000  0.000  0.000  0.000  0.215
tot    0.000  0.074  0.074  0.282  0.000  0.000  0.000  0.000  0.000  0.430

band     5 # energy    7.72503196 # occ.  0.00000000

ion      s     py     pz     px    dxy    dyz    dz2    dxz  x2-y2    tot
    1  0.169  0.017  0.017  0.002  0.000  0.000  0.000  0.000  0.000  0.206
    2  0.169  0.017  0.017  0.002  0.000  0.000  0.000  0.000  0.000  0.206
tot    0.339  0.034  0.034  0.004  0.000  0.000  0.000  0.000  0.000  0.412

band     6 # energy    9.34146482 # occ.  0.00000000

ion      s     py     pz     px    dxy    dyz    dz2    dxz  x2-y2    tot
    1  0.001  0.042  0.042  0.004  0.000  0.000  0.000  0.000  0.000  0.090
    2  0.001  0.042  0.042  0.004  0.000  0.000  0.000  0.000  0.000  0.090
tot    0.003  0.084  0.084  0.009  0.000  0.000  0.000  0.000  0.000  0.180

band     7 # energy    9.58195611 # occ.  0.00000000

ion      s     py     pz     px    dxy    dyz    dz2    dxz  x2-y2    tot
    1  0.001  0.016  0.016  0.062  0.000  0.000  0.000  0.000  0.000  0.095
    2  0.001  0.016  0.016  0.062  0.000  0.000  0.000  0.000  0.000  0.095
tot    0.002  0.032  0.032  0.125  0.000  0.000  0.000  0.000  0.000  0.190

band     8 # energy   14.04568753 # occ.  0.00000000

ion      s     py     pz     px    dxy    dyz    dz2    dxz  x2-y2    tot
    1  0.004  0.023  0.023  0.016  0.000  0.000  0.000  0.000  0.000  0.066
    2  0.004  0.023  0.023  0.016  0.000  0.000  0.000  0.000  0.000  0.066
tot    0.008  0.047  0.047  0.031  0.000  0.000  0.000  0.000  0.000  0.133

band     9 # energy   16.24174541 # occ.  0.00000000

ion      s     py     pz     px    dxy    dyz    dz2    dxz  x2-y2    tot
    1  0.009  0.020  0.002  0.038  0.000  0.000  0.000  0.000  0.000  0.070
    2  0.013  0.016  0.001  0.032  0.000  0.000  0.000  0.000  0.000  0.061
tot    0.022  0.036  0.003  0.070  0.000  0.000  0.000  0.000  0.000  0.131


 k-point    77 :    0.50000000 0.48333333 0.51666667     weight = 0.00000000

band     1 # energy   -5.34507771 # occ.  2.00000000

ion      s     py     pz     px    dxy    dyz    dz2    dxz  x2-y2    tot
    1  0.229  0.005  0.005  0.005  0.000  0.000  0.000  0.000  0.000  0.243
    2  0.229  0.005  0.005  0.005  0.000  0.000  0.000  0.000  0.000  0.243
tot    0.457  0.009  0.009  0.009  0.000  0.000  0.000  0.000  0.000  0.486

band     2 # energy   -2.35796312 # occ.  2.00000000

ion      s     py     pz     px    dxy    dyz    dz2    dxz  x2-y2    tot
    1  0.102  0.031  0.031  0.031  0.000  0.000  0.000  0.000  0.000  0.196
    2  0.102  0.031  0.031  0.031  0.000  0.000  0.000  0.000  0.000  0.196
tot    0.204  0.063  0.063  0.062  0.000  0.000  0.000  0.000  0.000  0.391

band     3 # energy    3.86991856 # occ.  2.00000000

ion      s     py     pz     px    dxy    dyz    dz2    dxz  x2-y2    tot
    1  0.005  0.105  0.105  0.001  0.000  0.000  0.000  0.000  0.000  0.216
    2  0.005  0.105  0.105  0.001  0.000  0.000  0.000  0.000  0.000  0.216
tot    0.009  0.210  0.210  0.003  0.000  0.000  0.000  0.000  0.000  0.432

band     4 # energy    3.94214958 # occ.  2.00000000

ion      s     py     pz     px    dxy    dyz    dz2    dxz  x2-y2    tot
    1  0.000  0.036  0.036  0.144  0.000  0.000  0.000  0.000  0.000  0.216
    2  0.000  0.036  0.036  0.144  0.000  0.000  0.000  0.000  0.000  0.216
tot    0.000  0.073  0.073  0.287  0.000  0.000  0.000  0.000  0.000  0.433

band     5 # energy    7.50763918 # occ.  0.00000000

ion      s     py     pz     px    dxy    dyz    dz2    dxz  x2-y2    tot
    1  0.182  0.010  0.010  0.005  0.000  0.000  0.000  0.000  0.000  0.207
    2  0.182  0.010  0.010  0.005  0.000  0.000  0.000  0.000  0.000  0.207
tot    0.365  0.019  0.019  0.010  0.000  0.000  0.000  0.000  0.000  0.414

band     6 # energy    9.39459359 # occ.  0.00000000

ion      s     py     pz     px    dxy    dyz    dz2    dxz  x2-y2    tot
    1  0.000  0.045  0.045  0.001  0.000  0.000  0.000  0.000  0.000  0.092
    2  0.000  0.045  0.045  0.001  0.000  0.000  0.000  0.000  0.000  0.092
tot    0.001  0.090  0.090  0.002  0.000  0.000  0.000  0.000  0.000  0.184

band     7 # energy    9.45485913 # occ.  0.00000000

ion      s     py     pz     px    dxy    dyz    dz2    dxz  x2-y2    tot
    1  0.000  0.015  0.015  0.062  0.000  0.000  0.000  0.000  0.000  0.093
    2  0.000  0.015  0.015  0.062  0.000  0.000  0.000  0.000  0.000  0.093
tot    0.000  0.031  0.031  0.124  0.000  0.000  0.000  0.000  0.000  0.186

band     8 # energy   13.90867609 # occ.  0.00000000

ion      s     py     pz     px    dxy    dyz    dz2    dxz  x2-y2    tot
    1  0.006  0.018  0.018  0.016  0.000  0.000  0.000  0.000  0.000  0.057
    2  0.006  0.018  0.018  0.016  0.000  0.000  0.000  0.000  0.000  0.057
tot    0.012  0.035  0.035  0.031  0.000  0.000  0.000  0.000  0.000  0.114

band     9 # energy   16.83192467 # occ.  0.00000000

ion      s     py     pz     px    dxy    dyz    dz2    dxz  x2-y2    tot
    1  0.003  0.017  0.001  0.012  0.000  0.000  0.000  0.000  0.000  0.032
    2  0.004  0.014  0.002  0.010  0.000  0.000  0.000  0.000  0.000  0.029
tot    0.007  0.031  0.002  0.021  0.000  0.000  0.000  0.000  0.000  0.061


 k-point    78 :    0.50000000 0.50000000 0.50000000     weight = 0.00000000

band     1 # energy   -5.35577892 # occ.  2.00000000

ion      s     py     pz     px    dxy    dyz    dz2    dxz  x2-y2    tot
    1  0.229  0.005  0.005  0.005  0.000  0.000  0.000  0.000  0.000  0.243
    2  0.229  0.005  0.005  0.005  0.000  0.000  0.000  0.000  0.000  0.243
tot    0.458  0.009  0.009  0.009  0.000  0.000  0.000  0.000  0.000  0.485

band     2 # energy   -2.36339978 # occ.  2.00000000

ion      s     py     pz     px    dxy    dyz    dz2    dxz  x2-y2    tot
    1  0.101  0.031  0.031  0.031  0.000  0.000  0.000  0.000  0.000  0.195
    2  0.101  0.031  0.031  0.031  0.000  0.000  0.000  0.000  0.000  0.195
tot    0.203  0.063  0.063  0.063  0.000  0.000  0.000  0.000  0.000  0.391

band     3 # energy    3.96105426 # occ.  2.00000000

ion      s     py     pz     px    dxy    dyz    dz2    dxz  x2-y2    tot
    1  0.000  0.143  0.052  0.023  0.000  0.000  0.000  0.000  0.000  0.217
    2  0.000  0.143  0.052  0.023  0.000  0.000  0.000  0.000  0.000  0.217
tot    0.000  0.285  0.103  0.045  0.000  0.000  0.000  0.000  0.000  0.434

band     4 # energy    3.96105788 # occ.  2.00000000

ion      s     py     pz     px    dxy    dyz    dz2    dxz  x2-y2    tot
    1  0.000  0.002  0.093  0.122  0.000  0.000  0.000  0.000  0.000  0.217
    2  0.000  0.002  0.093  0.122  0.000  0.000  0.000  0.000  0.000  0.217
tot    0.000  0.004  0.186  0.244  0.000  0.000  0.000  0.000  0.000  0.434

band     5 # energy    7.42381014 # occ.  0.00000000

ion      s     py     pz     px    dxy    dyz    dz2    dxz  x2-y2    tot
    1  0.188  0.006  0.006  0.006  0.000  0.000  0.000  0.000  0.000  0.207
    2  0.188  0.006  0.006  0.006  0.000  0.000  0.000  0.000  0.000  0.207
tot    0.375  0.013  0.013  0.013  0.000  0.000  0.000  0.000  0.000  0.414

band     6 # energy    9.41441055 # occ.  0.00000000

ion      s     py     pz     px    dxy    dyz    dz2    dxz  x2-y2    tot
    1  0.000  0.001  0.037  0.054  0.000  0.000  0.000  0.000  0.000  0.092
    2  0.000  0.001  0.037  0.054  0.000  0.000  0.000  0.000  0.000  0.092
tot    0.000  0.003  0.075  0.107  0.000  0.000  0.000  0.000  0.000  0.185

band     7 # energy    9.41441231 # occ.  0.00000000

ion      s     py     pz     px    dxy    dyz    dz2    dxz  x2-y2    tot
    1  0.000  0.060  0.024  0.008  0.000  0.000  0.000  0.000  0.000  0.092
    2  0.000  0.060  0.024  0.008  0.000  0.000  0.000  0.000  0.000  0.092
tot    0.000  0.120  0.048  0.016  0.000  0.000  0.000  0.000  0.000  0.185

band     8 # energy   13.85846652 # occ.  0.00000000

ion      s     py     pz     px    dxy    dyz    dz2    dxz  x2-y2    tot
    1  0.007  0.016  0.016  0.016  0.000  0.000  0.000  0.000  0.000  0.054
    2  0.007  0.016  0.016  0.016  0.000  0.000  0.000  0.000  0.000  0.054
tot    0.013  0.031  0.031  0.031  0.000  0.000  0.000  0.000  0.000  0.108

band     9 # energy   17.01365530 # occ.  0.00000000

ion      s     py     pz     px    dxy    dyz    dz2    dxz  x2-y2    tot
    1  0.000  0.000  0.000  0.000  0.000  0.000  0.000  0.000  0.000  0.000
    2  0.000  0.000  0.000  0.000  0.000  0.000  0.000  0.000  0.000  0.000
tot    0.000  0.000  0.000  0.000  0.000  0.000  0.000  0.000  0.000  0.001


 k-point    79 :    0.50000000 0.50000000 0.50000000     weight = 0.00000000

band     1 # energy   -5.35577892 # occ.  2.00000000

ion      s     py     pz     px    dxy    dyz    dz2    dxz  x2-y2    tot
    1  0.229  0.005  0.005  0.005  0.000  0.000  0.000  0.000  0.000  0.243
    2  0.229  0.005  0.005  0.005  0.000  0.000  0.000  0.000  0.000  0.243
tot    0.458  0.009  0.009  0.009  0.000  0.000  0.000  0.000  0.000  0.485

band     2 # energy   -2.36339978 # occ.  2.00000000

ion      s     py     pz     px    dxy    dyz    dz2    dxz  x2-y2    tot
    1  0.101  0.031  0.031  0.031  0.000  0.000  0.000  0.000  0.000  0.195
    2  0.101  0.031  0.031  0.031  0.000  0.000  0.000  0.000  0.000  0.195
tot    0.203  0.063  0.063  0.063  0.000  0.000  0.000  0.000  0.000  0.391

band     3 # energy    3.96105426 # occ.  2.00000000

ion      s     py     pz     px    dxy    dyz    dz2    dxz  x2-y2    tot
    1  0.000  0.143  0.052  0.023  0.000  0.000  0.000  0.000  0.000  0.217
    2  0.000  0.143  0.052  0.023  0.000  0.000  0.000  0.000  0.000  0.217
tot    0.000  0.285  0.103  0.045  0.000  0.000  0.000  0.000  0.000  0.434

band     4 # energy    3.96105788 # occ.  2.00000000

ion      s     py     pz     px    dxy    dyz    dz2    dxz  x2-y2    tot
    1  0.000  0.002  0.093  0.122  0.000  0.000  0.000  0.000  0.000  0.217
    2  0.000  0.002  0.093  0.122  0.000  0.000  0.000  0.000  0.000  0.217
tot    0.000  0.004  0.186  0.244  0.000  0.000  0.000  0.000  0.000  0.434

band     5 # energy    7.42381014 # occ.  0.00000000

ion      s     py     pz     px    dxy    dyz    dz2    dxz  x2-y2    tot
    1  0.188  0.006  0.006  0.006  0.000  0.000  0.000  0.000  0.000  0.207
    2  0.188  0.006  0.006  0.006  0.000  0.000  0.000  0.000  0.000  0.207
tot    0.375  0.013  0.013  0.013  0.000  0.000  0.000  0.000  0.000  0.414

band     6 # energy    9.41441055 # occ.  0.00000000

ion      s     py     pz     px    dxy    dyz    dz2    dxz  x2-y2    tot
    1  0.000  0.001  0.037  0.054  0.000  0.000  0.000  0.000  0.000  0.092
    2  0.000  0.001  0.037  0.054  0.000  0.000  0.000  0.000  0.000  0.092
tot    0.000  0.003  0.075  0.107  0.000  0.000  0.000  0.000  0.000  0.185

band     7 # energy    9.41441231 # occ.  0.00000000

ion      s     py     pz     px    dxy    dyz    dz2    dxz  x2-y2    tot
    1  0.000  0.060  0.024  0.008  0.000  0.000  0.000  0.000  0.000  0.092
    2  0.000  0.060  0.024  0.008  0.000  0.000  0.000  0.000  0.000  0.092
tot    0.000  0.120  0.048  0.016  0.000  0.000  0.000  0.000  0.000  0.185

band     8 # energy   13.85846652 # occ.  0.00000000

ion      s     py     pz     px    dxy    dyz    dz2    dxz  x2-y2    tot
    1  0.007  0.016  0.016  0.016  0.000  0.000  0.000  0.000  0.000  0.054
    2  0.007  0.016  0.016  0.016  0.000  0.000  0.000  0.000  0.000  0.054
tot    0.013  0.031  0.031  0.031  0.000  0.000  0.000  0.000  0.000  0.108

band     9 # energy   17.01365530 # occ.  0.00000000

ion      s     py     pz     px    dxy    dyz    dz2    dxz  x2-y2    tot
    1  0.000  0.000  0.000  0.000  0.000  0.000  0.000  0.000  0.000  0.000
    2  0.000  0.000  0.000  0.000  0.000  0.000  0.000  0.000  0.000  0.000
tot    0.000  0.000  0.000  0.000  0.000  0.000  0.000  0.000  0.000  0.001


 k-point    80 :    0.47222222 0.47222222 0.47222222     weight = 0.00000000

band     1 # energy   -5.40271052 # occ.  2.00000000

ion      s     py     pz     px    dxy    dyz    dz2    dxz  x2-y2    tot
    1  0.227  0.005  0.005  0.005  0.000  0.000  0.000  0.000  0.000  0.242
    2  0.227  0.005  0.005  0.005  0.000  0.000  0.000  0.000  0.000  0.242
tot    0.455  0.009  0.009  0.009  0.000  0.000  0.000  0.000  0.000  0.483

band     2 # energy   -2.29494095 # occ.  2.00000000

ion      s     py     pz     px    dxy    dyz    dz2    dxz  x2-y2    tot
    1  0.103  0.031  0.031  0.031  0.000  0.000  0.000  0.000  0.000  0.196
    2  0.103  0.031  0.031  0.031  0.000  0.000  0.000  0.000  0.000  0.196
tot    0.205  0.063  0.063  0.063  0.000  0.000  0.000  0.000  0.000  0.393

band     3 # energy    3.96735933 # occ.  2.00000000

ion      s     py     pz     px    dxy    dyz    dz2    dxz  x2-y2    tot
    1  0.000  0.143  0.052  0.023  0.000  0.000  0.000  0.000  0.000  0.217
    2  0.000  0.143  0.052  0.023  0.000  0.000  0.000  0.000  0.000  0.217
tot    0.000  0.285  0.103  0.045  0.000  0.000  0.000  0.000  0.000  0.433

band     4 # energy    3.96736296 # occ.  2.00000000

ion      s     py     pz     px    dxy    dyz    dz2    dxz  x2-y2    tot
    1  0.000  0.002  0.093  0.122  0.000  0.000  0.000  0.000  0.000  0.217
    2  0.000  0.002  0.093  0.122  0.000  0.000  0.000  0.000  0.000  0.217
tot    0.000  0.004  0.186  0.244  0.000  0.000  0.000  0.000  0.000  0.433

band     5 # energy    7.43062132 # occ.  0.00000000

ion      s     py     pz     px    dxy    dyz    dz2    dxz  x2-y2    tot
    1  0.187  0.007  0.007  0.007  0.000  0.000  0.000  0.000  0.000  0.207
    2  0.187  0.007  0.007  0.007  0.000  0.000  0.000  0.000  0.000  0.207
tot    0.375  0.013  0.013  0.013  0.000  0.000  0.000  0.000  0.000  0.414

band     6 # energy    9.42107879 # occ.  0.00000000

ion      s     py     pz     px    dxy    dyz    dz2    dxz  x2-y2    tot
    1  0.000  0.001  0.038  0.054  0.000  0.000  0.000  0.000  0.000  0.093
    2  0.000  0.001  0.038  0.054  0.000  0.000  0.000  0.000  0.000  0.093
tot    0.000  0.003  0.075  0.108  0.000  0.000  0.000  0.000  0.000  0.186

band     7 # energy    9.42108057 # occ.  0.00000000

ion      s     py     pz     px    dxy    dyz    dz2    dxz  x2-y2    tot
    1  0.000  0.060  0.024  0.008  0.000  0.000  0.000  0.000  0.000  0.093
    2  0.000  0.060  0.024  0.008  0.000  0.000  0.000  0.000  0.000  0.093
tot    0.000  0.121  0.049  0.016  0.000  0.000  0.000  0.000  0.000  0.186

band     8 # energy   13.86924719 # occ.  0.00000000

ion      s     py     pz     px    dxy    dyz    dz2    dxz  x2-y2    tot
    1  0.006  0.016  0.016  0.016  0.000  0.000  0.000  0.000  0.000  0.054
    2  0.006  0.016  0.016  0.016  0.000  0.000  0.000  0.000  0.000  0.054
tot    0.013  0.032  0.032  0.032  0.000  0.000  0.000  0.000  0.000  0.109

band     9 # energy   16.68549838 # occ.  0.00000000

ion      s     py     pz     px    dxy    dyz    dz2    dxz  x2-y2    tot
    1  0.000  0.000  0.016  0.011  0.000  0.000  0.000  0.000  0.000  0.028
    2  0.000  0.000  0.016  0.011  0.000  0.000  0.000  0.000  0.000  0.028
tot    0.000  0.000  0.032  0.023  0.000  0.000  0.000  0.000  0.000  0.055


 k-point    81 :    0.44444444 0.44444444 0.44444444     weight = 0.00000000

band     1 # energy   -5.53173069 # occ.  2.00000000

ion      s     py     pz     px    dxy    dyz    dz2    dxz  x2-y2    tot
    1  0.224  0.005  0.005  0.005  0.000  0.000  0.000  0.000  0.000  0.239
    2  0.224  0.005  0.005  0.005  0.000  0.000  0.000  0.000  0.000  0.239
tot    0.449  0.010  0.010  0.010  0.000  0.000  0.000  0.000  0.000  0.478

band     2 # energy   -2.10138264 # occ.  2.00000000

ion      s     py     pz     px    dxy    dyz    dz2    dxz  x2-y2    tot
    1  0.105  0.031  0.031  0.031  0.000  0.000  0.000  0.000  0.000  0.199
    2  0.105  0.031  0.031  0.031  0.000  0.000  0.000  0.000  0.000  0.199
tot    0.210  0.063  0.063  0.063  0.000  0.000  0.000  0.000  0.000  0.398

band     3 # energy    3.98623546 # occ.  2.00000000

ion      s     py     pz     px    dxy    dyz    dz2    dxz  x2-y2    tot
    1  0.000  0.142  0.052  0.023  0.000  0.000  0.000  0.000  0.000  0.217
    2  0.000  0.142  0.052  0.023  0.000  0.000  0.000  0.000  0.000  0.217
tot    0.000  0.285  0.103  0.045  0.000  0.000  0.000  0.000  0.000  0.433

band     4 # energy    3.98623912 # occ.  2.00000000

ion      s     py     pz     px    dxy    dyz    dz2    dxz  x2-y2    tot
    1  0.000  0.002  0.093  0.122  0.000  0.000  0.000  0.000  0.000  0.217
    2  0.000  0.002  0.093  0.122  0.000  0.000  0.000  0.000  0.000  0.217
tot    0.000  0.004  0.186  0.244  0.000  0.000  0.000  0.000  0.000  0.433

band     5 # energy    7.45104519 # occ.  0.00000000

ion      s     py     pz     px    dxy    dyz    dz2    dxz  x2-y2    tot
    1  0.186  0.007  0.007  0.007  0.000  0.000  0.000  0.000  0.000  0.207
    2  0.186  0.007  0.007  0.007  0.000  0.000  0.000  0.000  0.000  0.207
tot    0.372  0.014  0.014  0.014  0.000  0.000  0.000  0.000  0.000  0.413

band     6 # energy    9.44053923 # occ.  0.00000000

ion      s     py     pz     px    dxy    dyz    dz2    dxz  x2-y2    tot
    1  0.000  0.002  0.038  0.055  0.000  0.000  0.000  0.000  0.000  0.095
    2  0.000  0.002  0.038  0.055  0.000  0.000  0.000  0.000  0.000  0.095
tot    0.000  0.003  0.076  0.109  0.000  0.000  0.000  0.000  0.000  0.189

band     7 # energy    9.44054104 # occ.  0.00000000

ion      s     py     pz     px    dxy    dyz    dz2    dxz  x2-y2    tot
    1  0.000  0.061  0.025  0.008  0.000  0.000  0.000  0.000  0.000  0.095
    2  0.000  0.061  0.025  0.008  0.000  0.000  0.000  0.000  0.000  0.095
tot    0.000  0.123  0.050  0.017  0.000  0.000  0.000  0.000  0.000  0.189

band     8 # energy   13.90068308 # occ.  0.00000000

ion      s     py     pz     px    dxy    dyz    dz2    dxz  x2-y2    tot
    1  0.006  0.017  0.017  0.017  0.000  0.000  0.000  0.000  0.000  0.057
    2  0.006  0.017  0.017  0.017  0.000  0.000  0.000  0.000  0.000  0.057
tot    0.012  0.034  0.034  0.034  0.000  0.000  0.000  0.000  0.000  0.113

band     9 # energy   16.16640217 # occ.  0.00000000

ion      s     py     pz     px    dxy    dyz    dz2    dxz  x2-y2    tot
    1  0.000  0.001  0.023  0.016  0.000  0.000  0.000  0.000  0.000  0.040
    2  0.000  0.001  0.023  0.016  0.000  0.000  0.000  0.000  0.000  0.040
tot    0.000  0.001  0.047  0.031  0.000  0.000  0.000  0.000  0.000  0.079


 k-point    82 :    0.41666667 0.41666667 0.41666667     weight = 0.00000000

band     1 # energy   -5.71696617 # occ.  2.00000000

ion      s     py     pz     px    dxy    dyz    dz2    dxz  x2-y2    tot
    1  0.221  0.005  0.005  0.005  0.000  0.000  0.000  0.000  0.000  0.236
    2  0.221  0.005  0.005  0.005  0.000  0.000  0.000  0.000  0.000  0.236
tot    0.442  0.010  0.010  0.010  0.000  0.000  0.000  0.000  0.000  0.472

band     2 # energy   -1.80881779 # occ.  2.00000000

ion      s     py     pz     px    dxy    dyz    dz2    dxz  x2-y2    tot
    1  0.107  0.032  0.032  0.032  0.000  0.000  0.000  0.000  0.000  0.202
    2  0.107  0.032  0.032  0.032  0.000  0.000  0.000  0.000  0.000  0.202
tot    0.215  0.063  0.063  0.063  0.000  0.000  0.000  0.000  0.000  0.405

band     3 # energy    4.01760752 # occ.  2.00000000

ion      s     py     pz     px    dxy    dyz    dz2    dxz  x2-y2    tot
    1  0.000  0.142  0.051  0.023  0.000  0.000  0.000  0.000  0.000  0.216
    2  0.000  0.142  0.051  0.023  0.000  0.000  0.000  0.000  0.000  0.216
tot    0.000  0.284  0.103  0.045  0.000  0.000  0.000  0.000  0.000  0.432

band     4 # energy    4.01761122 # occ.  2.00000000

ion      s     py     pz     px    dxy    dyz    dz2    dxz  x2-y2    tot
    1  0.000  0.002  0.093  0.122  0.000  0.000  0.000  0.000  0.000  0.216
    2  0.000  0.002  0.093  0.122  0.000  0.000  0.000  0.000  0.000  0.216
tot    0.000  0.004  0.185  0.243  0.000  0.000  0.000  0.000  0.000  0.432

band     5 # energy    7.48494455 # occ.  0.00000000

ion      s     py     pz     px    dxy    dyz    dz2    dxz  x2-y2    tot
    1  0.184  0.007  0.007  0.007  0.000  0.000  0.000  0.000  0.000  0.207
    2  0.184  0.007  0.007  0.007  0.000  0.000  0.000  0.000  0.000  0.207
tot    0.369  0.015  0.015  0.015  0.000  0.000  0.000  0.000  0.000  0.413

band     6 # energy    9.47084643 # occ.  0.00000000

ion      s     py     pz     px    dxy    dyz    dz2    dxz  x2-y2    tot
    1  0.000  0.002  0.039  0.056  0.000  0.000  0.000  0.000  0.000  0.097
    2  0.000  0.002  0.039  0.056  0.000  0.000  0.000  0.000  0.000  0.097
tot    0.000  0.003  0.079  0.112  0.000  0.000  0.000  0.000  0.000  0.194

band     7 # energy    9.47084829 # occ.  0.00000000

ion      s     py     pz     px    dxy    dyz    dz2    dxz  x2-y2    tot
    1  0.000  0.063  0.025  0.009  0.000  0.000  0.000  0.000  0.000  0.097
    2  0.000  0.063  0.025  0.009  0.000  0.000  0.000  0.000  0.000  0.097
tot    0.000  0.126  0.051  0.017  0.000  0.000  0.000  0.000  0.000  0.194

band     8 # energy   13.94968239 # occ.  0.00000000

ion      s     py     pz     px    dxy    dyz    dz2    dxz  x2-y2    tot
    1  0.005  0.019  0.019  0.019  0.000  0.000  0.000  0.000  0.000  0.061
    2  0.005  0.019  0.019  0.019  0.000  0.000  0.000  0.000  0.000  0.061
tot    0.010  0.037  0.037  0.037  0.000  0.000  0.000  0.000  0.000  0.122

band     9 # energy   15.64726834 # occ.  0.00000000

ion      s     py     pz     px    dxy    dyz    dz2    dxz  x2-y2    tot
    1  0.000  0.001  0.026  0.015  0.000  0.000  0.000  0.000  0.000  0.043
    2  0.000  0.001  0.026  0.015  0.000  0.000  0.000  0.000  0.000  0.043
tot    0.000  0.002  0.052  0.031  0.000  0.000  0.000  0.000  0.000  0.086


 k-point    83 :    0.38888889 0.38888889 0.38888889     weight = 0.00000000

band     1 # energy   -5.93322856 # occ.  2.00000000

ion      s     py     pz     px    dxy    dyz    dz2    dxz  x2-y2    tot
    1  0.218  0.005  0.005  0.005  0.000  0.000  0.000  0.000  0.000  0.233
    2  0.218  0.005  0.005  0.005  0.000  0.000  0.000  0.000  0.000  0.233
tot    0.436  0.010  0.010  0.010  0.000  0.000  0.000  0.000  0.000  0.466

band     2 # energy   -1.44284074 # occ.  2.00000000

ion      s     py     pz     px    dxy    dyz    dz2    dxz  x2-y2    tot
    1  0.109  0.032  0.032  0.032  0.000  0.000  0.000  0.000  0.000  0.206
    2  0.109  0.032  0.032  0.032  0.000  0.000  0.000  0.000  0.000  0.206
tot    0.217  0.065  0.065  0.065  0.000  0.000  0.000  0.000  0.000  0.411

band     3 # energy    4.06136164 # occ.  2.00000000

ion      s     py     pz     px    dxy    dyz    dz2    dxz  x2-y2    tot
    1  0.000  0.142  0.051  0.022  0.000  0.000  0.000  0.000  0.000  0.216
    2  0.000  0.142  0.051  0.022  0.000  0.000  0.000  0.000  0.000  0.216
tot    0.000  0.284  0.103  0.045  0.000  0.000  0.000  0.000  0.000  0.432

band     4 # energy    4.06136540 # occ.  2.00000000

ion      s     py     pz     px    dxy    dyz    dz2    dxz  x2-y2    tot
    1  0.000  0.002  0.092  0.121  0.000  0.000  0.000  0.000  0.000  0.216
    2  0.000  0.002  0.092  0.121  0.000  0.000  0.000  0.000  0.000  0.216
tot    0.000  0.004  0.185  0.243  0.000  0.000  0.000  0.000  0.000  0.432

band     5 # energy    7.53213280 # occ.  0.00000000

ion      s     py     pz     px    dxy    dyz    dz2    dxz  x2-y2    tot
    1  0.182  0.008  0.008  0.008  0.000  0.000  0.000  0.000  0.000  0.206
    2  0.182  0.008  0.008  0.008  0.000  0.000  0.000  0.000  0.000  0.206
tot    0.363  0.016  0.016  0.016  0.000  0.000  0.000  0.000  0.000  0.413

band     6 # energy    9.50896541 # occ.  0.00000000

ion      s     py     pz     px    dxy    dyz    dz2    dxz  x2-y2    tot
    1  0.000  0.002  0.041  0.058  0.000  0.000  0.000  0.000  0.000  0.101
    2  0.000  0.002  0.041  0.058  0.000  0.000  0.000  0.000  0.000  0.101
tot    0.000  0.003  0.082  0.116  0.000  0.000  0.000  0.000  0.000  0.202

band     7 # energy    9.50896735 # occ.  0.00000000

ion      s     py     pz     px    dxy    dyz    dz2    dxz  x2-y2    tot
    1  0.000  0.066  0.026  0.009  0.000  0.000  0.000  0.000  0.000  0.101
    2  0.000  0.066  0.026  0.009  0.000  0.000  0.000  0.000  0.000  0.101
tot    0.000  0.132  0.052  0.018  0.000  0.000  0.000  0.000  0.000  0.202

band     8 # energy   14.00902516 # occ.  0.00000000

ion      s     py     pz     px    dxy    dyz    dz2    dxz  x2-y2    tot
    1  0.004  0.022  0.021  0.022  0.000  0.000  0.000  0.000  0.000  0.069
    2  0.004  0.022  0.022  0.021  0.000  0.000  0.000  0.000  0.000  0.068
tot    0.008  0.043  0.043  0.043  0.000  0.000  0.000  0.000  0.000  0.137

band     9 # energy   15.15493508 # occ.  0.00000000

ion      s     py     pz     px    dxy    dyz    dz2    dxz  x2-y2    tot
    1  0.000  0.002  0.026  0.014  0.000  0.000  0.000  0.000  0.000  0.042
    2  0.000  0.002  0.026  0.014  0.000  0.000  0.000  0.000  0.000  0.042
tot    0.000  0.003  0.053  0.029  0.000  0.000  0.000  0.000  0.000  0.085


 k-point    84 :    0.36111111 0.36111111 0.36111111     weight = 0.00000000

band     1 # energy   -6.16214038 # occ.  2.00000000

ion      s     py     pz     px    dxy    dyz    dz2    dxz  x2-y2    tot
    1  0.216  0.005  0.005  0.005  0.000  0.000  0.000  0.000  0.000  0.230
    2  0.216  0.005  0.005  0.005  0.000  0.000  0.000  0.000  0.000  0.230
tot    0.433  0.009  0.009  0.009  0.000  0.000  0.000  0.000  0.000  0.460

band     2 # energy   -1.02239589 # occ.  2.00000000

ion      s     py     pz     px    dxy    dyz    dz2    dxz  x2-y2    tot
    1  0.108  0.033  0.033  0.033  0.000  0.000  0.000  0.000  0.000  0.208
    2  0.108  0.033  0.033  0.033  0.000  0.000  0.000  0.000  0.000  0.208
tot    0.217  0.067  0.067  0.067  0.000  0.000  0.000  0.000  0.000  0.417

band     3 # energy    4.11727242 # occ.  2.00000000

ion      s     py     pz     px    dxy    dyz    dz2    dxz  x2-y2    tot
    1  0.000  0.142  0.051  0.022  0.000  0.000  0.000  0.000  0.000  0.215
    2  0.000  0.142  0.051  0.022  0.000  0.000  0.000  0.000  0.000  0.215
tot    0.000  0.283  0.103  0.045  0.000  0.000  0.000  0.000  0.000  0.431

band     4 # energy    4.11727625 # occ.  2.00000000

ion      s     py     pz     px    dxy    dyz    dz2    dxz  x2-y2    tot
    1  0.000  0.002  0.092  0.121  0.000  0.000  0.000  0.000  0.000  0.215
    2  0.000  0.002  0.092  0.121  0.000  0.000  0.000  0.000  0.000  0.215
tot    0.000  0.004  0.184  0.242  0.000  0.000  0.000  0.000  0.000  0.431

band     5 # energy    7.59238426 # occ.  0.00000000

ion      s     py     pz     px    dxy    dyz    dz2    dxz  x2-y2    tot
    1  0.178  0.009  0.009  0.009  0.000  0.000  0.000  0.000  0.000  0.206
    2  0.178  0.009  0.009  0.009  0.000  0.000  0.000  0.000  0.000  0.206
tot    0.357  0.018  0.018  0.018  0.000  0.000  0.000  0.000  0.000  0.412

band     6 # energy    9.54966271 # occ.  0.00000000

ion      s     py     pz     px    dxy    dyz    dz2    dxz  x2-y2    tot
    1  0.000  0.002  0.043  0.061  0.000  0.000  0.000  0.000  0.000  0.106
    2  0.000  0.002  0.043  0.061  0.000  0.000  0.000  0.000  0.000  0.106
tot    0.000  0.003  0.087  0.122  0.000  0.000  0.000  0.000  0.000  0.212

band     7 # energy    9.54966476 # occ.  0.00000000

ion      s     py     pz     px    dxy    dyz    dz2    dxz  x2-y2    tot
    1  0.000  0.069  0.027  0.010  0.000  0.000  0.000  0.000  0.000  0.106
    2  0.000  0.069  0.027  0.010  0.000  0.000  0.000  0.000  0.000  0.106
tot    0.000  0.138  0.055  0.019  0.000  0.000  0.000  0.000  0.000  0.212

band     8 # energy   14.06114339 # occ.  0.00000000

ion      s     py     pz     px    dxy    dyz    dz2    dxz  x2-y2    tot
    1  0.004  0.027  0.026  0.027  0.000  0.000  0.000  0.000  0.000  0.085
    2  0.004  0.027  0.027  0.026  0.000  0.000  0.000  0.000  0.000  0.084
tot    0.009  0.055  0.053  0.053  0.000  0.000  0.000  0.000  0.000  0.169

band     9 # energy   14.70062700 # occ.  0.00000000

ion      s     py     pz     px    dxy    dyz    dz2    dxz  x2-y2    tot
    1  0.000  0.002  0.025  0.013  0.000  0.000  0.000  0.000  0.000  0.040
    2  0.000  0.002  0.025  0.013  0.000  0.000  0.000  0.000  0.000  0.040
tot    0.000  0.004  0.050  0.027  0.000  0.000  0.000  0.000  0.000  0.080


 k-point    85 :    0.33333333 0.33333333 0.33333333     weight = 0.00000000

band     1 # energy   -6.39167302 # occ.  2.00000000

ion      s     py     pz     px    dxy    dyz    dz2    dxz  x2-y2    tot
    1  0.215  0.004  0.004  0.004  0.000  0.000  0.000  0.000  0.000  0.228
    2  0.215  0.004  0.004  0.004  0.000  0.000  0.000  0.000  0.000  0.228
tot    0.431  0.008  0.008  0.008  0.000  0.000  0.000  0.000  0.000  0.456

band     2 # energy   -0.56025983 # occ.  2.00000000

ion      s     py     pz     px    dxy    dyz    dz2    dxz  x2-y2    tot
    1  0.107  0.035  0.035  0.035  0.000  0.000  0.000  0.000  0.000  0.211
    2  0.107  0.035  0.035  0.035  0.000  0.000  0.000  0.000  0.000  0.211
tot    0.214  0.069  0.069  0.069  0.000  0.000  0.000  0.000  0.000  0.422

band     3 # energy    4.18499929 # occ.  2.00000000

ion      s     py     pz     px    dxy    dyz    dz2    dxz  x2-y2    tot
    1  0.000  0.141  0.051  0.022  0.000  0.000  0.000  0.000  0.000  0.215
    2  0.000  0.141  0.051  0.022  0.000  0.000  0.000  0.000  0.000  0.215
tot    0.000  0.282  0.103  0.044  0.000  0.000  0.000  0.000  0.000  0.430

band     4 # energy    4.18500322 # occ.  2.00000000

ion      s     py     pz     px    dxy    dyz    dz2    dxz  x2-y2    tot
    1  0.000  0.002  0.092  0.121  0.000  0.000  0.000  0.000  0.000  0.215
    2  0.000  0.002  0.092  0.121  0.000  0.000  0.000  0.000  0.000  0.215
tot    0.000  0.004  0.184  0.242  0.000  0.000  0.000  0.000  0.000  0.430

band     5 # energy    7.66524344 # occ.  0.00000000

ion      s     py     pz     px    dxy    dyz    dz2    dxz  x2-y2    tot
    1  0.174  0.010  0.010  0.010  0.000  0.000  0.000  0.000  0.000  0.206
    2  0.174  0.010  0.010  0.010  0.000  0.000  0.000  0.000  0.000  0.206
tot    0.348  0.021  0.021  0.021  0.000  0.000  0.000  0.000  0.000  0.411

band     6 # energy    9.58624898 # occ.  0.00000000

ion      s     py     pz     px    dxy    dyz    dz2    dxz  x2-y2    tot
    1  0.000  0.002  0.046  0.065  0.000  0.000  0.000  0.000  0.000  0.112
    2  0.000  0.002  0.046  0.065  0.000  0.000  0.000  0.000  0.000  0.112
tot    0.000  0.003  0.092  0.129  0.000  0.000  0.000  0.000  0.000  0.225

band     7 # energy    9.58625119 # occ.  0.00000000

ion      s     py     pz     px    dxy    dyz    dz2    dxz  x2-y2    tot
    1  0.000  0.073  0.029  0.010  0.000  0.000  0.000  0.000  0.000  0.112
    2  0.000  0.073  0.029  0.010  0.000  0.000  0.000  0.000  0.000  0.112
tot    0.000  0.147  0.058  0.021  0.000  0.000  0.000  0.000  0.000  0.225

band     8 # energy   14.06123223 # occ.  0.00000000

ion      s     py     pz     px    dxy    dyz    dz2    dxz  x2-y2    tot
    1  0.012  0.040  0.034  0.034  0.000  0.000  0.000  0.000  0.000  0.120
    2  0.012  0.039  0.035  0.034  0.000  0.000  0.000  0.000  0.000  0.119
tot    0.024  0.079  0.070  0.067  0.000  0.000  0.000  0.000  0.000  0.239

band     9 # energy   14.29372633 # occ.  0.00000000

ion      s     py     pz     px    dxy    dyz    dz2    dxz  x2-y2    tot
    1  0.000  0.002  0.022  0.012  0.000  0.000  0.000  0.000  0.000  0.036
    2  0.000  0.002  0.022  0.012  0.000  0.000  0.000  0.000  0.000  0.036
tot    0.000  0.003  0.045  0.024  0.000  0.000  0.000  0.000  0.000  0.072


 k-point    86 :    0.30555556 0.30555556 0.30555556     weight = 0.00000000

band     1 # energy   -6.61421409 # occ.  2.00000000

ion      s     py     pz     px    dxy    dyz    dz2    dxz  x2-y2    tot
    1  0.215  0.004  0.004  0.004  0.000  0.000  0.000  0.000  0.000  0.226
    2  0.215  0.004  0.004  0.004  0.000  0.000  0.000  0.000  0.000  0.226
tot    0.430  0.007  0.007  0.007  0.000  0.000  0.000  0.000  0.000  0.452

band     2 # energy   -0.06513572 # occ.  2.00000000

ion      s     py     pz     px    dxy    dyz    dz2    dxz  x2-y2    tot
    1  0.104  0.036  0.036  0.036  0.000  0.000  0.000  0.000  0.000  0.213
    2  0.104  0.036  0.036  0.036  0.000  0.000  0.000  0.000  0.000  0.213
tot    0.209  0.073  0.073  0.073  0.000  0.000  0.000  0.000  0.000  0.426

band     3 # energy    4.26402262 # occ.  2.00000000

ion      s     py     pz     px    dxy    dyz    dz2    dxz  x2-y2    tot
    1  0.000  0.141  0.051  0.022  0.000  0.000  0.000  0.000  0.000  0.214
    2  0.000  0.141  0.051  0.022  0.000  0.000  0.000  0.000  0.000  0.214
tot    0.000  0.282  0.103  0.044  0.000  0.000  0.000  0.000  0.000  0.428

band     4 # energy    4.26402667 # occ.  2.00000000

ion      s     py     pz     px    dxy    dyz    dz2    dxz  x2-y2    tot
    1  0.000  0.002  0.091  0.121  0.000  0.000  0.000  0.000  0.000  0.214
    2  0.000  0.002  0.091  0.121  0.000  0.000  0.000  0.000  0.000  0.214
tot    0.000  0.004  0.183  0.241  0.000  0.000  0.000  0.000  0.000  0.428

band     5 # energy    7.75007157 # occ.  0.00000000

ion      s     py     pz     px    dxy    dyz    dz2    dxz  x2-y2    tot
    1  0.169  0.012  0.012  0.012  0.000  0.000  0.000  0.000  0.000  0.205
    2  0.169  0.012  0.012  0.012  0.000  0.000  0.000  0.000  0.000  0.205
tot    0.338  0.024  0.024  0.024  0.000  0.000  0.000  0.000  0.000  0.410

band     6 # energy    9.60989170 # occ.  0.00000000

ion      s     py     pz     px    dxy    dyz    dz2    dxz  x2-y2    tot
    1  0.000  0.002  0.049  0.069  0.000  0.000  0.000  0.000  0.000  0.120
    2  0.000  0.002  0.049  0.069  0.000  0.000  0.000  0.000  0.000  0.120
tot    0.000  0.004  0.098  0.138  0.000  0.000  0.000  0.000  0.000  0.240

band     7 # energy    9.60989410 # occ.  0.00000000

ion      s     py     pz     px    dxy    dyz    dz2    dxz  x2-y2    tot
    1  0.000  0.078  0.031  0.011  0.000  0.000  0.000  0.000  0.000  0.120
    2  0.000  0.078  0.031  0.011  0.000  0.000  0.000  0.000  0.000  0.120
tot    0.000  0.156  0.062  0.022  0.000  0.000  0.000  0.000  0.000  0.240

band     8 # energy   13.90330984 # occ.  0.00000000

ion      s     py     pz     px    dxy    dyz    dz2    dxz  x2-y2    tot
    1  0.034  0.051  0.034  0.033  0.000  0.000  0.000  0.000  0.000  0.151
    2  0.034  0.049  0.035  0.032  0.000  0.000  0.000  0.000  0.000  0.151
tot    0.068  0.100  0.069  0.065  0.000  0.000  0.000  0.000  0.000  0.302

band     9 # energy   13.94431748 # occ.  0.00000000

ion      s     py     pz     px    dxy    dyz    dz2    dxz  x2-y2    tot
    1  0.000  0.002  0.019  0.010  0.000  0.000  0.000  0.000  0.000  0.030
    2  0.000  0.002  0.019  0.010  0.000  0.000  0.000  0.000  0.000  0.030
tot    0.000  0.003  0.038  0.020  0.000  0.000  0.000  0.000  0.000  0.061


 k-point    87 :    0.27777778 0.27777778 0.27777778     weight = 0.00000000

band     1 # energy   -6.82490504 # occ.  2.00000000

ion      s     py     pz     px    dxy    dyz    dz2    dxz  x2-y2    tot
    1  0.215  0.003  0.003  0.003  0.000  0.000  0.000  0.000  0.000  0.224
    2  0.215  0.003  0.003  0.003  0.000  0.000  0.000  0.000  0.000  0.224
tot    0.430  0.006  0.006  0.006  0.000  0.000  0.000  0.000  0.000  0.449

band     2 # energy    0.45662765 # occ.  2.00000000

ion      s     py     pz     px    dxy    dyz    dz2    dxz  x2-y2    tot
    1  0.101  0.038  0.038  0.038  0.000  0.000  0.000  0.000  0.000  0.215
    2  0.101  0.038  0.038  0.038  0.000  0.000  0.000  0.000  0.000  0.215
tot    0.202  0.076  0.076  0.076  0.000  0.000  0.000  0.000  0.000  0.430

band     3 # energy    4.35359171 # occ.  2.00000000

ion      s     py     pz     px    dxy    dyz    dz2    dxz  x2-y2    tot
    1  0.000  0.140  0.051  0.022  0.000  0.000  0.000  0.000  0.000  0.214
    2  0.000  0.140  0.051  0.022  0.000  0.000  0.000  0.000  0.000  0.214
tot    0.000  0.281  0.103  0.044  0.000  0.000  0.000  0.000  0.000  0.427

band     4 # energy    4.35359591 # occ.  2.00000000

ion      s     py     pz     px    dxy    dyz    dz2    dxz  x2-y2    tot
    1  0.000  0.002  0.091  0.120  0.000  0.000  0.000  0.000  0.000  0.214
    2  0.000  0.002  0.091  0.120  0.000  0.000  0.000  0.000  0.000  0.214
tot    0.000  0.004  0.182  0.241  0.000  0.000  0.000  0.000  0.000  0.427

band     5 # energy    7.84592838 # occ.  0.00000000

ion      s     py     pz     px    dxy    dyz    dz2    dxz  x2-y2    tot
    1  0.163  0.014  0.014  0.014  0.000  0.000  0.000  0.000  0.000  0.205
    2  0.163  0.014  0.014  0.014  0.000  0.000  0.000  0.000  0.000  0.205
tot    0.327  0.028  0.028  0.028  0.000  0.000  0.000  0.000  0.000  0.409

band     6 # energy    9.61040037 # occ.  0.00000000

ion      s     py     pz     px    dxy    dyz    dz2    dxz  x2-y2    tot
    1  0.000  0.002  0.052  0.074  0.000  0.000  0.000  0.000  0.000  0.128
    2  0.000  0.002  0.052  0.074  0.000  0.000  0.000  0.000  0.000  0.128
tot    0.000  0.004  0.104  0.148  0.000  0.000  0.000  0.000  0.000  0.256

band     7 # energy    9.61040303 # occ.  0.00000000

ion      s     py     pz     px    dxy    dyz    dz2    dxz  x2-y2    tot
    1  0.000  0.083  0.033  0.012  0.000  0.000  0.000  0.000  0.000  0.128
    2  0.000  0.083  0.033  0.012  0.000  0.000  0.000  0.000  0.000  0.128
tot    0.000  0.167  0.067  0.023  0.000  0.000  0.000  0.000  0.000  0.256

band     8 # energy   13.54953112 # occ.  0.00000000

ion      s     py     pz     px    dxy    dyz    dz2    dxz  x2-y2    tot
    1  0.079  0.053  0.045  0.044  0.000  0.000  0.000  0.000  0.000  0.220
    2  0.078  0.052  0.045  0.043  0.000  0.000  0.000  0.000  0.000  0.219
tot    0.157  0.105  0.090  0.087  0.000  0.000  0.000  0.000  0.000  0.439

band     9 # energy   13.66322877 # occ.  0.00000000

ion      s     py     pz     px    dxy    dyz    dz2    dxz  x2-y2    tot
    1  0.000  0.001  0.015  0.008  0.000  0.000  0.000  0.000  0.000  0.024
    2  0.000  0.001  0.015  0.008  0.000  0.000  0.000  0.000  0.000  0.024
tot    0.000  0.003  0.030  0.015  0.000  0.000  0.000  0.000  0.000  0.047


 k-point    88 :    0.25000000 0.25000000 0.25000000     weight = 0.00000000

band     1 # energy   -7.02051476 # occ.  2.00000000

ion      s     py     pz     px    dxy    dyz    dz2    dxz  x2-y2    tot
    1  0.215  0.003  0.003  0.003  0.000  0.000  0.000  0.000  0.000  0.223
    2  0.215  0.003  0.003  0.003  0.000  0.000  0.000  0.000  0.000  0.223
tot    0.430  0.005  0.005  0.005  0.000  0.000  0.000  0.000  0.000  0.446

band     2 # energy    0.99995880 # occ.  2.00000000

ion      s     py     pz     px    dxy    dyz    dz2    dxz  x2-y2    tot
    1  0.096  0.040  0.040  0.040  0.000  0.000  0.000  0.000  0.000  0.217
    2  0.096  0.040  0.040  0.040  0.000  0.000  0.000  0.000  0.000  0.217
tot    0.192  0.080  0.080  0.080  0.000  0.000  0.000  0.000  0.000  0.434

band     3 # energy    4.45266025 # occ.  2.00000000

ion      s     py     pz     px    dxy    dyz    dz2    dxz  x2-y2    tot
    1  0.000  0.140  0.051  0.022  0.000  0.000  0.000  0.000  0.000  0.213
    2  0.000  0.140  0.051  0.022  0.000  0.000  0.000  0.000  0.000  0.213
tot    0.000  0.280  0.103  0.044  0.000  0.000  0.000  0.000  0.000  0.426

band     4 # energy    4.45266462 # occ.  2.00000000

ion      s     py     pz     px    dxy    dyz    dz2    dxz  x2-y2    tot
    1  0.000  0.002  0.091  0.120  0.000  0.000  0.000  0.000  0.000  0.213
    2  0.000  0.002  0.091  0.120  0.000  0.000  0.000  0.000  0.000  0.213
tot    0.000  0.004  0.182  0.241  0.000  0.000  0.000  0.000  0.000  0.426

band     5 # energy    7.95151899 # occ.  0.00000000

ion      s     py     pz     px    dxy    dyz    dz2    dxz  x2-y2    tot
    1  0.156  0.016  0.016  0.016  0.000  0.000  0.000  0.000  0.000  0.204
    2  0.156  0.016  0.016  0.016  0.000  0.000  0.000  0.000  0.000  0.204
tot    0.313  0.032  0.032  0.032  0.000  0.000  0.000  0.000  0.000  0.408

band     6 # energy    9.57810787 # occ.  0.00000000

ion      s     py     pz     px    dxy    dyz    dz2    dxz  x2-y2    tot
    1  0.000  0.002  0.055  0.079  0.000  0.000  0.000  0.000  0.000  0.136
    2  0.000  0.002  0.055  0.079  0.000  0.000  0.000  0.000  0.000  0.136
tot    0.000  0.004  0.111  0.157  0.000  0.000  0.000  0.000  0.000  0.273

band     7 # energy    9.57811081 # occ.  0.00000000

ion      s     py     pz     px    dxy    dyz    dz2    dxz  x2-y2    tot
    1  0.000  0.089  0.036  0.012  0.000  0.000  0.000  0.000  0.000  0.136
    2  0.000  0.089  0.036  0.012  0.000  0.000  0.000  0.000  0.000  0.136
tot    0.000  0.177  0.071  0.024  0.000  0.000  0.000  0.000  0.000  0.273

band     8 # energy   13.08069993 # occ.  0.00000000

ion      s     py     pz     px    dxy    dyz    dz2    dxz  x2-y2    tot
    1  0.116  0.049  0.048  0.048  0.000  0.000  0.000  0.000  0.000  0.261
    2  0.116  0.049  0.048  0.048  0.000  0.000  0.000  0.000  0.000  0.261
tot    0.232  0.098  0.096  0.096  0.000  0.000  0.000  0.000  0.000  0.522

band     9 # energy   13.46067501 # occ.  0.00000000

ion      s     py     pz     px    dxy    dyz    dz2    dxz  x2-y2    tot
    1  0.000  0.001  0.011  0.005  0.000  0.000  0.000  0.000  0.000  0.017
    2  0.000  0.001  0.011  0.005  0.000  0.000  0.000  0.000  0.000  0.017
tot    0.000  0.002  0.021  0.011  0.000  0.000  0.000  0.000  0.000  0.034


 k-point    89 :    0.22222222 0.22222222 0.22222222     weight = 0.00000000

band     1 # energy   -7.19887036 # occ.  2.00000000

ion      s     py     pz     px    dxy    dyz    dz2    dxz  x2-y2    tot
    1  0.215  0.002  0.002  0.002  0.000  0.000  0.000  0.000  0.000  0.222
    2  0.215  0.002  0.002  0.002  0.000  0.000  0.000  0.000  0.000  0.222
tot    0.431  0.004  0.004  0.004  0.000  0.000  0.000  0.000  0.000  0.444

band     2 # energy    1.56007174 # occ.  2.00000000

ion      s     py     pz     px    dxy    dyz    dz2    dxz  x2-y2    tot
    1  0.091  0.043  0.043  0.043  0.000  0.000  0.000  0.000  0.000  0.218
    2  0.091  0.043  0.043  0.043  0.000  0.000  0.000  0.000  0.000  0.218
tot    0.181  0.085  0.085  0.085  0.000  0.000  0.000  0.000  0.000  0.436

band     3 # energy    4.55971044 # occ.  2.00000000

ion      s     py     pz     px    dxy    dyz    dz2    dxz  x2-y2    tot
    1  0.000  0.140  0.051  0.022  0.000  0.000  0.000  0.000  0.000  0.213
    2  0.000  0.140  0.051  0.022  0.000  0.000  0.000  0.000  0.000  0.213
tot    0.000  0.279  0.103  0.043  0.000  0.000  0.000  0.000  0.000  0.426

band     4 # energy    4.55971503 # occ.  2.00000000

ion      s     py     pz     px    dxy    dyz    dz2    dxz  x2-y2    tot
    1  0.000  0.002  0.090  0.120  0.000  0.000  0.000  0.000  0.000  0.213
    2  0.000  0.002  0.090  0.120  0.000  0.000  0.000  0.000  0.000  0.213
tot    0.000  0.004  0.181  0.240  0.000  0.000  0.000  0.000  0.000  0.426

band     5 # energy    8.06488350 # occ.  0.00000000

ion      s     py     pz     px    dxy    dyz    dz2    dxz  x2-y2    tot
    1  0.148  0.018  0.018  0.018  0.000  0.000  0.000  0.000  0.000  0.203
    2  0.148  0.018  0.018  0.018  0.000  0.000  0.000  0.000  0.000  0.203
tot    0.297  0.036  0.036  0.036  0.000  0.000  0.000  0.000  0.000  0.406

band     6 # energy    9.50700011 # occ.  0.00000000

ion      s     py     pz     px    dxy    dyz    dz2    dxz  x2-y2    tot
    1  0.000  0.002  0.058  0.083  0.000  0.000  0.000  0.000  0.000  0.143
    2  0.000  0.002  0.058  0.083  0.000  0.000  0.000  0.000  0.000  0.143
tot    0.000  0.005  0.116  0.166  0.000  0.000  0.000  0.000  0.000  0.287

band     7 # energy    9.50700336 # occ.  0.00000000

ion      s     py     pz     px    dxy    dyz    dz2    dxz  x2-y2    tot
    1  0.000  0.093  0.037  0.013  0.000  0.000  0.000  0.000  0.000  0.143
    2  0.000  0.093  0.037  0.013  0.000  0.000  0.000  0.000  0.000  0.143
tot    0.000  0.186  0.075  0.026  0.000  0.000  0.000  0.000  0.000  0.287

band     8 # energy   12.57587231 # occ.  0.00000000

ion      s     py     pz     px    dxy    dyz    dz2    dxz  x2-y2    tot
    1  0.139  0.045  0.045  0.045  0.000  0.000  0.000  0.000  0.000  0.274
    2  0.139  0.045  0.045  0.045  0.000  0.000  0.000  0.000  0.000  0.274
tot    0.277  0.090  0.090  0.090  0.000  0.000  0.000  0.000  0.000  0.548

band     9 # energy   13.34269626 # occ.  0.00000000

ion      s     py     pz     px    dxy    dyz    dz2    dxz  x2-y2    tot
    1  0.000  0.000  0.007  0.004  0.000  0.000  0.000  0.000  0.000  0.011
    2  0.000  0.000  0.007  0.004  0.000  0.000  0.000  0.000  0.000  0.011
tot    0.000  0.001  0.014  0.007  0.000  0.000  0.000  0.000  0.000  0.022


 k-point    90 :    0.19444444 0.19444444 0.19444444     weight = 0.00000000

band     1 # energy   -7.35849840 # occ.  2.00000000

ion      s     py     pz     px    dxy    dyz    dz2    dxz  x2-y2    tot
    1  0.216  0.002  0.002  0.002  0.000  0.000  0.000  0.000  0.000  0.221
    2  0.216  0.002  0.002  0.002  0.000  0.000  0.000  0.000  0.000  0.221
tot    0.432  0.003  0.003  0.003  0.000  0.000  0.000  0.000  0.000  0.442

band     2 # energy    2.13183673 # occ.  2.00000000

ion      s     py     pz     px    dxy    dyz    dz2    dxz  x2-y2    tot
    1  0.084  0.045  0.045  0.045  0.000  0.000  0.000  0.000  0.000  0.219
    2  0.084  0.045  0.045  0.045  0.000  0.000  0.000  0.000  0.000  0.219
tot    0.168  0.090  0.090  0.090  0.000  0.000  0.000  0.000  0.000  0.439

band     3 # energy    4.67260777 # occ.  2.00000000

ion      s     py     pz     px    dxy    dyz    dz2    dxz  x2-y2    tot
    1  0.000  0.140  0.052  0.021  0.000  0.000  0.000  0.000  0.000  0.213
    2  0.000  0.140  0.052  0.021  0.000  0.000  0.000  0.000  0.000  0.213
tot    0.000  0.279  0.103  0.043  0.000  0.000  0.000  0.000  0.000  0.425

band     4 # energy    4.67261260 # occ.  2.00000000

ion      s     py     pz     px    dxy    dyz    dz2    dxz  x2-y2    tot
    1  0.000  0.002  0.090  0.120  0.000  0.000  0.000  0.000  0.000  0.213
    2  0.000  0.002  0.090  0.120  0.000  0.000  0.000  0.000  0.000  0.213
tot    0.000  0.004  0.180  0.240  0.000  0.000  0.000  0.000  0.000  0.425

band     5 # energy    8.18328775 # occ.  0.00000000

ion      s     py     pz     px    dxy    dyz    dz2    dxz  x2-y2    tot
    1  0.139  0.021  0.021  0.021  0.000  0.000  0.000  0.000  0.000  0.202
    2  0.139  0.021  0.021  0.021  0.000  0.000  0.000  0.000  0.000  0.202
tot    0.278  0.042  0.042  0.042  0.000  0.000  0.000  0.000  0.000  0.403

band     6 # energy    9.39762944 # occ.  0.00000000

ion      s     py     pz     px    dxy    dyz    dz2    dxz  x2-y2    tot
    1  0.000  0.002  0.060  0.086  0.000  0.000  0.000  0.000  0.000  0.148
    2  0.000  0.002  0.060  0.086  0.000  0.000  0.000  0.000  0.000  0.148
tot    0.000  0.005  0.120  0.172  0.000  0.000  0.000  0.000  0.000  0.297

band     7 # energy    9.39763301 # occ.  0.00000000

ion      s     py     pz     px    dxy    dyz    dz2    dxz  x2-y2    tot
    1  0.000  0.097  0.039  0.013  0.000  0.000  0.000  0.000  0.000  0.148
    2  0.000  0.097  0.039  0.013  0.000  0.000  0.000  0.000  0.000  0.148
tot    0.000  0.193  0.078  0.026  0.000  0.000  0.000  0.000  0.000  0.297

band     8 # energy   12.05312985 # occ.  0.00000000

ion      s     py     pz     px    dxy    dyz    dz2    dxz  x2-y2    tot
    1  0.158  0.041  0.041  0.042  0.000  0.000  0.000  0.000  0.000  0.283
    2  0.159  0.041  0.041  0.042  0.000  0.000  0.000  0.000  0.000  0.283
tot    0.317  0.083  0.083  0.083  0.000  0.000  0.000  0.000  0.000  0.566

band     9 # energy   13.30831280 # occ.  0.00000000

ion      s     py     pz     px    dxy    dyz    dz2    dxz  x2-y2    tot
    1  0.000  0.000  0.004  0.002  0.000  0.000  0.000  0.000  0.000  0.007
    2  0.000  0.000  0.004  0.002  0.000  0.000  0.000  0.000  0.000  0.007
tot    0.000  0.000  0.008  0.005  0.000  0.000  0.000  0.000  0.000  0.013


 k-point    91 :    0.16666667 0.16666667 0.16666667     weight = 0.00000000

band     1 # energy   -7.49836652 # occ.  2.00000000

ion      s     py     pz     px    dxy    dyz    dz2    dxz  x2-y2    tot
    1  0.216  0.001  0.001  0.001  0.000  0.000  0.000  0.000  0.000  0.220
    2  0.216  0.001  0.001  0.001  0.000  0.000  0.000  0.000  0.000  0.220
tot    0.433  0.003  0.003  0.003  0.000  0.000  0.000  0.000  0.000  0.441

band     2 # energy    2.70899726 # occ.  2.00000000

ion      s     py     pz     px    dxy    dyz    dz2    dxz  x2-y2    tot
    1  0.076  0.048  0.048  0.048  0.000  0.000  0.000  0.000  0.000  0.220
    2  0.076  0.048  0.048  0.048  0.000  0.000  0.000  0.000  0.000  0.220
tot    0.151  0.096  0.096  0.096  0.000  0.000  0.000  0.000  0.000  0.440

band     3 # energy    4.78849199 # occ.  2.00000000

ion      s     py     pz     px    dxy    dyz    dz2    dxz  x2-y2    tot
    1  0.000  0.140  0.052  0.021  0.000  0.000  0.000  0.000  0.000  0.213
    2  0.000  0.140  0.052  0.021  0.000  0.000  0.000  0.000  0.000  0.213
tot    0.000  0.279  0.103  0.043  0.000  0.000  0.000  0.000  0.000  0.425

band     4 # energy    4.78849711 # occ.  2.00000000

ion      s     py     pz     px    dxy    dyz    dz2    dxz  x2-y2    tot
    1  0.000  0.002  0.090  0.120  0.000  0.000  0.000  0.000  0.000  0.213
    2  0.000  0.002  0.090  0.120  0.000  0.000  0.000  0.000  0.000  0.213
tot    0.000  0.004  0.180  0.241  0.000  0.000  0.000  0.000  0.000  0.425

band     5 # energy    8.30283551 # occ.  0.00000000

ion      s     py     pz     px    dxy    dyz    dz2    dxz  x2-y2    tot
    1  0.127  0.024  0.024  0.024  0.000  0.000  0.000  0.000  0.000  0.200
    2  0.127  0.024  0.024  0.024  0.000  0.000  0.000  0.000  0.000  0.200
tot    0.255  0.048  0.048  0.048  0.000  0.000  0.000  0.000  0.000  0.399

band     6 # energy    9.25779231 # occ.  0.00000000

ion      s     py     pz     px    dxy    dyz    dz2    dxz  x2-y2    tot
    1  0.000  0.002  0.061  0.088  0.000  0.000  0.000  0.000  0.000  0.151
    2  0.000  0.002  0.061  0.088  0.000  0.000  0.000  0.000  0.000  0.151
tot    0.000  0.005  0.122  0.175  0.000  0.000  0.000  0.000  0.000  0.303

band     7 # energy    9.25779622 # occ.  0.00000000

ion      s     py     pz     px    dxy    dyz    dz2    dxz  x2-y2    tot
    1  0.000  0.098  0.040  0.013  0.000  0.000  0.000  0.000  0.000  0.151
    2  0.000  0.098  0.040  0.013  0.000  0.000  0.000  0.000  0.000  0.151
tot    0.000  0.197  0.079  0.027  0.000  0.000  0.000  0.000  0.000  0.303

band     8 # energy   11.52294096 # occ.  0.00000000

ion      s     py     pz     px    dxy    dyz    dz2    dxz  x2-y2    tot
    1  0.178  0.037  0.037  0.038  0.000  0.000  0.000  0.000  0.000  0.291
    2  0.178  0.038  0.038  0.038  0.000  0.000  0.000  0.000  0.000  0.291
tot    0.357  0.075  0.075  0.075  0.000  0.000  0.000  0.000  0.000  0.582

band     9 # energy   13.34838212 # occ.  0.00000000

ion      s     py     pz     px    dxy    dyz    dz2    dxz  x2-y2    tot
    1  0.000  0.000  0.002  0.002  0.000  0.000  0.000  0.000  0.000  0.004
    2  0.000  0.000  0.002  0.002  0.000  0.000  0.000  0.000  0.000  0.004
tot    0.000  0.000  0.005  0.003  0.000  0.000  0.000  0.000  0.000  0.008


 k-point    92 :    0.13888889 0.13888889 0.13888889     weight = 0.00000000

band     1 # energy   -7.61768464 # occ.  2.00000000

ion      s     py     pz     px    dxy    dyz    dz2    dxz  x2-y2    tot
    1  0.217  0.001  0.001  0.001  0.000  0.000  0.000  0.000  0.000  0.220
    2  0.217  0.001  0.001  0.001  0.000  0.000  0.000  0.000  0.000  0.220
tot    0.434  0.002  0.002  0.002  0.000  0.000  0.000  0.000  0.000  0.439

band     2 # energy    3.28308591 # occ.  2.00000000

ion      s     py     pz     px    dxy    dyz    dz2    dxz  x2-y2    tot
    1  0.066  0.052  0.052  0.052  0.000  0.000  0.000  0.000  0.000  0.221
    2  0.066  0.052  0.052  0.052  0.000  0.000  0.000  0.000  0.000  0.221
tot    0.132  0.103  0.103  0.103  0.000  0.000  0.000  0.000  0.000  0.441

band     3 # energy    4.90346919 # occ.  2.00000000

ion      s     py     pz     px    dxy    dyz    dz2    dxz  x2-y2    tot
    1  0.000  0.140  0.052  0.021  0.000  0.000  0.000  0.000  0.000  0.213
    2  0.000  0.140  0.052  0.021  0.000  0.000  0.000  0.000  0.000  0.213
tot    0.000  0.279  0.104  0.042  0.000  0.000  0.000  0.000  0.000  0.426

band     4 # energy    4.90347463 # occ.  2.00000000

ion      s     py     pz     px    dxy    dyz    dz2    dxz  x2-y2    tot
    1  0.000  0.002  0.090  0.121  0.000  0.000  0.000  0.000  0.000  0.213
    2  0.000  0.002  0.090  0.121  0.000  0.000  0.000  0.000  0.000  0.213
tot    0.000  0.005  0.180  0.241  0.000  0.000  0.000  0.000  0.000  0.426

band     5 # energy    8.41793356 # occ.  0.00000000

ion      s     py     pz     px    dxy    dyz    dz2    dxz  x2-y2    tot
    1  0.113  0.028  0.028  0.028  0.000  0.000  0.000  0.000  0.000  0.196
    2  0.113  0.028  0.028  0.028  0.000  0.000  0.000  0.000  0.000  0.196
tot    0.225  0.056  0.056  0.056  0.000  0.000  0.000  0.000  0.000  0.393

band     6 # energy    9.10092601 # occ.  0.00000000

ion      s     py     pz     px    dxy    dyz    dz2    dxz  x2-y2    tot
    1  0.000  0.003  0.062  0.088  0.000  0.000  0.000  0.000  0.000  0.153
    2  0.000  0.003  0.062  0.088  0.000  0.000  0.000  0.000  0.000  0.153
tot    0.000  0.005  0.123  0.177  0.000  0.000  0.000  0.000  0.000  0.305

band     7 # energy    9.10093027 # occ.  0.00000000

ion      s     py     pz     px    dxy    dyz    dz2    dxz  x2-y2    tot
    1  0.000  0.099  0.040  0.013  0.000  0.000  0.000  0.000  0.000  0.153
    2  0.000  0.099  0.040  0.013  0.000  0.000  0.000  0.000  0.000  0.153
tot    0.000  0.198  0.080  0.026  0.000  0.000  0.000  0.000  0.000  0.305

band     8 # energy   10.99486024 # occ.  0.00000000

ion      s     py     pz     px    dxy    dyz    dz2    dxz  x2-y2    tot
    1  0.201  0.033  0.033  0.033  0.000  0.000  0.000  0.000  0.000  0.299
    2  0.201  0.033  0.033  0.033  0.000  0.000  0.000  0.000  0.000  0.300
tot    0.402  0.066  0.066  0.066  0.000  0.000  0.000  0.000  0.000  0.599

band     9 # energy   13.44856983 # occ.  0.00000000

ion      s     py     pz     px    dxy    dyz    dz2    dxz  x2-y2    tot
    1  0.000  0.000  0.001  0.001  0.000  0.000  0.000  0.000  0.000  0.002
    2  0.000  0.000  0.001  0.001  0.000  0.000  0.000  0.000  0.000  0.002
tot    0.000  0.000  0.003  0.002  0.000  0.000  0.000  0.000  0.000  0.005


 k-point    93 :    0.11111111 0.11111111 0.11111111     weight = 0.00000000

band     1 # energy   -7.71590637 # occ.  2.00000000

ion      s     py     pz     px    dxy    dyz    dz2    dxz  x2-y2    tot
    1  0.217  0.001  0.001  0.001  0.000  0.000  0.000  0.000  0.000  0.219
    2  0.217  0.001  0.001  0.001  0.000  0.000  0.000  0.000  0.000  0.219
tot    0.435  0.001  0.001  0.001  0.000  0.000  0.000  0.000  0.000  0.438

band     2 # energy    3.84135893 # occ.  2.00000000

ion      s     py     pz     px    dxy    dyz    dz2    dxz  x2-y2    tot
    1  0.054  0.056  0.056  0.056  0.000  0.000  0.000  0.000  0.000  0.220
    2  0.054  0.056  0.056  0.056  0.000  0.000  0.000  0.000  0.000  0.220
tot    0.108  0.111  0.111  0.111  0.000  0.000  0.000  0.000  0.000  0.441

band     3 # energy    5.01243858 # occ.  2.00000000

ion      s     py     pz     px    dxy    dyz    dz2    dxz  x2-y2    tot
    1  0.000  0.140  0.052  0.021  0.000  0.000  0.000  0.000  0.000  0.213
    2  0.000  0.140  0.052  0.021  0.000  0.000  0.000  0.000  0.000  0.213
tot    0.000  0.280  0.105  0.042  0.000  0.000  0.000  0.000  0.000  0.426

band     4 # energy    5.01244438 # occ.  2.00000000

ion      s     py     pz     px    dxy    dyz    dz2    dxz  x2-y2    tot
    1  0.000  0.002  0.090  0.121  0.000  0.000  0.000  0.000  0.000  0.213
    2  0.000  0.002  0.090  0.121  0.000  0.000  0.000  0.000  0.000  0.213
tot    0.000  0.005  0.180  0.242  0.000  0.000  0.000  0.000  0.000  0.426

band     5 # energy    8.52001007 # occ.  0.00000000

ion      s     py     pz     px    dxy    dyz    dz2    dxz  x2-y2    tot
    1  0.093  0.032  0.032  0.032  0.000  0.000  0.000  0.000  0.000  0.190
    2  0.093  0.032  0.032  0.032  0.000  0.000  0.000  0.000  0.000  0.190
tot    0.186  0.065  0.065  0.065  0.000  0.000  0.000  0.000  0.000  0.381

band     6 # energy    8.94253182 # occ.  0.00000000

ion      s     py     pz     px    dxy    dyz    dz2    dxz  x2-y2    tot
    1  0.000  0.002  0.063  0.087  0.000  0.000  0.000  0.000  0.000  0.152
    2  0.000  0.002  0.063  0.087  0.000  0.000  0.000  0.000  0.000  0.152
tot    0.000  0.004  0.126  0.175  0.000  0.000  0.000  0.000  0.000  0.305

band     7 # energy    8.94253648 # occ.  0.00000000

ion      s     py     pz     px    dxy    dyz    dz2    dxz  x2-y2    tot
    1  0.000  0.100  0.038  0.014  0.000  0.000  0.000  0.000  0.000  0.152
    2  0.000  0.100  0.038  0.014  0.000  0.000  0.000  0.000  0.000  0.152
tot    0.000  0.199  0.077  0.029  0.000  0.000  0.000  0.000  0.000  0.305

band     8 # energy   10.48322071 # occ.  0.00000000

ion      s     py     pz     px    dxy    dyz    dz2    dxz  x2-y2    tot
    1  0.229  0.027  0.027  0.027  0.000  0.000  0.000  0.000  0.000  0.310
    2  0.229  0.027  0.027  0.027  0.000  0.000  0.000  0.000  0.000  0.311
tot    0.458  0.054  0.054  0.054  0.000  0.000  0.000  0.000  0.000  0.621

band     9 # energy   13.58874779 # occ.  0.00000000

ion      s     py     pz     px    dxy    dyz    dz2    dxz  x2-y2    tot
    1  0.000  0.000  0.001  0.001  0.000  0.000  0.000  0.000  0.000  0.002
    2  0.000  0.000  0.001  0.001  0.000  0.000  0.000  0.000  0.000  0.002
tot    0.000  0.000  0.002  0.002  0.000  0.000  0.000  0.000  0.000  0.004


 k-point    94 :    0.08333333 0.08333333 0.08333333     weight = 0.00000000

band     1 # energy   -7.79266130 # occ.  2.00000000

ion      s     py     pz     px    dxy    dyz    dz2    dxz  x2-y2    tot
    1  0.218  0.000  0.000  0.000  0.000  0.000  0.000  0.000  0.000  0.219
    2  0.218  0.000  0.000  0.000  0.000  0.000  0.000  0.000  0.000  0.219
tot    0.435  0.001  0.001  0.001  0.000  0.000  0.000  0.000  0.000  0.437

band     2 # energy    4.36301346 # occ.  2.00000000

ion      s     py     pz     px    dxy    dyz    dz2    dxz  x2-y2    tot
    1  0.039  0.060  0.060  0.060  0.000  0.000  0.000  0.000  0.000  0.220
    2  0.039  0.060  0.060  0.060  0.000  0.000  0.000  0.000  0.000  0.220
tot    0.079  0.120  0.120  0.120  0.000  0.000  0.000  0.000  0.000  0.439

band     3 # energy    5.10903130 # occ.  2.00000000

ion      s     py     pz     px    dxy    dyz    dz2    dxz  x2-y2    tot
    1  0.000  0.140  0.053  0.021  0.000  0.000  0.000  0.000  0.000  0.214
    2  0.000  0.140  0.053  0.021  0.000  0.000  0.000  0.000  0.000  0.214
tot    0.000  0.280  0.105  0.042  0.000  0.000  0.000  0.000  0.000  0.428

band     4 # energy    5.10903744 # occ.  2.00000000

ion      s     py     pz     px    dxy    dyz    dz2    dxz  x2-y2    tot
    1  0.000  0.002  0.090  0.121  0.000  0.000  0.000  0.000  0.000  0.214
    2  0.000  0.002  0.090  0.121  0.000  0.000  0.000  0.000  0.000  0.214
tot    0.000  0.005  0.180  0.243  0.000  0.000  0.000  0.000  0.000  0.428

band     5 # energy    8.59624950 # occ.  0.00000000

ion      s     py     pz     px    dxy    dyz    dz2    dxz  x2-y2    tot
    1  0.066  0.038  0.038  0.038  0.000  0.000  0.000  0.000  0.000  0.180
    2  0.066  0.038  0.038  0.038  0.000  0.000  0.000  0.000  0.000  0.180
tot    0.131  0.076  0.076  0.076  0.000  0.000  0.000  0.000  0.000  0.359

band     6 # energy    8.79824562 # occ.  0.00000000

ion      s     py     pz     px    dxy    dyz    dz2    dxz  x2-y2    tot
    1  0.000  0.002  0.062  0.088  0.000  0.000  0.000  0.000  0.000  0.152
    2  0.000  0.002  0.062  0.088  0.000  0.000  0.000  0.000  0.000  0.152
tot    0.000  0.005  0.124  0.175  0.000  0.000  0.000  0.000  0.000  0.304

band     7 # energy    8.79825057 # occ.  0.00000000

ion      s     py     pz     px    dxy    dyz    dz2    dxz  x2-y2    tot
    1  0.000  0.099  0.039  0.014  0.000  0.000  0.000  0.000  0.000  0.152
    2  0.000  0.099  0.039  0.014  0.000  0.000  0.000  0.000  0.000  0.152
tot    0.000  0.198  0.079  0.027  0.000  0.000  0.000  0.000  0.000  0.304

band     8 # energy   10.01354315 # occ.  0.00000000

ion      s     py     pz     px    dxy    dyz    dz2    dxz  x2-y2    tot
    1  0.267  0.019  0.019  0.020  0.000  0.000  0.000  0.000  0.000  0.326
    2  0.267  0.019  0.019  0.020  0.000  0.000  0.000  0.000  0.000  0.326
tot    0.535  0.039  0.039  0.039  0.000  0.000  0.000  0.000  0.000  0.652

band     9 # energy   13.74640491 # occ.  0.00000000

ion      s     py     pz     px    dxy    dyz    dz2    dxz  x2-y2    tot
    1  0.000  0.000  0.001  0.001  0.000  0.000  0.000  0.000  0.000  0.001
    2  0.000  0.000  0.001  0.001  0.000  0.000  0.000  0.000  0.000  0.001
tot    0.000  0.000  0.001  0.001  0.000  0.000  0.000  0.000  0.000  0.003


 k-point    95 :    0.05555556 0.05555556 0.05555556     weight = 0.00000000

band     1 # energy   -7.84766737 # occ.  2.00000000

ion      s     py     pz     px    dxy    dyz    dz2    dxz  x2-y2    tot
    1  0.218  0.000  0.000  0.000  0.000  0.000  0.000  0.000  0.000  0.218
    2  0.218  0.000  0.000  0.000  0.000  0.000  0.000  0.000  0.000  0.218
tot    0.436  0.000  0.000  0.000  0.000  0.000  0.000  0.000  0.000  0.437

band     2 # energy    4.81293589 # occ.  2.00000000

ion      s     py     pz     px    dxy    dyz    dz2    dxz  x2-y2    tot
    1  0.023  0.065  0.065  0.065  0.000  0.000  0.000  0.000  0.000  0.218
    2  0.023  0.065  0.065  0.065  0.000  0.000  0.000  0.000  0.000  0.218
tot    0.045  0.130  0.130  0.130  0.000  0.000  0.000  0.000  0.000  0.436

band     3 # energy    5.18595856 # occ.  2.00000000

ion      s     py     pz     px    dxy    dyz    dz2    dxz  x2-y2    tot
    1  0.000  0.141  0.053  0.021  0.000  0.000  0.000  0.000  0.000  0.214
    2  0.000  0.141  0.053  0.021  0.000  0.000  0.000  0.000  0.000  0.214
tot    0.000  0.281  0.106  0.042  0.000  0.000  0.000  0.000  0.000  0.429

band     4 # energy    5.18596499 # occ.  2.00000000

ion      s     py     pz     px    dxy    dyz    dz2    dxz  x2-y2    tot
    1  0.000  0.002  0.090  0.122  0.000  0.000  0.000  0.000  0.000  0.214
    2  0.000  0.002  0.090  0.122  0.000  0.000  0.000  0.000  0.000  0.214
tot    0.000  0.005  0.180  0.244  0.000  0.000  0.000  0.000  0.000  0.429

band     5 # energy    8.62792981 # occ.  0.00000000

ion      s     py     pz     px    dxy    dyz    dz2    dxz  x2-y2    tot
    1  0.030  0.045  0.045  0.045  0.000  0.000  0.000  0.000  0.000  0.164
    2  0.030  0.045  0.045  0.045  0.000  0.000  0.000  0.000  0.000  0.164
tot    0.061  0.089  0.089  0.089  0.000  0.000  0.000  0.000  0.000  0.328

band     6 # energy    8.68249251 # occ.  0.00000000

ion      s     py     pz     px    dxy    dyz    dz2    dxz  x2-y2    tot
    1  0.000  0.003  0.061  0.088  0.000  0.000  0.000  0.000  0.000  0.151
    2  0.000  0.003  0.061  0.088  0.000  0.000  0.000  0.000  0.000  0.151
tot    0.000  0.005  0.121  0.175  0.000  0.000  0.000  0.000  0.000  0.302

band     7 # energy    8.68249778 # occ.  0.00000000

ion      s     py     pz     px    dxy    dyz    dz2    dxz  x2-y2    tot
    1  0.000  0.098  0.040  0.013  0.000  0.000  0.000  0.000  0.000  0.151
    2  0.000  0.098  0.040  0.013  0.000  0.000  0.000  0.000  0.000  0.151
tot    0.000  0.196  0.080  0.026  0.000  0.000  0.000  0.000  0.000  0.302

band     8 # energy    9.63162284 # occ.  0.00000000

ion      s     py     pz     px    dxy    dyz    dz2    dxz  x2-y2    tot
    1  0.316  0.010  0.010  0.010  0.000  0.000  0.000  0.000  0.000  0.346
    2  0.316  0.010  0.010  0.010  0.000  0.000  0.000  0.000  0.000  0.346
tot    0.632  0.020  0.020  0.020  0.000  0.000  0.000  0.000  0.000  0.692

band     9 # energy   13.89609074 # occ.  0.00000000

ion      s     py     pz     px    dxy    dyz    dz2    dxz  x2-y2    tot
    1  0.001  0.000  0.000  0.000  0.000  0.000  0.000  0.000  0.000  0.001
    2  0.000  0.000  0.000  0.000  0.000  0.000  0.000  0.000  0.000  0.001
tot    0.001  0.000  0.000  0.001  0.000  0.000  0.000  0.000  0.000  0.003


 k-point    96 :    0.02777778 0.02777778 0.02777778     weight = 0.00000000

band     1 # energy   -7.88073577 # occ.  2.00000000

ion      s     py     pz     px    dxy    dyz    dz2    dxz  x2-y2    tot
    1  0.218  0.000  0.000  0.000  0.000  0.000  0.000  0.000  0.000  0.218
    2  0.218  0.000  0.000  0.000  0.000  0.000  0.000  0.000  0.000  0.218
tot    0.436  0.000  0.000  0.000  0.000  0.000  0.000  0.000  0.000  0.437

band     2 # energy    5.13372354 # occ.  2.00000000

ion      s     py     pz     px    dxy    dyz    dz2    dxz  x2-y2    tot
    1  0.007  0.070  0.070  0.070  0.000  0.000  0.000  0.000  0.000  0.216
    2  0.007  0.070  0.070  0.070  0.000  0.000  0.000  0.000  0.000  0.216
tot    0.014  0.139  0.139  0.139  0.000  0.000  0.000  0.000  0.000  0.432

band     3 # energy    5.23588516 # occ.  2.00000000

ion      s     py     pz     px    dxy    dyz    dz2    dxz  x2-y2    tot
    1  0.000  0.141  0.054  0.021  0.000  0.000  0.000  0.000  0.000  0.215
    2  0.000  0.141  0.054  0.021  0.000  0.000  0.000  0.000  0.000  0.215
tot    0.000  0.281  0.107  0.041  0.000  0.000  0.000  0.000  0.000  0.430

band     4 # energy    5.23589184 # occ.  2.00000000

ion      s     py     pz     px    dxy    dyz    dz2    dxz  x2-y2    tot
    1  0.000  0.003  0.090  0.123  0.000  0.000  0.000  0.000  0.000  0.215
    2  0.000  0.003  0.090  0.123  0.000  0.000  0.000  0.000  0.000  0.215
tot    0.000  0.005  0.179  0.245  0.000  0.000  0.000  0.000  0.000  0.430

band     5 # energy    8.60619432 # occ.  0.00000000

ion      s     py     pz     px    dxy    dyz    dz2    dxz  x2-y2    tot
    1  0.004  0.049  0.049  0.049  0.000  0.000  0.000  0.000  0.000  0.152
    2  0.004  0.050  0.049  0.049  0.000  0.000  0.000  0.000  0.000  0.152
tot    0.008  0.099  0.098  0.098  0.000  0.000  0.000  0.000  0.000  0.304

band     6 # energy    8.60740984 # occ.  0.00000000

ion      s     py     pz     px    dxy    dyz    dz2    dxz  x2-y2    tot
    1  0.000  0.003  0.058  0.089  0.000  0.000  0.000  0.000  0.000  0.150
    2  0.000  0.003  0.058  0.089  0.000  0.000  0.000  0.000  0.000  0.150
tot    0.000  0.006  0.117  0.177  0.000  0.000  0.000  0.000  0.000  0.300

band     7 # energy    8.60741533 # occ.  0.00000000

ion      s     py     pz     px    dxy    dyz    dz2    dxz  x2-y2    tot
    1  0.000  0.097  0.042  0.012  0.000  0.000  0.000  0.000  0.000  0.150
    2  0.000  0.097  0.042  0.012  0.000  0.000  0.000  0.000  0.000  0.150
tot    0.000  0.193  0.084  0.023  0.000  0.000  0.000  0.000  0.000  0.300

band     8 # energy    9.39611401 # occ.  0.00000000

ion      s     py     pz     px    dxy    dyz    dz2    dxz  x2-y2    tot
    1  0.355  0.002  0.002  0.002  0.000  0.000  0.000  0.000  0.000  0.362
    2  0.355  0.002  0.002  0.002  0.000  0.000  0.000  0.000  0.000  0.362
tot    0.710  0.004  0.004  0.004  0.000  0.000  0.000  0.000  0.000  0.724

band     9 # energy   14.01989033 # occ.  0.00000000

ion      s     py     pz     px    dxy    dyz    dz2    dxz  x2-y2    tot
    1  0.098  0.001  0.001  0.001  0.000  0.000  0.000  0.000  0.000  0.100
    2  0.098  0.001  0.001  0.001  0.000  0.000  0.000  0.000  0.000  0.100
tot    0.196  0.001  0.001  0.001  0.000  0.000  0.000  0.000  0.000  0.200


 k-point    97 :    0.00000000 0.00000000 0.00000000     weight = 0.00000000

band     1 # energy   -7.89175454 # occ.  2.00000000

ion      s     py     pz     px    dxy    dyz    dz2    dxz  x2-y2    tot
    1  0.218  0.000  0.000  0.000  0.000  0.000  0.000  0.000  0.000  0.218
    2  0.218  0.000  0.000  0.000  0.000  0.000  0.000  0.000  0.000  0.218
tot    0.436  0.000  0.000  0.000  0.000  0.000  0.000  0.000  0.000  0.436

band     2 # energy    5.25325955 # occ.  2.00000000

ion      s     py     pz     px    dxy    dyz    dz2    dxz  x2-y2    tot
    1  0.000  0.099  0.075  0.041  0.000  0.000  0.000  0.000  0.000  0.215
    2  0.000  0.099  0.075  0.041  0.000  0.000  0.000  0.000  0.000  0.215
tot    0.000  0.198  0.150  0.082  0.000  0.000  0.000  0.000  0.000  0.430

band     3 # energy    5.25326592 # occ.  2.00000000

ion      s     py     pz     px    dxy    dyz    dz2    dxz  x2-y2    tot
    1  0.000  0.035  0.008  0.172  0.000  0.000  0.000  0.000  0.000  0.215
    2  0.000  0.035  0.008  0.172  0.000  0.000  0.000  0.000  0.000  0.215
tot    0.000  0.070  0.017  0.344  0.000  0.000  0.000  0.000  0.000  0.430

band     4 # energy    5.25326747 # occ.  2.00000000

ion      s     py     pz     px    dxy    dyz    dz2    dxz  x2-y2    tot
    1  0.000  0.081  0.132  0.002  0.000  0.000  0.000  0.000  0.000  0.215
    2  0.000  0.081  0.132  0.002  0.000  0.000  0.000  0.000  0.000  0.215
tot    0.000  0.162  0.263  0.005  0.000  0.000  0.000  0.000  0.000  0.430

band     5 # energy    8.58137515 # occ.  0.00000000

ion      s     py     pz     px    dxy    dyz    dz2    dxz  x2-y2    tot
    1  0.000  0.097  0.051  0.002  0.000  0.000  0.000  0.000  0.000  0.150
    2  0.000  0.097  0.051  0.002  0.000  0.000  0.000  0.000  0.000  0.150
tot    0.000  0.194  0.101  0.004  0.000  0.000  0.000  0.000  0.000  0.300

band     6 # energy    8.58137768 # occ.  0.00000000

ion      s     py     pz     px    dxy    dyz    dz2    dxz  x2-y2    tot
    1  0.000  0.007  0.033  0.110  0.000  0.000  0.000  0.000  0.000  0.150
    2  0.000  0.007  0.033  0.110  0.000  0.000  0.000  0.000  0.000  0.150
tot    0.000  0.013  0.066  0.221  0.000  0.000  0.000  0.000  0.000  0.300

band     7 # energy    8.58138385 # occ.  0.00000000

ion      s     py     pz     px    dxy    dyz    dz2    dxz  x2-y2    tot
    1  0.000  0.046  0.066  0.037  0.000  0.000  0.000  0.000  0.000  0.150
    2  0.000  0.046  0.066  0.037  0.000  0.000  0.000  0.000  0.000  0.150
tot    0.000  0.092  0.133  0.075  0.000  0.000  0.000  0.000  0.000  0.300

band     8 # energy    9.32329021 # occ.  0.00000000

ion      s     py     pz     px    dxy    dyz    dz2    dxz  x2-y2    tot
    1  0.365  0.000  0.000  0.000  0.000  0.000  0.000  0.000  0.000  0.365
    2  0.365  0.000  0.000  0.000  0.000  0.000  0.000  0.000  0.000  0.365
tot    0.731  0.000  0.000  0.000  0.000  0.000  0.000  0.000  0.000  0.731

band     9 # energy   13.97211376 # occ.  0.00000000

ion      s     py     pz     px    dxy    dyz    dz2    dxz  x2-y2    tot
    1  0.101  0.000  0.000  0.000  0.000  0.000  0.000  0.000  0.000  0.101
    2  0.101  0.000  0.000  0.000  0.000  0.000  0.000  0.000  0.000  0.101
tot    0.203  0.000  0.000  0.000  0.000  0.000  0.000  0.000  0.000  0.203


 k-point    98 :    0.00000000 0.00000000 0.00000000     weight = 0.00000000

band     1 # energy   -7.89175454 # occ.  2.00000000

ion      s     py     pz     px    dxy    dyz    dz2    dxz  x2-y2    tot
    1  0.218  0.000  0.000  0.000  0.000  0.000  0.000  0.000  0.000  0.218
    2  0.218  0.000  0.000  0.000  0.000  0.000  0.000  0.000  0.000  0.218
tot    0.436  0.000  0.000  0.000  0.000  0.000  0.000  0.000  0.000  0.436

band     2 # energy    5.25325955 # occ.  2.00000000

ion      s     py     pz     px    dxy    dyz    dz2    dxz  x2-y2    tot
    1  0.000  0.099  0.075  0.041  0.000  0.000  0.000  0.000  0.000  0.215
    2  0.000  0.099  0.075  0.041  0.000  0.000  0.000  0.000  0.000  0.215
tot    0.000  0.198  0.150  0.082  0.000  0.000  0.000  0.000  0.000  0.430

band     3 # energy    5.25326592 # occ.  2.00000000

ion      s     py     pz     px    dxy    dyz    dz2    dxz  x2-y2    tot
    1  0.000  0.035  0.008  0.172  0.000  0.000  0.000  0.000  0.000  0.215
    2  0.000  0.035  0.008  0.172  0.000  0.000  0.000  0.000  0.000  0.215
tot    0.000  0.070  0.017  0.344  0.000  0.000  0.000  0.000  0.000  0.430

band     4 # energy    5.25326747 # occ.  2.00000000

ion      s     py     pz     px    dxy    dyz    dz2    dxz  x2-y2    tot
    1  0.000  0.081  0.132  0.002  0.000  0.000  0.000  0.000  0.000  0.215
    2  0.000  0.081  0.132  0.002  0.000  0.000  0.000  0.000  0.000  0.215
tot    0.000  0.162  0.263  0.005  0.000  0.000  0.000  0.000  0.000  0.430

band     5 # energy    8.58137515 # occ.  0.00000000

ion      s     py     pz     px    dxy    dyz    dz2    dxz  x2-y2    tot
    1  0.000  0.097  0.051  0.002  0.000  0.000  0.000  0.000  0.000  0.150
    2  0.000  0.097  0.051  0.002  0.000  0.000  0.000  0.000  0.000  0.150
tot    0.000  0.194  0.101  0.004  0.000  0.000  0.000  0.000  0.000  0.300

band     6 # energy    8.58137768 # occ.  0.00000000

ion      s     py     pz     px    dxy    dyz    dz2    dxz  x2-y2    tot
    1  0.000  0.007  0.033  0.110  0.000  0.000  0.000  0.000  0.000  0.150
    2  0.000  0.007  0.033  0.110  0.000  0.000  0.000  0.000  0.000  0.150
tot    0.000  0.013  0.066  0.221  0.000  0.000  0.000  0.000  0.000  0.300

band     7 # energy    8.58138385 # occ.  0.00000000

ion      s     py     pz     px    dxy    dyz    dz2    dxz  x2-y2    tot
    1  0.000  0.046  0.066  0.037  0.000  0.000  0.000  0.000  0.000  0.150
    2  0.000  0.046  0.066  0.037  0.000  0.000  0.000  0.000  0.000  0.150
tot    0.000  0.092  0.133  0.075  0.000  0.000  0.000  0.000  0.000  0.300

band     8 # energy    9.32329021 # occ.  0.00000000

ion      s     py     pz     px    dxy    dyz    dz2    dxz  x2-y2    tot
    1  0.365  0.000  0.000  0.000  0.000  0.000  0.000  0.000  0.000  0.365
    2  0.365  0.000  0.000  0.000  0.000  0.000  0.000  0.000  0.000  0.365
tot    0.731  0.000  0.000  0.000  0.000  0.000  0.000  0.000  0.000  0.731

band     9 # energy   13.97211376 # occ.  0.00000000

ion      s     py     pz     px    dxy    dyz    dz2    dxz  x2-y2    tot
    1  0.101  0.000  0.000  0.000  0.000  0.000  0.000  0.000  0.000  0.101
    2  0.101  0.000  0.000  0.000  0.000  0.000  0.000  0.000  0.000  0.101
tot    0.203  0.000  0.000  0.000  0.000  0.000  0.000  0.000  0.000  0.203


 k-point    99 :    0.01630435 0.01630435 0.03260870     weight = 0.00000000

band     1 # energy   -7.88163176 # occ.  2.00000000

ion      s     py     pz     px    dxy    dyz    dz2    dxz  x2-y2    tot
    1  0.218  0.000  0.000  0.000  0.000  0.000  0.000  0.000  0.000  0.218
    2  0.218  0.000  0.000  0.000  0.000  0.000  0.000  0.000  0.000  0.218
tot    0.436  0.000  0.000  0.000  0.000  0.000  0.000  0.000  0.000  0.436

band     2 # energy    5.15459539 # occ.  2.00000000

ion      s     py     pz     px    dxy    dyz    dz2    dxz  x2-y2    tot
    1  0.007  0.104  0.002  0.104  0.000  0.000  0.000  0.000  0.000  0.216
    2  0.007  0.104  0.002  0.104  0.000  0.000  0.000  0.000  0.000  0.216
tot    0.013  0.207  0.005  0.207  0.000  0.000  0.000  0.000  0.000  0.433

band     3 # energy    5.21397995 # occ.  2.00000000

ion      s     py     pz     px    dxy    dyz    dz2    dxz  x2-y2    tot
    1  0.000  0.001  0.212  0.001  0.000  0.000  0.000  0.000  0.000  0.214
    2  0.000  0.001  0.212  0.001  0.000  0.000  0.000  0.000  0.000  0.214
tot    0.000  0.002  0.423  0.002  0.000  0.000  0.000  0.000  0.000  0.428

band     4 # energy    5.24883552 # occ.  2.00000000

ion      s     py     pz     px    dxy    dyz    dz2    dxz  x2-y2    tot
    1  0.000  0.108  0.000  0.108  0.000  0.000  0.000  0.000  0.000  0.215
    2  0.000  0.108  0.000  0.108  0.000  0.000  0.000  0.000  0.000  0.215
tot    0.000  0.215  0.000  0.215  0.000  0.000  0.000  0.000  0.000  0.430

band     5 # energy    8.59181113 # occ.  0.00000000

ion      s     py     pz     px    dxy    dyz    dz2    dxz  x2-y2    tot
    1  0.000  0.075  0.000  0.075  0.000  0.000  0.000  0.000  0.000  0.150
    2  0.000  0.075  0.000  0.075  0.000  0.000  0.000  0.000  0.000  0.150
tot    0.000  0.150  0.000  0.150  0.000  0.000  0.000  0.000  0.000  0.300

band     6 # energy    8.59655835 # occ.  0.00000000

ion      s     py     pz     px    dxy    dyz    dz2    dxz  x2-y2    tot
    1  0.001  0.073  0.003  0.073  0.000  0.000  0.000  0.000  0.000  0.150
    2  0.001  0.073  0.003  0.073  0.000  0.000  0.000  0.000  0.000  0.150
tot    0.002  0.146  0.007  0.146  0.000  0.000  0.000  0.000  0.000  0.300

band     7 # energy    8.62810209 # occ.  0.00000000

ion      s     py     pz     px    dxy    dyz    dz2    dxz  x2-y2    tot
    1  0.002  0.001  0.147  0.001  0.000  0.000  0.000  0.000  0.000  0.152
    2  0.002  0.001  0.147  0.001  0.000  0.000  0.000  0.000  0.000  0.152
tot    0.004  0.003  0.294  0.003  0.000  0.000  0.000  0.000  0.000  0.303

band     8 # energy    9.38912568 # occ.  0.00000000

ion      s     py     pz     px    dxy    dyz    dz2    dxz  x2-y2    tot
    1  0.357  0.003  0.000  0.003  0.000  0.000  0.000  0.000  0.000  0.362
    2  0.357  0.003  0.000  0.003  0.000  0.000  0.000  0.000  0.000  0.362
tot    0.713  0.005  0.001  0.005  0.000  0.000  0.000  0.000  0.000  0.725

band     9 # energy   14.01623727 # occ.  0.00000000

ion      s     py     pz     px    dxy    dyz    dz2    dxz  x2-y2    tot
    1  0.100  0.001  0.000  0.001  0.000  0.000  0.000  0.000  0.000  0.102
    2  0.100  0.001  0.000  0.001  0.000  0.000  0.000  0.000  0.000  0.102
tot    0.200  0.002  0.000  0.002  0.000  0.000  0.000  0.000  0.000  0.203


 k-point   100 :    0.03260870 0.03260870 0.06521739     weight = 0.00000000

band     1 # energy   -7.85124933 # occ.  2.00000000

ion      s     py     pz     px    dxy    dyz    dz2    dxz  x2-y2    tot
    1  0.218  0.000  0.000  0.000  0.000  0.000  0.000  0.000  0.000  0.218
    2  0.218  0.000  0.000  0.000  0.000  0.000  0.000  0.000  0.000  0.218
tot    0.436  0.000  0.000  0.000  0.000  0.000  0.000  0.000  0.000  0.437

band     2 # energy    4.88841815 # occ.  2.00000000

ion      s     py     pz     px    dxy    dyz    dz2    dxz  x2-y2    tot
    1  0.022  0.095  0.008  0.095  0.000  0.000  0.000  0.000  0.000  0.219
    2  0.022  0.095  0.008  0.095  0.000  0.000  0.000  0.000  0.000  0.219
tot    0.044  0.190  0.015  0.190  0.000  0.000  0.000  0.000  0.000  0.438

band     3 # energy    5.09968242 # occ.  2.00000000

ion      s     py     pz     px    dxy    dyz    dz2    dxz  x2-y2    tot
    1  0.000  0.005  0.203  0.005  0.000  0.000  0.000  0.000  0.000  0.212
    2  0.000  0.005  0.203  0.005  0.000  0.000  0.000  0.000  0.000  0.212
tot    0.000  0.009  0.405  0.009  0.000  0.000  0.000  0.000  0.000  0.424

band     4 # energy    5.23535664 # occ.  2.00000000

ion      s     py     pz     px    dxy    dyz    dz2    dxz  x2-y2    tot
    1  0.000  0.108  0.000  0.108  0.000  0.000  0.000  0.000  0.000  0.216
    2  0.000  0.108  0.000  0.108  0.000  0.000  0.000  0.000  0.000  0.216
tot    0.000  0.216  0.000  0.216  0.000  0.000  0.000  0.000  0.000  0.431

band     5 # energy    8.62310266 # occ.  0.00000000

ion      s     py     pz     px    dxy    dyz    dz2    dxz  x2-y2    tot
    1  0.000  0.075  0.000  0.075  0.000  0.000  0.000  0.000  0.000  0.150
    2  0.000  0.075  0.000  0.075  0.000  0.000  0.000  0.000  0.000  0.150
tot    0.000  0.150  0.000  0.150  0.000  0.000  0.000  0.000  0.000  0.300

band     6 # energy    8.64101088 # occ.  0.00000000

ion      s     py     pz     px    dxy    dyz    dz2    dxz  x2-y2    tot
    1  0.004  0.067  0.012  0.067  0.000  0.000  0.000  0.000  0.000  0.151
    2  0.004  0.067  0.012  0.067  0.000  0.000  0.000  0.000  0.000  0.151
tot    0.008  0.134  0.025  0.134  0.000  0.000  0.000  0.000  0.000  0.301

band     7 # energy    8.72489682 # occ.  0.00000000

ion      s     py     pz     px    dxy    dyz    dz2    dxz  x2-y2    tot
    1  0.021  0.002  0.137  0.002  0.000  0.000  0.000  0.000  0.000  0.163
    2  0.021  0.002  0.137  0.002  0.000  0.000  0.000  0.000  0.000  0.163
tot    0.042  0.005  0.274  0.005  0.000  0.000  0.000  0.000  0.000  0.326

band     8 # energy    9.59831555 # occ.  0.00000000

ion      s     py     pz     px    dxy    dyz    dz2    dxz  x2-y2    tot
    1  0.322  0.011  0.005  0.011  0.000  0.000  0.000  0.000  0.000  0.349
    2  0.322  0.011  0.005  0.011  0.000  0.000  0.000  0.000  0.000  0.349
tot    0.643  0.022  0.010  0.022  0.000  0.000  0.000  0.000  0.000  0.697

band     9 # energy   13.82158484 # occ.  0.00000000

ion      s     py     pz     px    dxy    dyz    dz2    dxz  x2-y2    tot
    1  0.000  0.001  0.000  0.000  0.000  0.000  0.000  0.000  0.000  0.001
    2  0.000  0.000  0.000  0.001  0.000  0.000  0.000  0.000  0.000  0.001
tot    0.000  0.001  0.000  0.001  0.000  0.000  0.000  0.000  0.000  0.002


 k-point   101 :    0.04891304 0.04891304 0.09782609     weight = 0.00000000

band     1 # energy   -7.80066810 # occ.  2.00000000

ion      s     py     pz     px    dxy    dyz    dz2    dxz  x2-y2    tot
    1  0.218  0.000  0.000  0.000  0.000  0.000  0.000  0.000  0.000  0.219
    2  0.218  0.000  0.000  0.000  0.000  0.000  0.000  0.000  0.000  0.219
tot    0.435  0.001  0.000  0.001  0.000  0.000  0.000  0.000  0.000  0.437

band     2 # energy    4.51362660 # occ.  2.00000000

ion      s     py     pz     px    dxy    dyz    dz2    dxz  x2-y2    tot
    1  0.039  0.085  0.013  0.085  0.000  0.000  0.000  0.000  0.000  0.222
    2  0.039  0.085  0.013  0.085  0.000  0.000  0.000  0.000  0.000  0.222
tot    0.078  0.170  0.026  0.170  0.000  0.000  0.000  0.000  0.000  0.445

band     3 # energy    4.91973251 # occ.  2.00000000

ion      s     py     pz     px    dxy    dyz    dz2    dxz  x2-y2    tot
    1  0.000  0.009  0.190  0.009  0.000  0.000  0.000  0.000  0.000  0.209
    2  0.000  0.009  0.190  0.009  0.000  0.000  0.000  0.000  0.000  0.209
tot    0.001  0.018  0.380  0.018  0.000  0.000  0.000  0.000  0.000  0.417

band     4 # energy    5.21216394 # occ.  2.00000000

ion      s     py     pz     px    dxy    dyz    dz2    dxz  x2-y2    tot
    1  0.000  0.108  0.000  0.108  0.000  0.000  0.000  0.000  0.000  0.216
    2  0.000  0.108  0.000  0.108  0.000  0.000  0.000  0.000  0.000  0.216
tot    0.000  0.216  0.000  0.216  0.000  0.000  0.000  0.000  0.000  0.433

band     5 # energy    8.67521385 # occ.  0.00000000

ion      s     py     pz     px    dxy    dyz    dz2    dxz  x2-y2    tot
    1  0.000  0.075  0.000  0.075  0.000  0.000  0.000  0.000  0.000  0.150
    2  0.000  0.075  0.000  0.075  0.000  0.000  0.000  0.000  0.000  0.150
tot    0.000  0.150  0.000  0.150  0.000  0.000  0.000  0.000  0.000  0.299

band     6 # energy    8.71201700 # occ.  0.00000000

ion      s     py     pz     px    dxy    dyz    dz2    dxz  x2-y2    tot
    1  0.008  0.059  0.025  0.059  0.000  0.000  0.000  0.000  0.000  0.151
    2  0.008  0.059  0.025  0.059  0.000  0.000  0.000  0.000  0.000  0.151
tot    0.016  0.118  0.050  0.118  0.000  0.000  0.000  0.000  0.000  0.302

band     7 # energy    8.81356208 # occ.  0.00000000

ion      s     py     pz     px    dxy    dyz    dz2    dxz  x2-y2    tot
    1  0.054  0.002  0.124  0.002  0.000  0.000  0.000  0.000  0.000  0.181
    2  0.054  0.002  0.124  0.002  0.000  0.000  0.000  0.000  0.000  0.181
tot    0.107  0.004  0.247  0.004  0.000  0.000  0.000  0.000  0.000  0.362

band     8 # energy    9.94378641 # occ.  0.00000000

ion      s     py     pz     px    dxy    dyz    dz2    dxz  x2-y2    tot
    1  0.270  0.022  0.012  0.022  0.000  0.000  0.000  0.000  0.000  0.327
    2  0.270  0.022  0.012  0.022  0.000  0.000  0.000  0.000  0.000  0.327
tot    0.540  0.045  0.024  0.045  0.000  0.000  0.000  0.000  0.000  0.654

band     9 # energy   13.59700447 # occ.  0.00000000

ion      s     py     pz     px    dxy    dyz    dz2    dxz  x2-y2    tot
    1  0.000  0.001  0.000  0.001  0.000  0.000  0.000  0.000  0.000  0.001
    2  0.000  0.001  0.000  0.001  0.000  0.000  0.000  0.000  0.000  0.001
tot    0.000  0.001  0.000  0.001  0.000  0.000  0.000  0.000  0.000  0.003


 k-point   102 :    0.06521739 0.06521739 0.13043478     weight = 0.00000000

band     1 # energy   -7.73002803 # occ.  2.00000000

ion      s     py     pz     px    dxy    dyz    dz2    dxz  x2-y2    tot
    1  0.217  0.001  0.000  0.001  0.000  0.000  0.000  0.000  0.000  0.219
    2  0.217  0.001  0.000  0.001  0.000  0.000  0.000  0.000  0.000  0.219
tot    0.435  0.002  0.000  0.002  0.000  0.000  0.000  0.000  0.000  0.438

band     2 # energy    4.07915324 # occ.  2.00000000

ion      s     py     pz     px    dxy    dyz    dz2    dxz  x2-y2    tot
    1  0.055  0.076  0.018  0.076  0.000  0.000  0.000  0.000  0.000  0.225
    2  0.055  0.076  0.018  0.076  0.000  0.000  0.000  0.000  0.000  0.225
tot    0.111  0.152  0.036  0.152  0.000  0.000  0.000  0.000  0.000  0.451

band     3 # energy    4.68653179 # occ.  2.00000000

ion      s     py     pz     px    dxy    dyz    dz2    dxz  x2-y2    tot
    1  0.001  0.014  0.176  0.014  0.000  0.000  0.000  0.000  0.000  0.205
    2  0.001  0.014  0.176  0.014  0.000  0.000  0.000  0.000  0.000  0.205
tot    0.002  0.028  0.352  0.028  0.000  0.000  0.000  0.000  0.000  0.410

band     4 # energy    5.17816637 # occ.  2.00000000

ion      s     py     pz     px    dxy    dyz    dz2    dxz  x2-y2    tot
    1  0.000  0.109  0.000  0.109  0.000  0.000  0.000  0.000  0.000  0.217
    2  0.000  0.109  0.000  0.109  0.000  0.000  0.000  0.000  0.000  0.217
tot    0.000  0.217  0.000  0.217  0.000  0.000  0.000  0.000  0.000  0.434

band     5 # energy    8.74807819 # occ.  0.00000000

ion      s     py     pz     px    dxy    dyz    dz2    dxz  x2-y2    tot
    1  0.000  0.075  0.000  0.075  0.000  0.000  0.000  0.000  0.000  0.150
    2  0.000  0.075  0.000  0.075  0.000  0.000  0.000  0.000  0.000  0.150
tot    0.000  0.150  0.000  0.150  0.000  0.000  0.000  0.000  0.000  0.299

band     6 # energy    8.80653857 # occ.  0.00000000

ion      s     py     pz     px    dxy    dyz    dz2    dxz  x2-y2    tot
    1  0.013  0.050  0.039  0.050  0.000  0.000  0.000  0.000  0.000  0.152
    2  0.013  0.050  0.039  0.050  0.000  0.000  0.000  0.000  0.000  0.152
tot    0.026  0.100  0.078  0.100  0.000  0.000  0.000  0.000  0.000  0.303

band     7 # energy    8.88408334 # occ.  0.00000000

ion      s     py     pz     px    dxy    dyz    dz2    dxz  x2-y2    tot
    1  0.080  0.001  0.114  0.001  0.000  0.000  0.000  0.000  0.000  0.196
    2  0.080  0.001  0.114  0.001  0.000  0.000  0.000  0.000  0.000  0.196
tot    0.160  0.002  0.227  0.002  0.000  0.000  0.000  0.000  0.000  0.391

band     8 # energy   10.37335466 # occ.  0.00000000

ion      s     py     pz     px    dxy    dyz    dz2    dxz  x2-y2    tot
    1  0.224  0.033  0.016  0.033  0.000  0.000  0.000  0.000  0.000  0.308
    2  0.224  0.033  0.016  0.033  0.000  0.000  0.000  0.000  0.000  0.308
tot    0.449  0.067  0.033  0.067  0.000  0.000  0.000  0.000  0.000  0.615

band     9 # energy   13.34726688 # occ.  0.00000000

ion      s     py     pz     px    dxy    dyz    dz2    dxz  x2-y2    tot
    1  0.000  0.001  0.000  0.001  0.000  0.000  0.000  0.000  0.000  0.001
    2  0.000  0.001  0.000  0.001  0.000  0.000  0.000  0.000  0.000  0.001
tot    0.000  0.001  0.000  0.001  0.000  0.000  0.000  0.000  0.000  0.003


 k-point   103 :    0.08152174 0.08152174 0.16304348     weight = 0.00000000

band     1 # energy   -7.63952722 # occ.  2.00000000

ion      s     py     pz     px    dxy    dyz    dz2    dxz  x2-y2    tot
    1  0.217  0.001  0.000  0.001  0.000  0.000  0.000  0.000  0.000  0.219
    2  0.217  0.001  0.000  0.001  0.000  0.000  0.000  0.000  0.000  0.219
tot    0.434  0.002  0.000  0.002  0.000  0.000  0.000  0.000  0.000  0.439

band     2 # energy    3.61587604 # occ.  2.00000000

ion      s     py     pz     px    dxy    dyz    dz2    dxz  x2-y2    tot
    1  0.070  0.068  0.022  0.068  0.000  0.000  0.000  0.000  0.000  0.228
    2  0.070  0.068  0.022  0.068  0.000  0.000  0.000  0.000  0.000  0.228
tot    0.140  0.137  0.043  0.137  0.000  0.000  0.000  0.000  0.000  0.456

band     3 # energy    4.41299168 # occ.  2.00000000

ion      s     py     pz     px    dxy    dyz    dz2    dxz  x2-y2    tot
    1  0.002  0.018  0.162  0.018  0.000  0.000  0.000  0.000  0.000  0.201
    2  0.002  0.018  0.162  0.018  0.000  0.000  0.000  0.000  0.000  0.201
tot    0.005  0.037  0.324  0.037  0.000  0.000  0.000  0.000  0.000  0.402

band     4 # energy    5.13205228 # occ.  2.00000000

ion      s     py     pz     px    dxy    dyz    dz2    dxz  x2-y2    tot
    1  0.000  0.109  0.000  0.109  0.000  0.000  0.000  0.000  0.000  0.218
    2  0.000  0.109  0.000  0.109  0.000  0.000  0.000  0.000  0.000  0.218
tot    0.000  0.218  0.000  0.218  0.000  0.000  0.000  0.000  0.000  0.436

band     5 # energy    8.84160476 # occ.  0.00000000

ion      s     py     pz     px    dxy    dyz    dz2    dxz  x2-y2    tot
    1  0.000  0.075  0.000  0.075  0.000  0.000  0.000  0.000  0.000  0.149
    2  0.000  0.075  0.000  0.075  0.000  0.000  0.000  0.000  0.000  0.149
tot    0.000  0.149  0.000  0.149  0.000  0.000  0.000  0.000  0.000  0.299

band     6 # energy    8.92215924 # occ.  0.00000000

ion      s     py     pz     px    dxy    dyz    dz2    dxz  x2-y2    tot
    1  0.017  0.041  0.052  0.041  0.000  0.000  0.000  0.000  0.000  0.152
    2  0.017  0.041  0.052  0.041  0.000  0.000  0.000  0.000  0.000  0.152
tot    0.035  0.082  0.105  0.082  0.000  0.000  0.000  0.000  0.000  0.304

band     7 # energy    8.94411209 # occ.  0.00000000

ion      s     py     pz     px    dxy    dyz    dz2    dxz  x2-y2    tot
    1  0.096  0.001  0.107  0.001  0.000  0.000  0.000  0.000  0.000  0.204
    2  0.096  0.001  0.107  0.001  0.000  0.000  0.000  0.000  0.000  0.204
tot    0.192  0.001  0.215  0.001  0.000  0.000  0.000  0.000  0.000  0.408

band     8 # energy   10.82391500 # occ.  0.00000000

ion      s     py     pz     px    dxy    dyz    dz2    dxz  x2-y2    tot
    1  0.188  0.043  0.017  0.043  0.000  0.000  0.000  0.000  0.000  0.291
    2  0.188  0.043  0.017  0.043  0.000  0.000  0.000  0.000  0.000  0.291
tot    0.376  0.086  0.033  0.086  0.000  0.000  0.000  0.000  0.000  0.582

band     9 # energy   13.09891372 # occ.  0.00000000

ion      s     py     pz     px    dxy    dyz    dz2    dxz  x2-y2    tot
    1  0.000  0.001  0.000  0.001  0.000  0.000  0.000  0.000  0.000  0.001
    2  0.000  0.001  0.000  0.001  0.000  0.000  0.000  0.000  0.000  0.001
tot    0.000  0.001  0.000  0.001  0.000  0.000  0.000  0.000  0.000  0.002


 k-point   104 :    0.09782609 0.09782609 0.19565217     weight = 0.00000000

band     1 # energy   -7.52938652 # occ.  2.00000000

ion      s     py     pz     px    dxy    dyz    dz2    dxz  x2-y2    tot
    1  0.217  0.002  0.000  0.002  0.000  0.000  0.000  0.000  0.000  0.220
    2  0.217  0.002  0.000  0.002  0.000  0.000  0.000  0.000  0.000  0.220
tot    0.433  0.004  0.000  0.004  0.000  0.000  0.000  0.000  0.000  0.440

band     2 # energy    3.14193506 # occ.  2.00000000

ion      s     py     pz     px    dxy    dyz    dz2    dxz  x2-y2    tot
    1  0.082  0.062  0.025  0.062  0.000  0.000  0.000  0.000  0.000  0.230
    2  0.082  0.062  0.025  0.062  0.000  0.000  0.000  0.000  0.000  0.230
tot    0.165  0.123  0.050  0.123  0.000  0.000  0.000  0.000  0.000  0.460

band     3 # energy    4.11101306 # occ.  2.00000000

ion      s     py     pz     px    dxy    dyz    dz2    dxz  x2-y2    tot
    1  0.004  0.022  0.149  0.022  0.000  0.000  0.000  0.000  0.000  0.197
    2  0.004  0.022  0.149  0.022  0.000  0.000  0.000  0.000  0.000  0.197
tot    0.007  0.044  0.298  0.044  0.000  0.000  0.000  0.000  0.000  0.394

band     4 # energy    5.07241447 # occ.  2.00000000

ion      s     py     pz     px    dxy    dyz    dz2    dxz  x2-y2    tot
    1  0.000  0.109  0.000  0.109  0.000  0.000  0.000  0.000  0.000  0.219
    2  0.000  0.109  0.000  0.109  0.000  0.000  0.000  0.000  0.000  0.219
tot    0.000  0.219  0.000  0.219  0.000  0.000  0.000  0.000  0.000  0.438

band     5 # energy    8.95565511 # occ.  0.00000000

ion      s     py     pz     px    dxy    dyz    dz2    dxz  x2-y2    tot
    1  0.000  0.075  0.000  0.075  0.000  0.000  0.000  0.000  0.000  0.149
    2  0.000  0.075  0.000  0.075  0.000  0.000  0.000  0.000  0.000  0.149
tot    0.000  0.149  0.000  0.149  0.000  0.000  0.000  0.000  0.000  0.298

band     6 # energy    8.99739020 # occ.  0.00000000

ion      s     py     pz     px    dxy    dyz    dz2    dxz  x2-y2    tot
    1  0.105  0.000  0.103  0.000  0.000  0.000  0.000  0.000  0.000  0.208
    2  0.105  0.000  0.103  0.000  0.000  0.000  0.000  0.000  0.000  0.208
tot    0.209  0.000  0.207  0.000  0.000  0.000  0.000  0.000  0.000  0.417

band     7 # energy    9.05731946 # occ.  0.00000000

ion      s     py     pz     px    dxy    dyz    dz2    dxz  x2-y2    tot
    1  0.022  0.033  0.064  0.033  0.000  0.000  0.000  0.000  0.000  0.152
    2  0.022  0.033  0.064  0.033  0.000  0.000  0.000  0.000  0.000  0.152
tot    0.043  0.066  0.129  0.066  0.000  0.000  0.000  0.000  0.000  0.304

band     8 # energy   11.23220171 # occ.  0.00000000

ion      s     py     pz     px    dxy    dyz    dz2    dxz  x2-y2    tot
    1  0.156  0.050  0.013  0.050  0.000  0.000  0.000  0.000  0.000  0.270
    2  0.156  0.050  0.013  0.050  0.000  0.000  0.000  0.000  0.000  0.270
tot    0.313  0.100  0.027  0.100  0.000  0.000  0.000  0.000  0.000  0.540

band     9 # energy   12.86892360 # occ.  0.00000000

ion      s     py     pz     px    dxy    dyz    dz2    dxz  x2-y2    tot
    1  0.000  0.000  0.000  0.000  0.000  0.000  0.000  0.000  0.000  0.001
    2  0.000  0.000  0.000  0.000  0.000  0.000  0.000  0.000  0.000  0.001
tot    0.000  0.001  0.000  0.001  0.000  0.000  0.000  0.000  0.000  0.001


 k-point   105 :    0.11413043 0.11413043 0.22826087     weight = 0.00000000

band     1 # energy   -7.39992846 # occ.  2.00000000

ion      s     py     pz     px    dxy    dyz    dz2    dxz  x2-y2    tot
    1  0.216  0.002  0.000  0.002  0.000  0.000  0.000  0.000  0.000  0.221
    2  0.216  0.002  0.000  0.002  0.000  0.000  0.000  0.000  0.000  0.221
tot    0.432  0.005  0.000  0.005  0.000  0.000  0.000  0.000  0.000  0.442

band     2 # energy    2.66814713 # occ.  2.00000000

ion      s     py     pz     px    dxy    dyz    dz2    dxz  x2-y2    tot
    1  0.093  0.056  0.027  0.056  0.000  0.000  0.000  0.000  0.000  0.232
    2  0.093  0.056  0.027  0.056  0.000  0.000  0.000  0.000  0.000  0.232
tot    0.187  0.111  0.055  0.111  0.000  0.000  0.000  0.000  0.000  0.464

band     3 # energy    3.79070673 # occ.  2.00000000

ion      s     py     pz     px    dxy    dyz    dz2    dxz  x2-y2    tot
    1  0.005  0.025  0.138  0.025  0.000  0.000  0.000  0.000  0.000  0.193
    2  0.005  0.025  0.138  0.025  0.000  0.000  0.000  0.000  0.000  0.193
tot    0.011  0.050  0.276  0.050  0.000  0.000  0.000  0.000  0.000  0.386

band     4 # energy    4.99797429 # occ.  2.00000000

ion      s     py     pz     px    dxy    dyz    dz2    dxz  x2-y2    tot
    1  0.000  0.110  0.000  0.110  0.000  0.000  0.000  0.000  0.000  0.219
    2  0.000  0.110  0.000  0.110  0.000  0.000  0.000  0.000  0.000  0.219
tot    0.000  0.219  0.000  0.219  0.000  0.000  0.000  0.000  0.000  0.439

band     5 # energy    9.04271883 # occ.  0.00000000

ion      s     py     pz     px    dxy    dyz    dz2    dxz  x2-y2    tot
    1  0.108  0.000  0.101  0.000  0.000  0.000  0.000  0.000  0.000  0.209
    2  0.108  0.000  0.100  0.000  0.000  0.000  0.000  0.000  0.000  0.209
tot    0.216  0.000  0.201  0.000  0.000  0.000  0.000  0.000  0.000  0.418

band     6 # energy    9.09014727 # occ.  0.00000000

ion      s     py     pz     px    dxy    dyz    dz2    dxz  x2-y2    tot
    1  0.000  0.075  0.000  0.075  0.000  0.000  0.000  0.000  0.000  0.149
    2  0.000  0.075  0.000  0.075  0.000  0.000  0.000  0.000  0.000  0.149
tot    0.000  0.149  0.000  0.149  0.000  0.000  0.000  0.000  0.000  0.298

band     7 # energy    9.21131407 # occ.  0.00000000

ion      s     py     pz     px    dxy    dyz    dz2    dxz  x2-y2    tot
    1  0.025  0.026  0.074  0.026  0.000  0.000  0.000  0.000  0.000  0.151
    2  0.025  0.026  0.074  0.026  0.000  0.000  0.000  0.000  0.000  0.151
tot    0.050  0.052  0.149  0.052  0.000  0.000  0.000  0.000  0.000  0.303

band     8 # energy   11.53652947 # occ.  0.00000000

ion      s     py     pz     px    dxy    dyz    dz2    dxz  x2-y2    tot
    1  0.126  0.053  0.008  0.053  0.000  0.000  0.000  0.000  0.000  0.240
    2  0.126  0.053  0.008  0.053  0.000  0.000  0.000  0.000  0.000  0.240
tot    0.251  0.106  0.016  0.106  0.000  0.000  0.000  0.000  0.000  0.480

band     9 # energy   12.66899192 # occ.  0.00000000

ion      s     py     pz     px    dxy    dyz    dz2    dxz  x2-y2    tot
    1  0.000  0.000  0.000  0.000  0.000  0.000  0.000  0.000  0.000  0.000
    2  0.000  0.000  0.000  0.000  0.000  0.000  0.000  0.000  0.000  0.000
tot    0.000  0.000  0.000  0.000  0.000  0.000  0.000  0.000  0.000  0.000


 k-point   106 :    0.13043478 0.13043478 0.26086957     weight = 0.00000000

band     1 # energy   -7.25156643 # occ.  2.00000000

ion      s     py     pz     px    dxy    dyz    dz2    dxz  x2-y2    tot
    1  0.215  0.003  0.000  0.003  0.000  0.000  0.000  0.000  0.000  0.222
    2  0.215  0.003  0.000  0.003  0.000  0.000  0.000  0.000  0.000  0.222
tot    0.431  0.006  0.000  0.006  0.000  0.000  0.000  0.000  0.000  0.443

band     2 # energy    2.20118900 # occ.  2.00000000

ion      s     py     pz     px    dxy    dyz    dz2    dxz  x2-y2    tot
    1  0.103  0.050  0.029  0.050  0.000  0.000  0.000  0.000  0.000  0.234
    2  0.103  0.050  0.029  0.050  0.000  0.000  0.000  0.000  0.000  0.234
tot    0.207  0.101  0.059  0.101  0.000  0.000  0.000  0.000  0.000  0.467

band     3 # energy    3.46054491 # occ.  2.00000000

ion      s     py     pz     px    dxy    dyz    dz2    dxz  x2-y2    tot
    1  0.007  0.027  0.128  0.027  0.000  0.000  0.000  0.000  0.000  0.190
    2  0.007  0.027  0.128  0.027  0.000  0.000  0.000  0.000  0.000  0.190
tot    0.014  0.055  0.256  0.055  0.000  0.000  0.000  0.000  0.000  0.379

band     4 # energy    4.90782596 # occ.  2.00000000

ion      s     py     pz     px    dxy    dyz    dz2    dxz  x2-y2    tot
    1  0.000  0.110  0.000  0.110  0.000  0.000  0.000  0.000  0.000  0.220
    2  0.000  0.110  0.000  0.110  0.000  0.000  0.000  0.000  0.000  0.220
tot    0.000  0.220  0.000  0.220  0.000  0.000  0.000  0.000  0.000  0.439

band     5 # energy    9.07533816 # occ.  0.00000000

ion      s     py     pz     px    dxy    dyz    dz2    dxz  x2-y2    tot
    1  0.108  0.000  0.098  0.000  0.000  0.000  0.000  0.000  0.000  0.206
    2  0.108  0.000  0.098  0.000  0.000  0.000  0.000  0.000  0.000  0.206
tot    0.216  0.000  0.196  0.000  0.000  0.000  0.000  0.000  0.000  0.412

band     6 # energy    9.24488748 # occ.  0.00000000

ion      s     py     pz     px    dxy    dyz    dz2    dxz  x2-y2    tot
    1  0.000  0.074  0.000  0.074  0.000  0.000  0.000  0.000  0.000  0.149
    2  0.000  0.074  0.000  0.074  0.000  0.000  0.000  0.000  0.000  0.149
tot    0.000  0.149  0.000  0.149  0.000  0.000  0.000  0.000  0.000  0.298

band     7 # energy    9.38378302 # occ.  0.00000000

ion      s     py     pz     px    dxy    dyz    dz2    dxz  x2-y2    tot
    1  0.028  0.020  0.083  0.020  0.000  0.000  0.000  0.000  0.000  0.151
    2  0.028  0.020  0.083  0.020  0.000  0.000  0.000  0.000  0.000  0.151
tot    0.056  0.040  0.165  0.040  0.000  0.000  0.000  0.000  0.000  0.301

band     8 # energy   11.70795468 # occ.  0.00000000

ion      s     py     pz     px    dxy    dyz    dz2    dxz  x2-y2    tot
    1  0.099  0.052  0.003  0.052  0.000  0.000  0.000  0.000  0.000  0.206
    2  0.099  0.052  0.003  0.052  0.000  0.000  0.000  0.000  0.000  0.206
tot    0.199  0.103  0.006  0.103  0.000  0.000  0.000  0.000  0.000  0.412

band     9 # energy   12.50659486 # occ.  0.00000000

ion      s     py     pz     px    dxy    dyz    dz2    dxz  x2-y2    tot
    1  0.000  0.000  0.000  0.000  0.000  0.000  0.000  0.000  0.000  0.000
    2  0.000  0.000  0.000  0.000  0.000  0.000  0.000  0.000  0.000  0.000
tot    0.000  0.000  0.000  0.000  0.000  0.000  0.000  0.000  0.000  0.000


 k-point   107 :    0.14673913 0.14673913 0.29347826     weight = 0.00000000

band     1 # energy   -7.08481739 # occ.  2.00000000

ion      s     py     pz     px    dxy    dyz    dz2    dxz  x2-y2    tot
    1  0.215  0.004  0.000  0.004  0.000  0.000  0.000  0.000  0.000  0.223
    2  0.215  0.004  0.000  0.004  0.000  0.000  0.000  0.000  0.000  0.223
tot    0.430  0.008  0.000  0.008  0.000  0.000  0.000  0.000  0.000  0.445

band     2 # energy    1.74535008 # occ.  2.00000000

ion      s     py     pz     px    dxy    dyz    dz2    dxz  x2-y2    tot
    1  0.112  0.046  0.031  0.046  0.000  0.000  0.000  0.000  0.000  0.235
    2  0.112  0.046  0.031  0.046  0.000  0.000  0.000  0.000  0.000  0.235
tot    0.225  0.091  0.063  0.091  0.000  0.000  0.000  0.000  0.000  0.470

band     3 # energy    3.12744861 # occ.  2.00000000

ion      s     py     pz     px    dxy    dyz    dz2    dxz  x2-y2    tot
    1  0.009  0.029  0.119  0.029  0.000  0.000  0.000  0.000  0.000  0.186
    2  0.009  0.029  0.119  0.029  0.000  0.000  0.000  0.000  0.000  0.186
tot    0.017  0.059  0.238  0.059  0.000  0.000  0.000  0.000  0.000  0.373

band     4 # energy    4.80161278 # occ.  2.00000000

ion      s     py     pz     px    dxy    dyz    dz2    dxz  x2-y2    tot
    1  0.000  0.110  0.000  0.110  0.000  0.000  0.000  0.000  0.000  0.220
    2  0.000  0.110  0.000  0.110  0.000  0.000  0.000  0.000  0.000  0.220
tot    0.000  0.220  0.000  0.220  0.000  0.000  0.000  0.000  0.000  0.439

band     5 # energy    9.08820264 # occ.  0.00000000

ion      s     py     pz     px    dxy    dyz    dz2    dxz  x2-y2    tot
    1  0.105  0.000  0.095  0.000  0.000  0.000  0.000  0.000  0.000  0.200
    2  0.105  0.000  0.095  0.000  0.000  0.000  0.000  0.000  0.000  0.200
tot    0.210  0.000  0.190  0.000  0.000  0.000  0.000  0.000  0.000  0.401

band     6 # energy    9.41973352 # occ.  0.00000000

ion      s     py     pz     px    dxy    dyz    dz2    dxz  x2-y2    tot
    1  0.000  0.074  0.000  0.074  0.000  0.000  0.000  0.000  0.000  0.149
    2  0.000  0.074  0.000  0.074  0.000  0.000  0.000  0.000  0.000  0.149
tot    0.000  0.149  0.000  0.149  0.000  0.000  0.000  0.000  0.000  0.297

band     7 # energy    9.57462063 # occ.  0.00000000

ion      s     py     pz     px    dxy    dyz    dz2    dxz  x2-y2    tot
    1  0.030  0.015  0.089  0.015  0.000  0.000  0.000  0.000  0.000  0.149
    2  0.030  0.015  0.089  0.015  0.000  0.000  0.000  0.000  0.000  0.149
tot    0.061  0.030  0.178  0.030  0.000  0.000  0.000  0.000  0.000  0.299

band     8 # energy   11.77626819 # occ.  0.00000000

ion      s     py     pz     px    dxy    dyz    dz2    dxz  x2-y2    tot
    1  0.083  0.049  0.000  0.049  0.000  0.000  0.000  0.000  0.000  0.180
    2  0.083  0.049  0.000  0.049  0.000  0.000  0.000  0.000  0.000  0.180
tot    0.165  0.097  0.000  0.097  0.000  0.000  0.000  0.000  0.000  0.360

band     9 # energy   12.38636549 # occ.  0.00000000

ion      s     py     pz     px    dxy    dyz    dz2    dxz  x2-y2    tot
    1  0.000  0.000  0.000  0.000  0.000  0.000  0.000  0.000  0.000  0.000
    2  0.000  0.000  0.000  0.000  0.000  0.000  0.000  0.000  0.000  0.000
tot    0.000  0.000  0.000  0.000  0.000  0.000  0.000  0.000  0.000  0.000


 k-point   108 :    0.16304348 0.16304348 0.32608696     weight = 0.00000000

band     1 # energy   -6.90032629 # occ.  2.00000000

ion      s     py     pz     px    dxy    dyz    dz2    dxz  x2-y2    tot
    1  0.214  0.005  0.000  0.005  0.000  0.000  0.000  0.000  0.000  0.224
    2  0.214  0.005  0.000  0.005  0.000  0.000  0.000  0.000  0.000  0.224
tot    0.429  0.009  0.001  0.009  0.000  0.000  0.000  0.000  0.000  0.447

band     2 # energy    1.30347449 # occ.  2.00000000

ion      s     py     pz     px    dxy    dyz    dz2    dxz  x2-y2    tot
    1  0.121  0.041  0.033  0.041  0.000  0.000  0.000  0.000  0.000  0.236
    2  0.121  0.041  0.033  0.041  0.000  0.000  0.000  0.000  0.000  0.236
tot    0.241  0.083  0.066  0.083  0.000  0.000  0.000  0.000  0.000  0.472

band     3 # energy    2.79711299 # occ.  2.00000000

ion      s     py     pz     px    dxy    dyz    dz2    dxz  x2-y2    tot
    1  0.010  0.031  0.112  0.031  0.000  0.000  0.000  0.000  0.000  0.183
    2  0.010  0.031  0.112  0.031  0.000  0.000  0.000  0.000  0.000  0.183
tot    0.020  0.062  0.224  0.061  0.000  0.000  0.000  0.000  0.000  0.367

band     4 # energy    4.67965313 # occ.  2.00000000

ion      s     py     pz     px    dxy    dyz    dz2    dxz  x2-y2    tot
    1  0.000  0.110  0.000  0.110  0.000  0.000  0.000  0.000  0.000  0.219
    2  0.000  0.110  0.000  0.110  0.000  0.000  0.000  0.000  0.000  0.219
tot    0.000  0.219  0.000  0.219  0.000  0.000  0.000  0.000  0.000  0.438

band     5 # energy    9.07340577 # occ.  0.00000000

ion      s     py     pz     px    dxy    dyz    dz2    dxz  x2-y2    tot
    1  0.100  0.000  0.091  0.000  0.000  0.000  0.000  0.000  0.000  0.191
    2  0.100  0.000  0.091  0.000  0.000  0.000  0.000  0.000  0.000  0.191
tot    0.200  0.000  0.182  0.000  0.000  0.000  0.000  0.000  0.000  0.383

band     6 # energy    9.61442375 # occ.  0.00000000

ion      s     py     pz     px    dxy    dyz    dz2    dxz  x2-y2    tot
    1  0.000  0.074  0.000  0.074  0.000  0.000  0.000  0.000  0.000  0.148
    2  0.000  0.074  0.000  0.074  0.000  0.000  0.000  0.000  0.000  0.148
tot    0.000  0.148  0.000  0.148  0.000  0.000  0.000  0.000  0.000  0.297

band     7 # energy    9.78377169 # occ.  0.00000000

ion      s     py     pz     px    dxy    dyz    dz2    dxz  x2-y2    tot
    1  0.032  0.011  0.094  0.011  0.000  0.000  0.000  0.000  0.000  0.148
    2  0.032  0.011  0.094  0.011  0.000  0.000  0.000  0.000  0.000  0.148
tot    0.064  0.022  0.188  0.022  0.000  0.000  0.000  0.000  0.000  0.296

band     8 # energy   11.79809063 # occ.  0.00000000

ion      s     py     pz     px    dxy    dyz    dz2    dxz  x2-y2    tot
    1  0.075  0.046  0.001  0.046  0.000  0.000  0.000  0.000  0.000  0.167
    2  0.075  0.046  0.001  0.046  0.000  0.000  0.000  0.000  0.000  0.167
tot    0.149  0.092  0.001  0.092  0.000  0.000  0.000  0.000  0.000  0.335

band     9 # energy   12.31052289 # occ.  0.00000000

ion      s     py     pz     px    dxy    dyz    dz2    dxz  x2-y2    tot
    1  0.000  0.000  0.000  0.000  0.000  0.000  0.000  0.000  0.000  0.000
    2  0.000  0.000  0.000  0.000  0.000  0.000  0.000  0.000  0.000  0.000
tot    0.000  0.000  0.000  0.000  0.000  0.000  0.000  0.000  0.000  0.001


 k-point   109 :    0.17934783 0.17934783 0.35869565     weight = 0.00000000

band     1 # energy   -6.69890617 # occ.  2.00000000

ion      s     py     pz     px    dxy    dyz    dz2    dxz  x2-y2    tot
    1  0.214  0.005  0.000  0.005  0.000  0.000  0.000  0.000  0.000  0.225
    2  0.214  0.005  0.000  0.005  0.000  0.000  0.000  0.000  0.000  0.225
tot    0.428  0.011  0.001  0.011  0.000  0.000  0.000  0.000  0.000  0.450

band     2 # energy    0.87756586 # occ.  2.00000000

ion      s     py     pz     px    dxy    dyz    dz2    dxz  x2-y2    tot
    1  0.128  0.037  0.034  0.037  0.000  0.000  0.000  0.000  0.000  0.237
    2  0.128  0.037  0.034  0.037  0.000  0.000  0.000  0.000  0.000  0.237
tot    0.257  0.075  0.069  0.075  0.000  0.000  0.000  0.000  0.000  0.474

band     3 # energy    2.47433207 # occ.  2.00000000

ion      s     py     pz     px    dxy    dyz    dz2    dxz  x2-y2    tot
    1  0.011  0.032  0.105  0.032  0.000  0.000  0.000  0.000  0.000  0.180
    2  0.011  0.032  0.105  0.032  0.000  0.000  0.000  0.000  0.000  0.180
tot    0.023  0.064  0.211  0.064  0.000  0.000  0.000  0.000  0.000  0.361

band     4 # energy    4.54309783 # occ.  2.00000000

ion      s     py     pz     px    dxy    dyz    dz2    dxz  x2-y2    tot
    1  0.000  0.109  0.000  0.109  0.000  0.000  0.000  0.000  0.000  0.218
    2  0.000  0.109  0.000  0.109  0.000  0.000  0.000  0.000  0.000  0.218
tot    0.000  0.218  0.000  0.218  0.000  0.000  0.000  0.000  0.000  0.436

band     5 # energy    9.02440779 # occ.  0.00000000

ion      s     py     pz     px    dxy    dyz    dz2    dxz  x2-y2    tot
    1  0.093  0.000  0.086  0.000  0.000  0.000  0.000  0.000  0.000  0.180
    2  0.093  0.000  0.086  0.000  0.000  0.000  0.000  0.000  0.000  0.180
tot    0.186  0.001  0.172  0.001  0.000  0.000  0.000  0.000  0.000  0.359

band     6 # energy    9.82881277 # occ.  0.00000000

ion      s     py     pz     px    dxy    dyz    dz2    dxz  x2-y2    tot
    1  0.000  0.074  0.000  0.074  0.000  0.000  0.000  0.000  0.000  0.148
    2  0.000  0.074  0.000  0.074  0.000  0.000  0.000  0.000  0.000  0.148
tot    0.000  0.148  0.000  0.148  0.000  0.000  0.000  0.000  0.000  0.296

band     7 # energy   10.01116939 # occ.  0.00000000

ion      s     py     pz     px    dxy    dyz    dz2    dxz  x2-y2    tot
    1  0.033  0.008  0.097  0.008  0.000  0.000  0.000  0.000  0.000  0.146
    2  0.033  0.008  0.097  0.008  0.000  0.000  0.000  0.000  0.000  0.146
tot    0.066  0.016  0.195  0.016  0.000  0.000  0.000  0.000  0.000  0.292

band     8 # energy   11.81971227 # occ.  0.00000000

ion      s     py     pz     px    dxy    dyz    dz2    dxz  x2-y2    tot
    1  0.072  0.044  0.003  0.044  0.000  0.000  0.000  0.000  0.000  0.165
    2  0.072  0.044  0.003  0.044  0.000  0.000  0.000  0.000  0.000  0.165
tot    0.145  0.089  0.007  0.089  0.000  0.000  0.000  0.000  0.000  0.329

band     9 # energy   12.28023214 # occ.  0.00000000

ion      s     py     pz     px    dxy    dyz    dz2    dxz  x2-y2    tot
    1  0.000  0.001  0.000  0.001  0.000  0.000  0.000  0.000  0.000  0.001
    2  0.000  0.001  0.000  0.001  0.000  0.000  0.000  0.000  0.000  0.001
tot    0.000  0.001  0.000  0.001  0.000  0.000  0.000  0.000  0.000  0.002


 k-point   110 :    0.19565217 0.19565217 0.39130435     weight = 0.00000000

band     1 # energy   -6.48162325 # occ.  2.00000000

ion      s     py     pz     px    dxy    dyz    dz2    dxz  x2-y2    tot
    1  0.213  0.006  0.001  0.006  0.000  0.000  0.000  0.000  0.000  0.226
    2  0.213  0.006  0.001  0.006  0.000  0.000  0.000  0.000  0.000  0.226
tot    0.427  0.012  0.001  0.012  0.000  0.000  0.000  0.000  0.000  0.453

band     2 # energy    0.46902295 # occ.  2.00000000

ion      s     py     pz     px    dxy    dyz    dz2    dxz  x2-y2    tot
    1  0.135  0.034  0.036  0.034  0.000  0.000  0.000  0.000  0.000  0.238
    2  0.135  0.034  0.036  0.034  0.000  0.000  0.000  0.000  0.000  0.238
tot    0.271  0.067  0.071  0.067  0.000  0.000  0.000  0.000  0.000  0.476

band     3 # energy    2.16327298 # occ.  2.00000000

ion      s     py     pz     px    dxy    dyz    dz2    dxz  x2-y2    tot
    1  0.012  0.033  0.100  0.033  0.000  0.000  0.000  0.000  0.000  0.178
    2  0.012  0.033  0.100  0.033  0.000  0.000  0.000  0.000  0.000  0.178
tot    0.025  0.066  0.199  0.066  0.000  0.000  0.000  0.000  0.000  0.355

band     4 # energy    4.39368612 # occ.  2.00000000

ion      s     py     pz     px    dxy    dyz    dz2    dxz  x2-y2    tot
    1  0.000  0.108  0.000  0.108  0.000  0.000  0.000  0.000  0.000  0.217
    2  0.000  0.108  0.000  0.108  0.000  0.000  0.000  0.000  0.000  0.217
tot    0.000  0.217  0.000  0.217  0.000  0.000  0.000  0.000  0.000  0.434

band     5 # energy    8.93840312 # occ.  0.00000000

ion      s     py     pz     px    dxy    dyz    dz2    dxz  x2-y2    tot
    1  0.086  0.001  0.080  0.001  0.000  0.000  0.000  0.000  0.000  0.167
    2  0.086  0.001  0.080  0.001  0.000  0.000  0.000  0.000  0.000  0.167
tot    0.171  0.001  0.159  0.001  0.000  0.000  0.000  0.000  0.000  0.333

band     6 # energy   10.06256802 # occ.  0.00000000

ion      s     py     pz     px    dxy    dyz    dz2    dxz  x2-y2    tot
    1  0.000  0.074  0.000  0.074  0.000  0.000  0.000  0.000  0.000  0.148
    2  0.000  0.074  0.000  0.074  0.000  0.000  0.000  0.000  0.000  0.148
tot    0.000  0.148  0.000  0.148  0.000  0.000  0.000  0.000  0.000  0.296

band     7 # energy   10.25661905 # occ.  0.00000000

ion      s     py     pz     px    dxy    dyz    dz2    dxz  x2-y2    tot
    1  0.034  0.005  0.100  0.005  0.000  0.000  0.000  0.000  0.000  0.144
    2  0.034  0.005  0.100  0.005  0.000  0.000  0.000  0.000  0.000  0.144
tot    0.067  0.011  0.199  0.011  0.000  0.000  0.000  0.000  0.000  0.288

band     8 # energy   11.86862677 # occ.  0.00000000

ion      s     py     pz     px    dxy    dyz    dz2    dxz  x2-y2    tot
    1  0.073  0.044  0.008  0.044  0.000  0.000  0.000  0.000  0.000  0.169
    2  0.073  0.044  0.008  0.044  0.000  0.000  0.000  0.000  0.000  0.169
tot    0.147  0.087  0.016  0.087  0.000  0.000  0.000  0.000  0.000  0.337

band     9 # energy   12.29502908 # occ.  0.00000000

ion      s     py     pz     px    dxy    dyz    dz2    dxz  x2-y2    tot
    1  0.000  0.001  0.000  0.001  0.000  0.000  0.000  0.000  0.000  0.002
    2  0.000  0.001  0.000  0.001  0.000  0.000  0.000  0.000  0.000  0.002
tot    0.000  0.002  0.000  0.002  0.000  0.000  0.000  0.000  0.000  0.005


 k-point   111 :    0.21195652 0.21195652 0.42391304     weight = 0.00000000

band     1 # energy   -6.24977439 # occ.  2.00000000

ion      s     py     pz     px    dxy    dyz    dz2    dxz  x2-y2    tot
    1  0.213  0.007  0.001  0.007  0.000  0.000  0.000  0.000  0.000  0.228
    2  0.213  0.007  0.001  0.007  0.000  0.000  0.000  0.000  0.000  0.228
tot    0.427  0.014  0.002  0.014  0.000  0.000  0.000  0.000  0.000  0.456

band     2 # energy    0.07890777 # occ.  2.00000000

ion      s     py     pz     px    dxy    dyz    dz2    dxz  x2-y2    tot
    1  0.142  0.030  0.037  0.030  0.000  0.000  0.000  0.000  0.000  0.239
    2  0.142  0.030  0.037  0.030  0.000  0.000  0.000  0.000  0.000  0.239
tot    0.284  0.060  0.073  0.060  0.000  0.000  0.000  0.000  0.000  0.478

band     3 # energy    1.86769010 # occ.  2.00000000

ion      s     py     pz     px    dxy    dyz    dz2    dxz  x2-y2    tot
    1  0.013  0.034  0.094  0.034  0.000  0.000  0.000  0.000  0.000  0.175
    2  0.013  0.034  0.094  0.034  0.000  0.000  0.000  0.000  0.000  0.175
tot    0.026  0.068  0.189  0.068  0.000  0.000  0.000  0.000  0.000  0.350

band     4 # energy    4.23380675 # occ.  2.00000000

ion      s     py     pz     px    dxy    dyz    dz2    dxz  x2-y2    tot
    1  0.000  0.108  0.000  0.108  0.000  0.000  0.000  0.000  0.000  0.215
    2  0.000  0.108  0.000  0.108  0.000  0.000  0.000  0.000  0.000  0.215
tot    0.000  0.215  0.000  0.215  0.000  0.000  0.000  0.000  0.000  0.431

band     5 # energy    8.81742883 # occ.  0.00000000

ion      s     py     pz     px    dxy    dyz    dz2    dxz  x2-y2    tot
    1  0.078  0.001  0.073  0.001  0.000  0.000  0.000  0.000  0.000  0.153
    2  0.078  0.001  0.073  0.001  0.000  0.000  0.000  0.000  0.000  0.153
tot    0.157  0.002  0.146  0.002  0.000  0.000  0.000  0.000  0.000  0.307

band     6 # energy   10.31552741 # occ.  0.00000000

ion      s     py     pz     px    dxy    dyz    dz2    dxz  x2-y2    tot
    1  0.000  0.074  0.000  0.074  0.000  0.000  0.000  0.000  0.000  0.148
    2  0.000  0.074  0.000  0.074  0.000  0.000  0.000  0.000  0.000  0.148
tot    0.000  0.148  0.000  0.148  0.000  0.000  0.000  0.000  0.000  0.296

band     7 # energy   10.51975494 # occ.  0.00000000

ion      s     py     pz     px    dxy    dyz    dz2    dxz  x2-y2    tot
    1  0.034  0.003  0.101  0.003  0.000  0.000  0.000  0.000  0.000  0.141
    2  0.034  0.003  0.101  0.003  0.000  0.000  0.000  0.000  0.000  0.141
tot    0.067  0.007  0.202  0.007  0.000  0.000  0.000  0.000  0.000  0.283

band     8 # energy   11.95732567 # occ.  0.00000000

ion      s     py     pz     px    dxy    dyz    dz2    dxz  x2-y2    tot
    1  0.076  0.044  0.013  0.044  0.000  0.000  0.000  0.000  0.000  0.176
    2  0.076  0.044  0.013  0.044  0.000  0.000  0.000  0.000  0.000  0.176
tot    0.151  0.087  0.026  0.087  0.000  0.000  0.000  0.000  0.000  0.352

band     9 # energy   12.35358925 # occ.  0.00000000

ion      s     py     pz     px    dxy    dyz    dz2    dxz  x2-y2    tot
    1  0.000  0.002  0.000  0.002  0.000  0.000  0.000  0.000  0.000  0.004
    2  0.000  0.002  0.000  0.002  0.000  0.000  0.000  0.000  0.000  0.004
tot    0.000  0.004  0.000  0.004  0.000  0.000  0.000  0.000  0.000  0.007


 k-point   112 :    0.22826087 0.22826087 0.45652174     weight = 0.00000000

band     1 # energy   -6.00502412 # occ.  2.00000000

ion      s     py     pz     px    dxy    dyz    dz2    dxz  x2-y2    tot
    1  0.213  0.008  0.001  0.008  0.000  0.000  0.000  0.000  0.000  0.230
    2  0.213  0.008  0.001  0.008  0.000  0.000  0.000  0.000  0.000  0.230
tot    0.426  0.015  0.003  0.015  0.000  0.000  0.000  0.000  0.000  0.460

band     2 # energy   -0.29201913 # occ.  2.00000000

ion      s     py     pz     px    dxy    dyz    dz2    dxz  x2-y2    tot
    1  0.148  0.027  0.038  0.027  0.000  0.000  0.000  0.000  0.000  0.239
    2  0.148  0.027  0.038  0.027  0.000  0.000  0.000  0.000  0.000  0.239
tot    0.296  0.054  0.076  0.054  0.000  0.000  0.000  0.000  0.000  0.479

band     3 # energy    1.59113263 # occ.  2.00000000

ion      s     py     pz     px    dxy    dyz    dz2    dxz  x2-y2    tot
    1  0.013  0.035  0.090  0.035  0.000  0.000  0.000  0.000  0.000  0.172
    2  0.013  0.035  0.090  0.035  0.000  0.000  0.000  0.000  0.000  0.172
tot    0.026  0.069  0.180  0.069  0.000  0.000  0.000  0.000  0.000  0.344

band     4 # energy    4.06617801 # occ.  2.00000000

ion      s     py     pz     px    dxy    dyz    dz2    dxz  x2-y2    tot
    1  0.000  0.107  0.000  0.107  0.000  0.000  0.000  0.000  0.000  0.214
    2  0.000  0.107  0.000  0.107  0.000  0.000  0.000  0.000  0.000  0.214
tot    0.000  0.214  0.000  0.214  0.000  0.000  0.000  0.000  0.000  0.427

band     5 # energy    8.66786228 # occ.  0.00000000

ion      s     py     pz     px    dxy    dyz    dz2    dxz  x2-y2    tot
    1  0.072  0.001  0.067  0.001  0.000  0.000  0.000  0.000  0.000  0.141
    2  0.072  0.001  0.067  0.001  0.000  0.000  0.000  0.000  0.000  0.141
tot    0.144  0.003  0.133  0.003  0.000  0.000  0.000  0.000  0.000  0.283

band     6 # energy   10.58727207 # occ.  0.00000000

ion      s     py     pz     px    dxy    dyz    dz2    dxz  x2-y2    tot
    1  0.000  0.074  0.000  0.074  0.000  0.000  0.000  0.000  0.000  0.148
    2  0.000  0.074  0.000  0.074  0.000  0.000  0.000  0.000  0.000  0.148
tot    0.000  0.148  0.000  0.148  0.000  0.000  0.000  0.000  0.000  0.295

band     7 # energy   10.80019427 # occ.  0.00000000

ion      s     py     pz     px    dxy    dyz    dz2    dxz  x2-y2    tot
    1  0.033  0.002  0.101  0.002  0.000  0.000  0.000  0.000  0.000  0.138
    2  0.033  0.002  0.101  0.002  0.000  0.000  0.000  0.000  0.000  0.138
tot    0.067  0.004  0.202  0.004  0.000  0.000  0.000  0.000  0.000  0.276

band     8 # energy   12.08854074 # occ.  0.00000000

ion      s     py     pz     px    dxy    dyz    dz2    dxz  x2-y2    tot
    1  0.077  0.044  0.018  0.044  0.000  0.000  0.000  0.000  0.000  0.184
    2  0.077  0.044  0.018  0.044  0.000  0.000  0.000  0.000  0.000  0.184
tot    0.155  0.088  0.037  0.088  0.000  0.000  0.000  0.000  0.000  0.368

band     9 # energy   12.45403949 # occ.  0.00000000

ion      s     py     pz     px    dxy    dyz    dz2    dxz  x2-y2    tot
    1  0.000  0.003  0.000  0.003  0.000  0.000  0.000  0.000  0.000  0.005
    2  0.000  0.003  0.000  0.003  0.000  0.000  0.000  0.000  0.000  0.005
tot    0.000  0.005  0.000  0.005  0.000  0.000  0.000  0.000  0.000  0.010


 k-point   113 :    0.24456522 0.24456522 0.48913043     weight = 0.00000000

band     1 # energy   -5.74951429 # occ.  2.00000000

ion      s     py     pz     px    dxy    dyz    dz2    dxz  x2-y2    tot
    1  0.213  0.008  0.002  0.008  0.000  0.000  0.000  0.000  0.000  0.232
    2  0.213  0.008  0.002  0.008  0.000  0.000  0.000  0.000  0.000  0.232
tot    0.427  0.016  0.004  0.016  0.000  0.000  0.000  0.000  0.000  0.464

band     2 # energy   -0.64313688 # occ.  2.00000000

ion      s     py     pz     px    dxy    dyz    dz2    dxz  x2-y2    tot
    1  0.154  0.024  0.039  0.024  0.000  0.000  0.000  0.000  0.000  0.240
    2  0.154  0.024  0.039  0.024  0.000  0.000  0.000  0.000  0.000  0.240
tot    0.308  0.047  0.077  0.047  0.000  0.000  0.000  0.000  0.000  0.480

band     3 # energy    1.33715343 # occ.  2.00000000

ion      s     py     pz     px    dxy    dyz    dz2    dxz  x2-y2    tot
    1  0.013  0.036  0.085  0.036  0.000  0.000  0.000  0.000  0.000  0.170
    2  0.013  0.036  0.085  0.036  0.000  0.000  0.000  0.000  0.000  0.170
tot    0.025  0.071  0.171  0.071  0.000  0.000  0.000  0.000  0.000  0.339

band     4 # energy    3.89369357 # occ.  2.00000000

ion      s     py     pz     px    dxy    dyz    dz2    dxz  x2-y2    tot
    1  0.000  0.106  0.000  0.106  0.000  0.000  0.000  0.000  0.000  0.212
    2  0.000  0.106  0.000  0.106  0.000  0.000  0.000  0.000  0.000  0.212
tot    0.000  0.212  0.000  0.212  0.000  0.000  0.000  0.000  0.000  0.424

band     5 # energy    8.49767578 # occ.  0.00000000

ion      s     py     pz     px    dxy    dyz    dz2    dxz  x2-y2    tot
    1  0.067  0.001  0.061  0.001  0.000  0.000  0.000  0.000  0.000  0.131
    2  0.067  0.001  0.061  0.001  0.000  0.000  0.000  0.000  0.000  0.131
tot    0.134  0.003  0.122  0.003  0.000  0.000  0.000  0.000  0.000  0.262

band     6 # energy   10.87754668 # occ.  0.00000000

ion      s     py     pz     px    dxy    dyz    dz2    dxz  x2-y2    tot
    1  0.000  0.074  0.000  0.074  0.000  0.000  0.000  0.000  0.000  0.148
    2  0.000  0.074  0.000  0.074  0.000  0.000  0.000  0.000  0.000  0.148
tot    0.000  0.148  0.000  0.148  0.000  0.000  0.000  0.000  0.000  0.295

band     7 # energy   11.09688739 # occ.  0.00000000

ion      s     py     pz     px    dxy    dyz    dz2    dxz  x2-y2    tot
    1  0.032  0.001  0.100  0.001  0.000  0.000  0.000  0.000  0.000  0.134
    2  0.032  0.001  0.100  0.001  0.000  0.000  0.000  0.000  0.000  0.134
tot    0.065  0.002  0.200  0.002  0.000  0.000  0.000  0.000  0.000  0.268

band     8 # energy   12.25969643 # occ.  0.00000000

ion      s     py     pz     px    dxy    dyz    dz2    dxz  x2-y2    tot
    1  0.078  0.045  0.023  0.045  0.000  0.000  0.000  0.000  0.000  0.192
    2  0.078  0.045  0.023  0.045  0.000  0.000  0.000  0.000  0.000  0.192
tot    0.156  0.091  0.047  0.091  0.000  0.000  0.000  0.000  0.000  0.384

band     9 # energy   12.59392240 # occ.  0.00000000

ion      s     py     pz     px    dxy    dyz    dz2    dxz  x2-y2    tot
    1  0.000  0.003  0.000  0.003  0.000  0.000  0.000  0.000  0.000  0.006
    2  0.000  0.003  0.000  0.003  0.000  0.000  0.000  0.000  0.000  0.006
tot    0.000  0.006  0.000  0.006  0.000  0.000  0.000  0.000  0.000  0.013


 k-point   114 :    0.26086957 0.26086957 0.52173913     weight = 0.00000000

band     1 # energy   -5.48599758 # occ.  2.00000000

ion      s     py     pz     px    dxy    dyz    dz2    dxz  x2-y2    tot
    1  0.214  0.009  0.003  0.009  0.000  0.000  0.000  0.000  0.000  0.234
    2  0.214  0.009  0.003  0.009  0.000  0.000  0.000  0.000  0.000  0.234
tot    0.428  0.017  0.006  0.017  0.000  0.000  0.000  0.000  0.000  0.468

band     2 # energy   -0.97398511 # occ.  2.00000000

ion      s     py     pz     px    dxy    dyz    dz2    dxz  x2-y2    tot
    1  0.159  0.021  0.040  0.021  0.000  0.000  0.000  0.000  0.000  0.240
    2  0.159  0.021  0.040  0.021  0.000  0.000  0.000  0.000  0.000  0.240
tot    0.318  0.042  0.079  0.042  0.000  0.000  0.000  0.000  0.000  0.481

band     3 # energy    1.10950407 # occ.  2.00000000

ion      s     py     pz     px    dxy    dyz    dz2    dxz  x2-y2    tot
    1  0.012  0.037  0.081  0.037  0.000  0.000  0.000  0.000  0.000  0.167
    2  0.012  0.037  0.081  0.037  0.000  0.000  0.000  0.000  0.000  0.167
tot    0.024  0.074  0.163  0.074  0.000  0.000  0.000  0.000  0.000  0.334

band     4 # energy    3.71925806 # occ.  2.00000000

ion      s     py     pz     px    dxy    dyz    dz2    dxz  x2-y2    tot
    1  0.000  0.105  0.000  0.105  0.000  0.000  0.000  0.000  0.000  0.210
    2  0.000  0.105  0.000  0.105  0.000  0.000  0.000  0.000  0.000  0.210
tot    0.000  0.210  0.000  0.210  0.000  0.000  0.000  0.000  0.000  0.420

band     5 # energy    8.31489064 # occ.  0.00000000

ion      s     py     pz     px    dxy    dyz    dz2    dxz  x2-y2    tot
    1  0.063  0.002  0.056  0.002  0.000  0.000  0.000  0.000  0.000  0.122
    2  0.063  0.002  0.056  0.002  0.000  0.000  0.000  0.000  0.000  0.122
tot    0.126  0.003  0.112  0.003  0.000  0.000  0.000  0.000  0.000  0.244

band     6 # energy   11.18596639 # occ.  0.00000000

ion      s     py     pz     px    dxy    dyz    dz2    dxz  x2-y2    tot
    1  0.000  0.074  0.000  0.074  0.000  0.000  0.000  0.000  0.000  0.148
    2  0.000  0.074  0.000  0.074  0.000  0.000  0.000  0.000  0.000  0.148
tot    0.000  0.148  0.000  0.148  0.000  0.000  0.000  0.000  0.000  0.296

band     7 # energy   11.40783578 # occ.  0.00000000

ion      s     py     pz     px    dxy    dyz    dz2    dxz  x2-y2    tot
    1  0.031  0.000  0.097  0.000  0.000  0.000  0.000  0.000  0.000  0.128
    2  0.031  0.000  0.097  0.000  0.000  0.000  0.000  0.000  0.000  0.128
tot    0.061  0.000  0.194  0.000  0.000  0.000  0.000  0.000  0.000  0.256

band     8 # energy   12.46614824 # occ.  0.00000000

ion      s     py     pz     px    dxy    dyz    dz2    dxz  x2-y2    tot
    1  0.078  0.047  0.028  0.047  0.000  0.000  0.000  0.000  0.000  0.199
    2  0.078  0.047  0.027  0.047  0.000  0.000  0.000  0.000  0.000  0.199
tot    0.156  0.094  0.055  0.094  0.000  0.000  0.000  0.000  0.000  0.399

band     9 # energy   12.77055577 # occ.  0.00000000

ion      s     py     pz     px    dxy    dyz    dz2    dxz  x2-y2    tot
    1  0.000  0.004  0.000  0.004  0.000  0.000  0.000  0.000  0.000  0.008
    2  0.000  0.004  0.000  0.004  0.000  0.000  0.000  0.000  0.000  0.008
tot    0.000  0.008  0.000  0.008  0.000  0.000  0.000  0.000  0.000  0.016


 k-point   115 :    0.27717391 0.27717391 0.55434783     weight = 0.00000000

band     1 # energy   -5.21792961 # occ.  2.00000000

ion      s     py     pz     px    dxy    dyz    dz2    dxz  x2-y2    tot
    1  0.215  0.009  0.004  0.009  0.000  0.000  0.000  0.000  0.000  0.237
    2  0.215  0.009  0.004  0.009  0.000  0.000  0.000  0.000  0.000  0.237
tot    0.429  0.018  0.008  0.018  0.000  0.000  0.000  0.000  0.000  0.473

band     2 # energy   -1.28420016 # occ.  2.00000000

ion      s     py     pz     px    dxy    dyz    dz2    dxz  x2-y2    tot
    1  0.164  0.018  0.040  0.018  0.000  0.000  0.000  0.000  0.000  0.241
    2  0.164  0.018  0.040  0.018  0.000  0.000  0.000  0.000  0.000  0.241
tot    0.328  0.036  0.081  0.036  0.000  0.000  0.000  0.000  0.000  0.481

band     3 # energy    0.91230460 # occ.  2.00000000

ion      s     py     pz     px    dxy    dyz    dz2    dxz  x2-y2    tot
    1  0.011  0.038  0.077  0.038  0.000  0.000  0.000  0.000  0.000  0.164
    2  0.011  0.038  0.077  0.038  0.000  0.000  0.000  0.000  0.000  0.164
tot    0.021  0.077  0.154  0.077  0.000  0.000  0.000  0.000  0.000  0.329

band     4 # energy    3.54561337 # occ.  2.00000000

ion      s     py     pz     px    dxy    dyz    dz2    dxz  x2-y2    tot
    1  0.000  0.104  0.000  0.104  0.000  0.000  0.000  0.000  0.000  0.208
    2  0.000  0.104  0.000  0.104  0.000  0.000  0.000  0.000  0.000  0.208
tot    0.000  0.208  0.000  0.208  0.000  0.000  0.000  0.000  0.000  0.416

band     5 # energy    8.12652839 # occ.  0.00000000

ion      s     py     pz     px    dxy    dyz    dz2    dxz  x2-y2    tot
    1  0.060  0.002  0.052  0.002  0.000  0.000  0.000  0.000  0.000  0.115
    2  0.060  0.002  0.052  0.002  0.000  0.000  0.000  0.000  0.000  0.115
tot    0.120  0.003  0.103  0.003  0.000  0.000  0.000  0.000  0.000  0.230

band     6 # energy   11.51215569 # occ.  0.00000000

ion      s     py     pz     px    dxy    dyz    dz2    dxz  x2-y2    tot
    1  0.000  0.074  0.000  0.074  0.000  0.000  0.000  0.000  0.000  0.148
    2  0.000  0.074  0.000  0.074  0.000  0.000  0.000  0.000  0.000  0.148
tot    0.000  0.148  0.000  0.148  0.000  0.000  0.000  0.000  0.000  0.296

band     7 # energy   11.72850594 # occ.  0.00000000

ion      s     py     pz     px    dxy    dyz    dz2    dxz  x2-y2    tot
    1  0.028  0.000  0.092  0.000  0.000  0.000  0.000  0.000  0.000  0.120
    2  0.028  0.000  0.092  0.000  0.000  0.000  0.000  0.000  0.000  0.120
tot    0.056  0.000  0.184  0.000  0.000  0.000  0.000  0.000  0.000  0.240

band     8 # energy   12.70311109 # occ.  0.00000000

ion      s     py     pz     px    dxy    dyz    dz2    dxz  x2-y2    tot
    1  0.077  0.049  0.031  0.049  0.000  0.000  0.000  0.000  0.000  0.206
    2  0.077  0.049  0.031  0.049  0.000  0.000  0.000  0.000  0.000  0.206
tot    0.154  0.098  0.062  0.098  0.000  0.000  0.000  0.000  0.000  0.411

band     9 # energy   12.98149972 # occ.  0.00000000

ion      s     py     pz     px    dxy    dyz    dz2    dxz  x2-y2    tot
    1  0.000  0.005  0.000  0.005  0.000  0.000  0.000  0.000  0.000  0.009
    2  0.000  0.005  0.000  0.005  0.000  0.000  0.000  0.000  0.000  0.009
tot    0.000  0.009  0.000  0.009  0.000  0.000  0.000  0.000  0.000  0.018


 k-point   116 :    0.29347826 0.29347826 0.58695652     weight = 0.00000000

band     1 # energy   -4.94968611 # occ.  2.00000000

ion      s     py     pz     px    dxy    dyz    dz2    dxz  x2-y2    tot
    1  0.215  0.009  0.006  0.009  0.000  0.000  0.000  0.000  0.000  0.239
    2  0.215  0.009  0.006  0.009  0.000  0.000  0.000  0.000  0.000  0.239
tot    0.431  0.018  0.012  0.018  0.000  0.000  0.000  0.000  0.000  0.479

band     2 # energy   -1.57347421 # occ.  2.00000000

ion      s     py     pz     px    dxy    dyz    dz2    dxz  x2-y2    tot
    1  0.169  0.016  0.041  0.016  0.000  0.000  0.000  0.000  0.000  0.241
    2  0.169  0.016  0.041  0.016  0.000  0.000  0.000  0.000  0.000  0.241
tot    0.337  0.031  0.082  0.031  0.000  0.000  0.000  0.000  0.000  0.482

band     3 # energy    0.75022522 # occ.  2.00000000

ion      s     py     pz     px    dxy    dyz    dz2    dxz  x2-y2    tot
    1  0.009  0.040  0.073  0.040  0.000  0.000  0.000  0.000  0.000  0.162
    2  0.009  0.040  0.073  0.040  0.000  0.000  0.000  0.000  0.000  0.162
tot    0.018  0.080  0.145  0.080  0.000  0.000  0.000  0.000  0.000  0.324

band     4 # energy    3.37530610 # occ.  2.00000000

ion      s     py     pz     px    dxy    dyz    dz2    dxz  x2-y2    tot
    1  0.000  0.103  0.000  0.103  0.000  0.000  0.000  0.000  0.000  0.206
    2  0.000  0.103  0.000  0.103  0.000  0.000  0.000  0.000  0.000  0.206
tot    0.000  0.206  0.000  0.206  0.000  0.000  0.000  0.000  0.000  0.413

band     5 # energy    7.93816135 # occ.  0.00000000

ion      s     py     pz     px    dxy    dyz    dz2    dxz  x2-y2    tot
    1  0.058  0.002  0.048  0.002  0.000  0.000  0.000  0.000  0.000  0.109
    2  0.058  0.002  0.048  0.002  0.000  0.000  0.000  0.000  0.000  0.109
tot    0.116  0.003  0.096  0.003  0.000  0.000  0.000  0.000  0.000  0.219

band     6 # energy   11.85565250 # occ.  0.00000000

ion      s     py     pz     px    dxy    dyz    dz2    dxz  x2-y2    tot
    1  0.000  0.074  0.000  0.074  0.000  0.000  0.000  0.000  0.000  0.149
    2  0.000  0.074  0.000  0.074  0.000  0.000  0.000  0.000  0.000  0.149
tot    0.000  0.149  0.000  0.149  0.000  0.000  0.000  0.000  0.000  0.297

band     7 # energy   12.04459205 # occ.  0.00000000

ion      s     py     pz     px    dxy    dyz    dz2    dxz  x2-y2    tot
    1  0.023  0.001  0.081  0.001  0.000  0.000  0.000  0.000  0.000  0.105
    2  0.023  0.001  0.081  0.001  0.000  0.000  0.000  0.000  0.000  0.105
tot    0.045  0.002  0.161  0.002  0.000  0.000  0.000  0.000  0.000  0.211

band     8 # energy   12.96611995 # occ.  0.00000000

ion      s     py     pz     px    dxy    dyz    dz2    dxz  x2-y2    tot
    1  0.075  0.052  0.034  0.052  0.000  0.000  0.000  0.000  0.000  0.211
    2  0.075  0.051  0.034  0.051  0.000  0.000  0.000  0.000  0.000  0.211
tot    0.150  0.103  0.067  0.103  0.000  0.000  0.000  0.000  0.000  0.423

band     9 # energy   13.22398318 # occ.  0.00000000

ion      s     py     pz     px    dxy    dyz    dz2    dxz  x2-y2    tot
    1  0.000  0.005  0.000  0.005  0.000  0.000  0.000  0.000  0.000  0.010
    2  0.000  0.005  0.000  0.005  0.000  0.000  0.000  0.000  0.000  0.010
tot    0.000  0.010  0.000  0.010  0.000  0.000  0.000  0.000  0.000  0.021


 k-point   117 :    0.30978261 0.30978261 0.61956522     weight = 0.00000000

band     1 # energy   -4.68667065 # occ.  2.00000000

ion      s     py     pz     px    dxy    dyz    dz2    dxz  x2-y2    tot
    1  0.216  0.009  0.008  0.009  0.000  0.000  0.000  0.000  0.000  0.242
    2  0.216  0.009  0.008  0.009  0.000  0.000  0.000  0.000  0.000  0.242
tot    0.433  0.018  0.016  0.018  0.000  0.000  0.000  0.000  0.000  0.484

band     2 # energy   -1.84155844 # occ.  2.00000000

ion      s     py     pz     px    dxy    dyz    dz2    dxz  x2-y2    tot
    1  0.173  0.013  0.042  0.013  0.000  0.000  0.000  0.000  0.000  0.241
    2  0.173  0.013  0.042  0.013  0.000  0.000  0.000  0.000  0.000  0.241
tot    0.346  0.027  0.084  0.027  0.000  0.000  0.000  0.000  0.000  0.482

band     3 # energy    0.62857705 # occ.  2.00000000

ion      s     py     pz     px    dxy    dyz    dz2    dxz  x2-y2    tot
    1  0.007  0.043  0.068  0.043  0.000  0.000  0.000  0.000  0.000  0.160
    2  0.007  0.043  0.068  0.043  0.000  0.000  0.000  0.000  0.000  0.160
tot    0.013  0.085  0.136  0.085  0.000  0.000  0.000  0.000  0.000  0.319

band     4 # energy    3.21060541 # occ.  2.00000000

ion      s     py     pz     px    dxy    dyz    dz2    dxz  x2-y2    tot
    1  0.000  0.102  0.000  0.102  0.000  0.000  0.000  0.000  0.000  0.205
    2  0.000  0.102  0.000  0.102  0.000  0.000  0.000  0.000  0.000  0.205
tot    0.000  0.205  0.000  0.205  0.000  0.000  0.000  0.000  0.000  0.409

band     5 # energy    7.75420176 # occ.  0.00000000

ion      s     py     pz     px    dxy    dyz    dz2    dxz  x2-y2    tot
    1  0.056  0.002  0.045  0.002  0.000  0.000  0.000  0.000  0.000  0.105
    2  0.056  0.002  0.045  0.002  0.000  0.000  0.000  0.000  0.000  0.105
tot    0.112  0.003  0.091  0.003  0.000  0.000  0.000  0.000  0.000  0.209

band     6 # energy   12.21579559 # occ.  0.00000000

ion      s     py     pz     px    dxy    dyz    dz2    dxz  x2-y2    tot
    1  0.000  0.075  0.000  0.075  0.000  0.000  0.000  0.000  0.000  0.149
    2  0.000  0.075  0.000  0.075  0.000  0.000  0.000  0.000  0.000  0.149
tot    0.000  0.149  0.000  0.149  0.000  0.000  0.000  0.000  0.000  0.299

band     7 # energy   12.29202185 # occ.  0.00000000

ion      s     py     pz     px    dxy    dyz    dz2    dxz  x2-y2    tot
    1  0.010  0.008  0.050  0.008  0.000  0.000  0.000  0.000  0.000  0.076
    2  0.010  0.008  0.050  0.008  0.000  0.000  0.000  0.000  0.000  0.076
tot    0.021  0.015  0.101  0.015  0.000  0.000  0.000  0.000  0.000  0.152

band     8 # energy   13.25213972 # occ.  0.00000000

ion      s     py     pz     px    dxy    dyz    dz2    dxz  x2-y2    tot
    1  0.072  0.056  0.035  0.052  0.000  0.000  0.000  0.000  0.000  0.216
    2  0.071  0.056  0.035  0.052  0.000  0.000  0.000  0.000  0.000  0.215
tot    0.143  0.113  0.071  0.105  0.000  0.000  0.000  0.000  0.000  0.431

band     9 # energy   13.49999093 # occ.  0.00000000

ion      s     py     pz     px    dxy    dyz    dz2    dxz  x2-y2    tot
    1  0.040  0.036  0.077  0.037  0.000  0.000  0.000  0.000  0.000  0.189
    2  0.040  0.037  0.077  0.036  0.000  0.000  0.000  0.000  0.000  0.189
tot    0.079  0.073  0.153  0.073  0.000  0.000  0.000  0.000  0.000  0.378


 k-point   118 :    0.32608696 0.32608696 0.65217391     weight = 0.00000000

band     1 # energy   -4.43521747 # occ.  2.00000000

ion      s     py     pz     px    dxy    dyz    dz2    dxz  x2-y2    tot
    1  0.217  0.008  0.011  0.008  0.000  0.000  0.000  0.000  0.000  0.245
    2  0.217  0.008  0.011  0.008  0.000  0.000  0.000  0.000  0.000  0.245
tot    0.435  0.016  0.022  0.016  0.000  0.000  0.000  0.000  0.000  0.489

band     2 # energy   -2.08822285 # occ.  2.00000000

ion      s     py     pz     px    dxy    dyz    dz2    dxz  x2-y2    tot
    1  0.177  0.011  0.042  0.011  0.000  0.000  0.000  0.000  0.000  0.241
    2  0.177  0.011  0.042  0.011  0.000  0.000  0.000  0.000  0.000  0.241
tot    0.354  0.022  0.085  0.022  0.000  0.000  0.000  0.000  0.000  0.483

band     3 # energy    0.55319517 # occ.  2.00000000

ion      s     py     pz     px    dxy    dyz    dz2    dxz  x2-y2    tot
    1  0.004  0.045  0.063  0.045  0.000  0.000  0.000  0.000  0.000  0.158
    2  0.004  0.045  0.063  0.045  0.000  0.000  0.000  0.000  0.000  0.158
tot    0.009  0.091  0.125  0.091  0.000  0.000  0.000  0.000  0.000  0.315

band     4 # energy    3.05355480 # occ.  2.00000000

ion      s     py     pz     px    dxy    dyz    dz2    dxz  x2-y2    tot
    1  0.000  0.102  0.000  0.102  0.000  0.000  0.000  0.000  0.000  0.203
    2  0.000  0.102  0.000  0.102  0.000  0.000  0.000  0.000  0.000  0.203
tot    0.000  0.203  0.000  0.203  0.000  0.000  0.000  0.000  0.000  0.407

band     5 # energy    7.57801635 # occ.  0.00000000

ion      s     py     pz     px    dxy    dyz    dz2    dxz  x2-y2    tot
    1  0.055  0.001  0.043  0.001  0.000  0.000  0.000  0.000  0.000  0.101
    2  0.055  0.001  0.043  0.001  0.000  0.000  0.000  0.000  0.000  0.101
tot    0.110  0.003  0.086  0.003  0.000  0.000  0.000  0.000  0.000  0.201

band     6 # energy   12.16757404 # occ.  0.00000000

ion      s     py     pz     px    dxy    dyz    dz2    dxz  x2-y2    tot
    1  0.001  0.030  0.003  0.030  0.000  0.000  0.000  0.000  0.000  0.063
    2  0.001  0.030  0.003  0.030  0.000  0.000  0.000  0.000  0.000  0.063
tot    0.001  0.059  0.005  0.059  0.000  0.000  0.000  0.000  0.000  0.125

band     7 # energy   12.59191897 # occ.  0.00000000

ion      s     py     pz     px    dxy    dyz    dz2    dxz  x2-y2    tot
    1  0.000  0.075  0.000  0.075  0.000  0.000  0.000  0.000  0.000  0.150
    2  0.000  0.075  0.000  0.075  0.000  0.000  0.000  0.000  0.000  0.150
tot    0.000  0.150  0.000  0.150  0.000  0.000  0.000  0.000  0.000  0.301

band     8 # energy   13.24930005 # occ.  0.00000000

ion      s     py     pz     px    dxy    dyz    dz2    dxz  x2-y2    tot
    1  0.052  0.012  0.122  0.012  0.000  0.000  0.000  0.000  0.000  0.198
    2  0.052  0.012  0.122  0.012  0.000  0.000  0.000  0.000  0.000  0.198
tot    0.104  0.024  0.244  0.024  0.000  0.000  0.000  0.000  0.000  0.397

band     9 # energy   13.55651737 # occ.  0.00000000

ion      s     py     pz     px    dxy    dyz    dz2    dxz  x2-y2    tot
    1  0.068  0.060  0.036  0.055  0.000  0.000  0.000  0.000  0.000  0.220
    2  0.068  0.060  0.037  0.056  0.000  0.000  0.000  0.000  0.000  0.220
tot    0.135  0.120  0.073  0.111  0.000  0.000  0.000  0.000  0.000  0.439


 k-point   119 :    0.34239130 0.34239130 0.68478261     weight = 0.00000000

band     1 # energy   -4.20224424 # occ.  2.00000000

ion      s     py     pz     px    dxy    dyz    dz2    dxz  x2-y2    tot
    1  0.218  0.007  0.014  0.007  0.000  0.000  0.000  0.000  0.000  0.247
    2  0.218  0.007  0.014  0.007  0.000  0.000  0.000  0.000  0.000  0.247
tot    0.436  0.015  0.029  0.015  0.000  0.000  0.000  0.000  0.000  0.494

band     2 # energy   -2.31328403 # occ.  2.00000000

ion      s     py     pz     px    dxy    dyz    dz2    dxz  x2-y2    tot
    1  0.180  0.009  0.043  0.009  0.000  0.000  0.000  0.000  0.000  0.242
    2  0.180  0.009  0.043  0.009  0.000  0.000  0.000  0.000  0.000  0.242
tot    0.361  0.018  0.086  0.018  0.000  0.000  0.000  0.000  0.000  0.483

band     3 # energy    0.52999731 # occ.  2.00000000

ion      s     py     pz     px    dxy    dyz    dz2    dxz  x2-y2    tot
    1  0.002  0.049  0.057  0.049  0.000  0.000  0.000  0.000  0.000  0.157
    2  0.002  0.049  0.057  0.049  0.000  0.000  0.000  0.000  0.000  0.157
tot    0.005  0.098  0.113  0.098  0.000  0.000  0.000  0.000  0.000  0.313

band     4 # energy    2.90589405 # occ.  2.00000000

ion      s     py     pz     px    dxy    dyz    dz2    dxz  x2-y2    tot
    1  0.000  0.101  0.000  0.101  0.000  0.000  0.000  0.000  0.000  0.202
    2  0.000  0.101  0.000  0.101  0.000  0.000  0.000  0.000  0.000  0.202
tot    0.000  0.202  0.000  0.202  0.000  0.000  0.000  0.000  0.000  0.404

band     5 # energy    7.41207874 # occ.  0.00000000

ion      s     py     pz     px    dxy    dyz    dz2    dxz  x2-y2    tot
    1  0.054  0.001  0.041  0.001  0.000  0.000  0.000  0.000  0.000  0.097
    2  0.054  0.001  0.041  0.001  0.000  0.000  0.000  0.000  0.000  0.097
tot    0.108  0.002  0.082  0.002  0.000  0.000  0.000  0.000  0.000  0.195

band     6 # energy   11.58382022 # occ.  0.00000000

ion      s     py     pz     px    dxy    dyz    dz2    dxz  x2-y2    tot
    1  0.011  0.038  0.003  0.038  0.000  0.000  0.000  0.000  0.000  0.089
    2  0.011  0.038  0.003  0.038  0.000  0.000  0.000  0.000  0.000  0.089
tot    0.021  0.075  0.006  0.075  0.000  0.000  0.000  0.000  0.000  0.177

band     7 # energy   12.98315786 # occ.  0.00000000

ion      s     py     pz     px    dxy    dyz    dz2    dxz  x2-y2    tot
    1  0.000  0.076  0.000  0.076  0.000  0.000  0.000  0.000  0.000  0.152
    2  0.000  0.076  0.000  0.076  0.000  0.000  0.000  0.000  0.000  0.152
tot    0.000  0.152  0.000  0.152  0.000  0.000  0.000  0.000  0.000  0.304

band     8 # energy   13.48510153 # occ.  0.00000000

ion      s     py     pz     px    dxy    dyz    dz2    dxz  x2-y2    tot
    1  0.044  0.002  0.119  0.002  0.000  0.000  0.000  0.000  0.000  0.168
    2  0.045  0.002  0.119  0.002  0.000  0.000  0.000  0.000  0.000  0.168
tot    0.089  0.004  0.238  0.004  0.000  0.000  0.000  0.000  0.000  0.335

band     9 # energy   13.87834492 # occ.  0.00000000

ion      s     py     pz     px    dxy    dyz    dz2    dxz  x2-y2    tot
    1  0.063  0.065  0.036  0.057  0.000  0.000  0.000  0.000  0.000  0.221
    2  0.063  0.065  0.037  0.057  0.000  0.000  0.000  0.000  0.000  0.221
tot    0.125  0.131  0.073  0.114  0.000  0.000  0.000  0.000  0.000  0.443


 k-point   120 :    0.35869565 0.35869565 0.71739130     weight = 0.00000000

band     1 # energy   -3.99450287 # occ.  2.00000000

ion      s     py     pz     px    dxy    dyz    dz2    dxz  x2-y2    tot
    1  0.218  0.006  0.019  0.006  0.000  0.000  0.000  0.000  0.000  0.249
    2  0.218  0.006  0.019  0.006  0.000  0.000  0.000  0.000  0.000  0.249
tot    0.435  0.012  0.037  0.012  0.000  0.000  0.000  0.000  0.000  0.497

band     2 # energy   -2.51660093 # occ.  2.00000000

ion      s     py     pz     px    dxy    dyz    dz2    dxz  x2-y2    tot
    1  0.184  0.007  0.043  0.007  0.000  0.000  0.000  0.000  0.000  0.242
    2  0.184  0.007  0.043  0.007  0.000  0.000  0.000  0.000  0.000  0.242
tot    0.367  0.015  0.087  0.015  0.000  0.000  0.000  0.000  0.000  0.483

band     3 # energy    0.56405013 # occ.  2.00000000

ion      s     py     pz     px    dxy    dyz    dz2    dxz  x2-y2    tot
    1  0.001  0.053  0.050  0.053  0.000  0.000  0.000  0.000  0.000  0.156
    2  0.001  0.053  0.050  0.053  0.000  0.000  0.000  0.000  0.000  0.156
tot    0.002  0.106  0.100  0.106  0.000  0.000  0.000  0.000  0.000  0.313

band     4 # energy    2.76910763 # occ.  2.00000000

ion      s     py     pz     px    dxy    dyz    dz2    dxz  x2-y2    tot
    1  0.000  0.100  0.000  0.100  0.000  0.000  0.000  0.000  0.000  0.201
    2  0.000  0.100  0.000  0.100  0.000  0.000  0.000  0.000  0.000  0.201
tot    0.000  0.201  0.000  0.201  0.000  0.000  0.000  0.000  0.000  0.402

band     5 # energy    7.25856913 # occ.  0.00000000

ion      s     py     pz     px    dxy    dyz    dz2    dxz  x2-y2    tot
    1  0.053  0.001  0.039  0.001  0.000  0.000  0.000  0.000  0.000  0.095
    2  0.053  0.001  0.039  0.001  0.000  0.000  0.000  0.000  0.000  0.095
tot    0.107  0.002  0.079  0.002  0.000  0.000  0.000  0.000  0.000  0.190

band     6 # energy   10.89276557 # occ.  0.00000000

ion      s     py     pz     px    dxy    dyz    dz2    dxz  x2-y2    tot
    1  0.018  0.037  0.009  0.037  0.000  0.000  0.000  0.000  0.000  0.101
    2  0.018  0.037  0.009  0.037  0.000  0.000  0.000  0.000  0.000  0.101
tot    0.036  0.074  0.017  0.074  0.000  0.000  0.000  0.000  0.000  0.201

band     7 # energy   13.38835158 # occ.  0.00000000

ion      s     py     pz     px    dxy    dyz    dz2    dxz  x2-y2    tot
    1  0.000  0.077  0.000  0.077  0.000  0.000  0.000  0.000  0.000  0.154
    2  0.000  0.077  0.000  0.077  0.000  0.000  0.000  0.000  0.000  0.154
tot    0.000  0.154  0.000  0.154  0.000  0.000  0.000  0.000  0.000  0.308

band     8 # energy   13.86044119 # occ.  0.00000000

ion      s     py     pz     px    dxy    dyz    dz2    dxz  x2-y2    tot
    1  0.039  0.000  0.111  0.000  0.000  0.000  0.000  0.000  0.000  0.150
    2  0.039  0.000  0.111  0.000  0.000  0.000  0.000  0.000  0.000  0.150
tot    0.078  0.001  0.221  0.001  0.000  0.000  0.000  0.000  0.000  0.300

band     9 # energy   14.21439037 # occ.  0.00000000

ion      s     py     pz     px    dxy    dyz    dz2    dxz  x2-y2    tot
    1  0.057  0.071  0.035  0.058  0.000  0.000  0.000  0.000  0.000  0.221
    2  0.057  0.071  0.036  0.058  0.000  0.000  0.000  0.000  0.000  0.222
tot    0.114  0.142  0.071  0.116  0.000  0.000  0.000  0.000  0.000  0.443


 k-point   121 :    0.37500000 0.37500000 0.75000000     weight = 0.00000000

band     1 # energy   -3.81738595 # occ.  2.00000000

ion      s     py     pz     px    dxy    dyz    dz2    dxz  x2-y2    tot
    1  0.216  0.005  0.023  0.005  0.000  0.000  0.000  0.000  0.000  0.249
    2  0.216  0.005  0.023  0.005  0.000  0.000  0.000  0.000  0.000  0.249
tot    0.433  0.010  0.047  0.010  0.000  0.000  0.000  0.000  0.000  0.499

band     2 # energy   -2.69804836 # occ.  2.00000000

ion      s     py     pz     px    dxy    dyz    dz2    dxz  x2-y2    tot
    1  0.186  0.006  0.044  0.006  0.000  0.000  0.000  0.000  0.000  0.242
    2  0.186  0.006  0.044  0.006  0.000  0.000  0.000  0.000  0.000  0.242
tot    0.373  0.012  0.088  0.012  0.000  0.000  0.000  0.000  0.000  0.484

band     3 # energy    0.65810101 # occ.  2.00000000

ion      s     py     pz     px    dxy    dyz    dz2    dxz  x2-y2    tot
    1  0.000  0.057  0.043  0.057  0.000  0.000  0.000  0.000  0.000  0.158
    2  0.000  0.057  0.043  0.057  0.000  0.000  0.000  0.000  0.000  0.158
tot    0.000  0.115  0.086  0.115  0.000  0.000  0.000  0.000  0.000  0.315

band     4 # energy    2.64445211 # occ.  2.00000000

ion      s     py     pz     px    dxy    dyz    dz2    dxz  x2-y2    tot
    1  0.000  0.100  0.000  0.100  0.000  0.000  0.000  0.000  0.000  0.200
    2  0.000  0.100  0.000  0.100  0.000  0.000  0.000  0.000  0.000  0.200
tot    0.000  0.200  0.000  0.200  0.000  0.000  0.000  0.000  0.000  0.399

band     5 # energy    7.11890822 # occ.  0.00000000

ion      s     py     pz     px    dxy    dyz    dz2    dxz  x2-y2    tot
    1  0.053  0.001  0.038  0.001  0.000  0.000  0.000  0.000  0.000  0.093
    2  0.053  0.001  0.038  0.001  0.000  0.000  0.000  0.000  0.000  0.093
tot    0.106  0.002  0.076  0.002  0.000  0.000  0.000  0.000  0.000  0.185

band     6 # energy   10.19361684 # occ.  0.00000000

ion      s     py     pz     px    dxy    dyz    dz2    dxz  x2-y2    tot
    1  0.024  0.034  0.013  0.034  0.000  0.000  0.000  0.000  0.000  0.105
    2  0.024  0.034  0.013  0.034  0.000  0.000  0.000  0.000  0.000  0.105
tot    0.048  0.069  0.025  0.069  0.000  0.000  0.000  0.000  0.000  0.211

band     7 # energy   13.80593753 # occ.  0.00000000

ion      s     py     pz     px    dxy    dyz    dz2    dxz  x2-y2    tot
    1  0.000  0.078  0.000  0.078  0.000  0.000  0.000  0.000  0.000  0.157
    2  0.000  0.078  0.000  0.078  0.000  0.000  0.000  0.000  0.000  0.157
tot    0.000  0.157  0.000  0.157  0.000  0.000  0.000  0.000  0.000  0.313

band     8 # energy   14.28064930 # occ.  0.00000000

ion      s     py     pz     px    dxy    dyz    dz2    dxz  x2-y2    tot
    1  0.035  0.000  0.104  0.000  0.000  0.000  0.000  0.000  0.000  0.139
    2  0.035  0.000  0.103  0.000  0.000  0.000  0.000  0.000  0.000  0.139
tot    0.070  0.000  0.207  0.000  0.000  0.000  0.000  0.000  0.000  0.277

band     9 # energy   14.56227473 # occ.  0.00000000

ion      s     py     pz     px    dxy    dyz    dz2    dxz  x2-y2    tot
    1  0.050  0.077  0.034  0.059  0.000  0.000  0.000  0.000  0.000  0.220
    2  0.050  0.076  0.034  0.059  0.000  0.000  0.000  0.000  0.000  0.219
tot    0.100  0.153  0.068  0.117  0.000  0.000  0.000  0.000  0.000  0.439


 k-point   122 :    0.37500000 0.37500000 0.75000000     weight = 0.00000000

band     1 # energy   -3.81738595 # occ.  2.00000000

ion      s     py     pz     px    dxy    dyz    dz2    dxz  x2-y2    tot
    1  0.216  0.005  0.023  0.005  0.000  0.000  0.000  0.000  0.000  0.249
    2  0.216  0.005  0.023  0.005  0.000  0.000  0.000  0.000  0.000  0.249
tot    0.433  0.010  0.047  0.010  0.000  0.000  0.000  0.000  0.000  0.499

band     2 # energy   -2.69804836 # occ.  2.00000000

ion      s     py     pz     px    dxy    dyz    dz2    dxz  x2-y2    tot
    1  0.186  0.006  0.044  0.006  0.000  0.000  0.000  0.000  0.000  0.242
    2  0.186  0.006  0.044  0.006  0.000  0.000  0.000  0.000  0.000  0.242
tot    0.373  0.012  0.088  0.012  0.000  0.000  0.000  0.000  0.000  0.484

band     3 # energy    0.65810101 # occ.  2.00000000

ion      s     py     pz     px    dxy    dyz    dz2    dxz  x2-y2    tot
    1  0.000  0.057  0.043  0.057  0.000  0.000  0.000  0.000  0.000  0.158
    2  0.000  0.057  0.043  0.057  0.000  0.000  0.000  0.000  0.000  0.158
tot    0.000  0.115  0.086  0.115  0.000  0.000  0.000  0.000  0.000  0.315

band     4 # energy    2.64445211 # occ.  2.00000000

ion      s     py     pz     px    dxy    dyz    dz2    dxz  x2-y2    tot
    1  0.000  0.100  0.000  0.100  0.000  0.000  0.000  0.000  0.000  0.200
    2  0.000  0.100  0.000  0.100  0.000  0.000  0.000  0.000  0.000  0.200
tot    0.000  0.200  0.000  0.200  0.000  0.000  0.000  0.000  0.000  0.399

band     5 # energy    7.11890822 # occ.  0.00000000

ion      s     py     pz     px    dxy    dyz    dz2    dxz  x2-y2    tot
    1  0.053  0.001  0.038  0.001  0.000  0.000  0.000  0.000  0.000  0.093
    2  0.053  0.001  0.038  0.001  0.000  0.000  0.000  0.000  0.000  0.093
tot    0.106  0.002  0.076  0.002  0.000  0.000  0.000  0.000  0.000  0.185

band     6 # energy   10.19361684 # occ.  0.00000000

ion      s     py     pz     px    dxy    dyz    dz2    dxz  x2-y2    tot
    1  0.024  0.034  0.013  0.034  0.000  0.000  0.000  0.000  0.000  0.105
    2  0.024  0.034  0.013  0.034  0.000  0.000  0.000  0.000  0.000  0.105
tot    0.048  0.069  0.025  0.069  0.000  0.000  0.000  0.000  0.000  0.211

band     7 # energy   13.80593753 # occ.  0.00000000

ion      s     py     pz     px    dxy    dyz    dz2    dxz  x2-y2    tot
    1  0.000  0.078  0.000  0.078  0.000  0.000  0.000  0.000  0.000  0.157
    2  0.000  0.078  0.000  0.078  0.000  0.000  0.000  0.000  0.000  0.157
tot    0.000  0.157  0.000  0.157  0.000  0.000  0.000  0.000  0.000  0.313

band     8 # energy   14.28064930 # occ.  0.00000000

ion      s     py     pz     px    dxy    dyz    dz2    dxz  x2-y2    tot
    1  0.035  0.000  0.104  0.000  0.000  0.000  0.000  0.000  0.000  0.139
    2  0.035  0.000  0.103  0.000  0.000  0.000  0.000  0.000  0.000  0.139
tot    0.070  0.000  0.207  0.000  0.000  0.000  0.000  0.000  0.000  0.277

band     9 # energy   14.56227473 # occ.  0.00000000

ion      s     py     pz     px    dxy    dyz    dz2    dxz  x2-y2    tot
    1  0.050  0.077  0.034  0.059  0.000  0.000  0.000  0.000  0.000  0.220
    2  0.050  0.076  0.034  0.059  0.000  0.000  0.000  0.000  0.000  0.219
tot    0.100  0.153  0.068  0.117  0.000  0.000  0.000  0.000  0.000  0.439


 k-point   123 :    0.38235294 0.35294118 0.73529412     weight = 0.00000000

band     1 # energy   -3.88436173 # occ.  2.00000000

ion      s     py     pz     px    dxy    dyz    dz2    dxz  x2-y2    tot
    1  0.217  0.007  0.021  0.004  0.000  0.000  0.000  0.000  0.000  0.249
    2  0.217  0.007  0.021  0.004  0.000  0.000  0.000  0.000  0.000  0.249
tot    0.434  0.014  0.042  0.009  0.000  0.000  0.000  0.000  0.000  0.498

band     2 # energy   -2.62276150 # occ.  2.00000000

ion      s     py     pz     px    dxy    dyz    dz2    dxz  x2-y2    tot
    1  0.186  0.008  0.043  0.005  0.000  0.000  0.000  0.000  0.000  0.242
    2  0.186  0.008  0.043  0.005  0.000  0.000  0.000  0.000  0.000  0.242
tot    0.371  0.015  0.087  0.011  0.000  0.000  0.000  0.000  0.000  0.484

band     3 # energy    0.61530511 # occ.  2.00000000

ion      s     py     pz     px    dxy    dyz    dz2    dxz  x2-y2    tot
    1  0.000  0.054  0.046  0.057  0.000  0.000  0.000  0.000  0.000  0.157
    2  0.000  0.054  0.046  0.057  0.000  0.000  0.000  0.000  0.000  0.157
tot    0.001  0.107  0.092  0.113  0.000  0.000  0.000  0.000  0.000  0.314

band     4 # energy    2.64933532 # occ.  2.00000000

ion      s     py     pz     px    dxy    dyz    dz2    dxz  x2-y2    tot
    1  0.000  0.098  0.001  0.099  0.000  0.000  0.000  0.000  0.000  0.198
    2  0.000  0.098  0.001  0.099  0.000  0.000  0.000  0.000  0.000  0.198
tot    0.001  0.195  0.003  0.198  0.000  0.000  0.000  0.000  0.000  0.397

band     5 # energy    7.25578486 # occ.  0.00000000

ion      s     py     pz     px    dxy    dyz    dz2    dxz  x2-y2    tot
    1  0.052  0.000  0.038  0.005  0.000  0.000  0.000  0.000  0.000  0.095
    2  0.052  0.000  0.038  0.005  0.000  0.000  0.000  0.000  0.000  0.095
tot    0.104  0.000  0.075  0.010  0.000  0.000  0.000  0.000  0.000  0.190

band     6 # energy   10.51249499 # occ.  0.00000000

ion      s     py     pz     px    dxy    dyz    dz2    dxz  x2-y2    tot
    1  0.021  0.032  0.011  0.040  0.000  0.000  0.000  0.000  0.000  0.104
    2  0.021  0.032  0.011  0.040  0.000  0.000  0.000  0.000  0.000  0.104
tot    0.042  0.064  0.022  0.079  0.000  0.000  0.000  0.000  0.000  0.207

band     7 # energy   13.39414421 # occ.  0.00000000

ion      s     py     pz     px    dxy    dyz    dz2    dxz  x2-y2    tot
    1  0.012  0.060  0.025  0.055  0.000  0.000  0.000  0.000  0.000  0.153
    2  0.012  0.060  0.025  0.055  0.000  0.000  0.000  0.000  0.000  0.153
tot    0.024  0.121  0.050  0.110  0.000  0.000  0.000  0.000  0.000  0.305

band     8 # energy   14.01283601 # occ.  0.00000000

ion      s     py     pz     px    dxy    dyz    dz2    dxz  x2-y2    tot
    1  0.036  0.026  0.025  0.062  0.000  0.000  0.000  0.000  0.000  0.150
    2  0.036  0.027  0.026  0.062  0.000  0.000  0.000  0.000  0.000  0.151
tot    0.073  0.053  0.051  0.125  0.000  0.000  0.000  0.000  0.000  0.301

band     9 # energy   14.30933244 # occ.  0.00000000

ion      s     py     pz     px    dxy    dyz    dz2    dxz  x2-y2    tot
    1  0.025  0.019  0.082  0.021  0.000  0.000  0.000  0.000  0.000  0.146
    2  0.025  0.018  0.082  0.021  0.000  0.000  0.000  0.000  0.000  0.146
tot    0.050  0.037  0.164  0.042  0.000  0.000  0.000  0.000  0.000  0.292


 k-point   124 :    0.38970588 0.33088235 0.72058824     weight = 0.00000000

band     1 # energy   -3.94044921 # occ.  2.00000000

ion      s     py     pz     px    dxy    dyz    dz2    dxz  x2-y2    tot
    1  0.217  0.009  0.019  0.004  0.000  0.000  0.000  0.000  0.000  0.249
    2  0.217  0.009  0.019  0.004  0.000  0.000  0.000  0.000  0.000  0.249
tot    0.434  0.018  0.038  0.007  0.000  0.000  0.000  0.000  0.000  0.497

band     2 # energy   -2.55130017 # occ.  2.00000000

ion      s     py     pz     px    dxy    dyz    dz2    dxz  x2-y2    tot
    1  0.186  0.010  0.042  0.005  0.000  0.000  0.000  0.000  0.000  0.243
    2  0.186  0.010  0.042  0.005  0.000  0.000  0.000  0.000  0.000  0.243
tot    0.371  0.020  0.084  0.010  0.000  0.000  0.000  0.000  0.000  0.485

band     3 # energy    0.59890880 # occ.  2.00000000

ion      s     py     pz     px    dxy    dyz    dz2    dxz  x2-y2    tot
    1  0.001  0.050  0.050  0.056  0.000  0.000  0.000  0.000  0.000  0.157
    2  0.001  0.050  0.050  0.056  0.000  0.000  0.000  0.000  0.000  0.157
tot    0.001  0.100  0.099  0.113  0.000  0.000  0.000  0.000  0.000  0.314

band     4 # energy    2.56882673 # occ.  2.00000000

ion      s     py     pz     px    dxy    dyz    dz2    dxz  x2-y2    tot
    1  0.001  0.092  0.005  0.096  0.000  0.000  0.000  0.000  0.000  0.194
    2  0.001  0.092  0.005  0.096  0.000  0.000  0.000  0.000  0.000  0.194
tot    0.003  0.185  0.010  0.192  0.000  0.000  0.000  0.000  0.000  0.389

band     5 # energy    7.53530172 # occ.  0.00000000

ion      s     py     pz     px    dxy    dyz    dz2    dxz  x2-y2    tot
    1  0.049  0.002  0.036  0.012  0.000  0.000  0.000  0.000  0.000  0.099
    2  0.049  0.002  0.036  0.012  0.000  0.000  0.000  0.000  0.000  0.099
tot    0.099  0.004  0.072  0.024  0.000  0.000  0.000  0.000  0.000  0.198

band     6 # energy   10.83658081 # occ.  0.00000000

ion      s     py     pz     px    dxy    dyz    dz2    dxz  x2-y2    tot
    1  0.017  0.027  0.008  0.047  0.000  0.000  0.000  0.000  0.000  0.099
    2  0.017  0.027  0.008  0.047  0.000  0.000  0.000  0.000  0.000  0.099
tot    0.034  0.054  0.016  0.095  0.000  0.000  0.000  0.000  0.000  0.199

band     7 # energy   12.85511998 # occ.  0.00000000

ion      s     py     pz     px    dxy    dyz    dz2    dxz  x2-y2    tot
    1  0.022  0.056  0.038  0.039  0.000  0.000  0.000  0.000  0.000  0.154
    2  0.022  0.056  0.038  0.039  0.000  0.000  0.000  0.000  0.000  0.154
tot    0.045  0.111  0.076  0.078  0.000  0.000  0.000  0.000  0.000  0.309

band     8 # energy   13.37069089 # occ.  0.00000000

ion      s     py     pz     px    dxy    dyz    dz2    dxz  x2-y2    tot
    1  0.036  0.021  0.026  0.053  0.000  0.000  0.000  0.000  0.000  0.136
    2  0.036  0.021  0.026  0.053  0.000  0.000  0.000  0.000  0.000  0.136
tot    0.072  0.043  0.051  0.106  0.000  0.000  0.000  0.000  0.000  0.272

band     9 # energy   14.48035213 # occ.  0.00000000

ion      s     py     pz     px    dxy    dyz    dz2    dxz  x2-y2    tot
    1  0.018  0.026  0.073  0.032  0.000  0.000  0.000  0.000  0.000  0.150
    2  0.018  0.026  0.073  0.032  0.000  0.000  0.000  0.000  0.000  0.149
tot    0.036  0.052  0.146  0.064  0.000  0.000  0.000  0.000  0.000  0.299


 k-point   125 :    0.39705882 0.30882353 0.70588235     weight = 0.00000000

band     1 # energy   -3.98554078 # occ.  2.00000000

ion      s     py     pz     px    dxy    dyz    dz2    dxz  x2-y2    tot
    1  0.217  0.011  0.017  0.003  0.000  0.000  0.000  0.000  0.000  0.248
    2  0.217  0.011  0.017  0.003  0.000  0.000  0.000  0.000  0.000  0.248
tot    0.433  0.023  0.034  0.006  0.000  0.000  0.000  0.000  0.000  0.496

band     2 # energy   -2.48550350 # occ.  2.00000000

ion      s     py     pz     px    dxy    dyz    dz2    dxz  x2-y2    tot
    1  0.186  0.013  0.040  0.004  0.000  0.000  0.000  0.000  0.000  0.244
    2  0.186  0.013  0.040  0.004  0.000  0.000  0.000  0.000  0.000  0.244
tot    0.373  0.025  0.081  0.009  0.000  0.000  0.000  0.000  0.000  0.487

band     3 # energy    0.60883646 # occ.  2.00000000

ion      s     py     pz     px    dxy    dyz    dz2    dxz  x2-y2    tot
    1  0.001  0.046  0.053  0.057  0.000  0.000  0.000  0.000  0.000  0.157
    2  0.001  0.046  0.053  0.057  0.000  0.000  0.000  0.000  0.000  0.157
tot    0.002  0.093  0.106  0.113  0.000  0.000  0.000  0.000  0.000  0.314

band     4 # energy    2.42974710 # occ.  2.00000000

ion      s     py     pz     px    dxy    dyz    dz2    dxz  x2-y2    tot
    1  0.002  0.085  0.010  0.092  0.000  0.000  0.000  0.000  0.000  0.189
    2  0.002  0.085  0.010  0.092  0.000  0.000  0.000  0.000  0.000  0.189
tot    0.005  0.171  0.020  0.183  0.000  0.000  0.000  0.000  0.000  0.378

band     5 # energy    7.93103298 # occ.  0.00000000

ion      s     py     pz     px    dxy    dyz    dz2    dxz  x2-y2    tot
    1  0.045  0.005  0.033  0.021  0.000  0.000  0.000  0.000  0.000  0.104
    2  0.045  0.005  0.033  0.021  0.000  0.000  0.000  0.000  0.000  0.104
tot    0.091  0.010  0.066  0.041  0.000  0.000  0.000  0.000  0.000  0.208

band     6 # energy   11.13274601 # occ.  0.00000000

ion      s     py     pz     px    dxy    dyz    dz2    dxz  x2-y2    tot
    1  0.009  0.016  0.003  0.062  0.000  0.000  0.000  0.000  0.000  0.090
    2  0.009  0.016  0.003  0.062  0.000  0.000  0.000  0.000  0.000  0.090
tot    0.019  0.031  0.006  0.125  0.000  0.000  0.000  0.000  0.000  0.180

band     7 # energy   12.34655458 # occ.  0.00000000

ion      s     py     pz     px    dxy    dyz    dz2    dxz  x2-y2    tot
    1  0.034  0.062  0.046  0.021  0.000  0.000  0.000  0.000  0.000  0.163
    2  0.034  0.062  0.046  0.021  0.000  0.000  0.000  0.000  0.000  0.163
tot    0.067  0.124  0.092  0.042  0.000  0.000  0.000  0.000  0.000  0.325

band     8 # energy   12.73449021 # occ.  0.00000000

ion      s     py     pz     px    dxy    dyz    dz2    dxz  x2-y2    tot
    1  0.037  0.021  0.027  0.047  0.000  0.000  0.000  0.000  0.000  0.131
    2  0.037  0.021  0.027  0.047  0.000  0.000  0.000  0.000  0.000  0.131
tot    0.075  0.041  0.053  0.093  0.000  0.000  0.000  0.000  0.000  0.262

band     9 # energy   14.66993582 # occ.  0.00000000

ion      s     py     pz     px    dxy    dyz    dz2    dxz  x2-y2    tot
    1  0.014  0.028  0.072  0.037  0.000  0.000  0.000  0.000  0.000  0.151
    2  0.014  0.028  0.072  0.038  0.000  0.000  0.000  0.000  0.000  0.151
tot    0.028  0.056  0.143  0.075  0.000  0.000  0.000  0.000  0.000  0.302


 k-point   126 :    0.40441176 0.28676471 0.69117647     weight = 0.00000000

band     1 # energy   -4.01945774 # occ.  2.00000000

ion      s     py     pz     px    dxy    dyz    dz2    dxz  x2-y2    tot
    1  0.216  0.014  0.015  0.003  0.000  0.000  0.000  0.000  0.000  0.247
    2  0.216  0.014  0.015  0.003  0.000  0.000  0.000  0.000  0.000  0.247
tot    0.432  0.028  0.030  0.005  0.000  0.000  0.000  0.000  0.000  0.495

band     2 # energy   -2.42829512 # occ.  2.00000000

ion      s     py     pz     px    dxy    dyz    dz2    dxz  x2-y2    tot
    1  0.188  0.016  0.038  0.004  0.000  0.000  0.000  0.000  0.000  0.245
    2  0.188  0.016  0.038  0.004  0.000  0.000  0.000  0.000  0.000  0.245
tot    0.376  0.031  0.075  0.008  0.000  0.000  0.000  0.000  0.000  0.490

band     3 # energy    0.64464825 # occ.  2.00000000

ion      s     py     pz     px    dxy    dyz    dz2    dxz  x2-y2    tot
    1  0.002  0.043  0.056  0.057  0.000  0.000  0.000  0.000  0.000  0.158
    2  0.002  0.043  0.056  0.057  0.000  0.000  0.000  0.000  0.000  0.158
tot    0.004  0.085  0.112  0.114  0.000  0.000  0.000  0.000  0.000  0.315

band     4 # energy    2.26176895 # occ.  2.00000000

ion      s     py     pz     px    dxy    dyz    dz2    dxz  x2-y2    tot
    1  0.003  0.077  0.016  0.088  0.000  0.000  0.000  0.000  0.000  0.184
    2  0.003  0.077  0.016  0.088  0.000  0.000  0.000  0.000  0.000  0.184
tot    0.006  0.154  0.032  0.176  0.000  0.000  0.000  0.000  0.000  0.368

band     5 # energy    8.41373219 # occ.  0.00000000

ion      s     py     pz     px    dxy    dyz    dz2    dxz  x2-y2    tot
    1  0.040  0.008  0.029  0.030  0.000  0.000  0.000  0.000  0.000  0.107
    2  0.040  0.008  0.029  0.030  0.000  0.000  0.000  0.000  0.000  0.107
tot    0.081  0.016  0.059  0.059  0.000  0.000  0.000  0.000  0.000  0.215

band     6 # energy   11.22663498 # occ.  0.00000000

ion      s     py     pz     px    dxy    dyz    dz2    dxz  x2-y2    tot
    1  0.000  0.000  0.002  0.082  0.000  0.000  0.000  0.000  0.000  0.084
    2  0.000  0.000  0.002  0.082  0.000  0.000  0.000  0.000  0.000  0.084
tot    0.000  0.000  0.004  0.163  0.000  0.000  0.000  0.000  0.000  0.168

band     7 # energy   12.05943343 # occ.  0.00000000

ion      s     py     pz     px    dxy    dyz    dz2    dxz  x2-y2    tot
    1  0.046  0.075  0.048  0.000  0.000  0.000  0.000  0.000  0.000  0.168
    2  0.046  0.075  0.048  0.000  0.000  0.000  0.000  0.000  0.000  0.168
tot    0.091  0.150  0.095  0.000  0.000  0.000  0.000  0.000  0.000  0.336

band     8 # energy   12.11272895 # occ.  0.00000000

ion      s     py     pz     px    dxy    dyz    dz2    dxz  x2-y2    tot
    1  0.040  0.021  0.028  0.040  0.000  0.000  0.000  0.000  0.000  0.129
    2  0.040  0.021  0.028  0.040  0.000  0.000  0.000  0.000  0.000  0.129
tot    0.080  0.042  0.056  0.080  0.000  0.000  0.000  0.000  0.000  0.259

band     9 # energy   14.86199291 # occ.  0.00000000

ion      s     py     pz     px    dxy    dyz    dz2    dxz  x2-y2    tot
    1  0.011  0.028  0.072  0.041  0.000  0.000  0.000  0.000  0.000  0.152
    2  0.011  0.028  0.072  0.041  0.000  0.000  0.000  0.000  0.000  0.152
tot    0.021  0.056  0.145  0.082  0.000  0.000  0.000  0.000  0.000  0.303


 k-point   127 :    0.41176471 0.26470588 0.67647059     weight = 0.00000000

band     1 # energy   -4.04194543 # occ.  2.00000000

ion      s     py     pz     px    dxy    dyz    dz2    dxz  x2-y2    tot
    1  0.215  0.017  0.013  0.002  0.000  0.000  0.000  0.000  0.000  0.247
    2  0.215  0.017  0.013  0.002  0.000  0.000  0.000  0.000  0.000  0.247
tot    0.430  0.033  0.026  0.004  0.000  0.000  0.000  0.000  0.000  0.493

band     2 # energy   -2.38361355 # occ.  2.00000000

ion      s     py     pz     px    dxy    dyz    dz2    dxz  x2-y2    tot
    1  0.190  0.019  0.034  0.003  0.000  0.000  0.000  0.000  0.000  0.247
    2  0.190  0.019  0.034  0.003  0.000  0.000  0.000  0.000  0.000  0.247
tot    0.380  0.038  0.069  0.006  0.000  0.000  0.000  0.000  0.000  0.493

band     3 # energy    0.70554455 # occ.  2.00000000

ion      s     py     pz     px    dxy    dyz    dz2    dxz  x2-y2    tot
    1  0.002  0.039  0.059  0.058  0.000  0.000  0.000  0.000  0.000  0.159
    2  0.002  0.039  0.059  0.058  0.000  0.000  0.000  0.000  0.000  0.159
tot    0.005  0.078  0.119  0.116  0.000  0.000  0.000  0.000  0.000  0.318

band     4 # energy    2.09026630 # occ.  2.00000000

ion      s     py     pz     px    dxy    dyz    dz2    dxz  x2-y2    tot
    1  0.003  0.069  0.023  0.085  0.000  0.000  0.000  0.000  0.000  0.179
    2  0.003  0.069  0.023  0.085  0.000  0.000  0.000  0.000  0.000  0.179
tot    0.005  0.137  0.046  0.170  0.000  0.000  0.000  0.000  0.000  0.359

band     5 # energy    8.95581315 # occ.  0.00000000

ion      s     py     pz     px    dxy    dyz    dz2    dxz  x2-y2    tot
    1  0.034  0.010  0.025  0.040  0.000  0.000  0.000  0.000  0.000  0.108
    2  0.034  0.010  0.025  0.040  0.000  0.000  0.000  0.000  0.000  0.108
tot    0.067  0.019  0.050  0.080  0.000  0.000  0.000  0.000  0.000  0.216

band     6 # energy   10.88590646 # occ.  0.00000000

ion      s     py     pz     px    dxy    dyz    dz2    dxz  x2-y2    tot
    1  0.010  0.010  0.016  0.068  0.000  0.000  0.000  0.000  0.000  0.104
    2  0.010  0.010  0.016  0.068  0.000  0.000  0.000  0.000  0.000  0.104
tot    0.020  0.020  0.032  0.135  0.000  0.000  0.000  0.000  0.000  0.208

band     7 # energy   11.51384047 # occ.  0.00000000

ion      s     py     pz     px    dxy    dyz    dz2    dxz  x2-y2    tot
    1  0.045  0.023  0.030  0.033  0.000  0.000  0.000  0.000  0.000  0.131
    2  0.045  0.023  0.030  0.033  0.000  0.000  0.000  0.000  0.000  0.131
tot    0.090  0.046  0.061  0.065  0.000  0.000  0.000  0.000  0.000  0.262

band     8 # energy   12.23160753 # occ.  0.00000000

ion      s     py     pz     px    dxy    dyz    dz2    dxz  x2-y2    tot
    1  0.038  0.062  0.034  0.013  0.000  0.000  0.000  0.000  0.000  0.147
    2  0.038  0.062  0.034  0.013  0.000  0.000  0.000  0.000  0.000  0.147
tot    0.076  0.125  0.067  0.027  0.000  0.000  0.000  0.000  0.000  0.295

band     9 # energy   15.05164463 # occ.  0.00000000

ion      s     py     pz     px    dxy    dyz    dz2    dxz  x2-y2    tot
    1  0.008  0.027  0.074  0.043  0.000  0.000  0.000  0.000  0.000  0.152
    2  0.008  0.027  0.074  0.043  0.000  0.000  0.000  0.000  0.000  0.152
tot    0.016  0.054  0.148  0.085  0.000  0.000  0.000  0.000  0.000  0.303


 k-point   128 :    0.41911765 0.24264706 0.66176471     weight = 0.00000000

band     1 # energy   -4.05270440 # occ.  2.00000000

ion      s     py     pz     px    dxy    dyz    dz2    dxz  x2-y2    tot
    1  0.214  0.019  0.011  0.002  0.000  0.000  0.000  0.000  0.000  0.246
    2  0.214  0.019  0.011  0.002  0.000  0.000  0.000  0.000  0.000  0.246
tot    0.427  0.039  0.022  0.004  0.000  0.000  0.000  0.000  0.000  0.492

band     2 # energy   -2.35602503 # occ.  2.00000000

ion      s     py     pz     px    dxy    dyz    dz2    dxz  x2-y2    tot
    1  0.192  0.023  0.030  0.002  0.000  0.000  0.000  0.000  0.000  0.248
    2  0.192  0.023  0.030  0.002  0.000  0.000  0.000  0.000  0.000  0.248
tot    0.385  0.047  0.061  0.005  0.000  0.000  0.000  0.000  0.000  0.497

band     3 # energy    0.79032449 # occ.  2.00000000

ion      s     py     pz     px    dxy    dyz    dz2    dxz  x2-y2    tot
    1  0.003  0.035  0.063  0.060  0.000  0.000  0.000  0.000  0.000  0.160
    2  0.003  0.035  0.063  0.060  0.000  0.000  0.000  0.000  0.000  0.160
tot    0.006  0.070  0.125  0.119  0.000  0.000  0.000  0.000  0.000  0.321

band     4 # energy    1.93483209 # occ.  2.00000000

ion      s     py     pz     px    dxy    dyz    dz2    dxz  x2-y2    tot
    1  0.002  0.060  0.030  0.083  0.000  0.000  0.000  0.000  0.000  0.176
    2  0.002  0.060  0.030  0.083  0.000  0.000  0.000  0.000  0.000  0.176
tot    0.004  0.120  0.060  0.167  0.000  0.000  0.000  0.000  0.000  0.351

band     5 # energy    9.52029501 # occ.  0.00000000

ion      s     py     pz     px    dxy    dyz    dz2    dxz  x2-y2    tot
    1  0.022  0.008  0.018  0.054  0.000  0.000  0.000  0.000  0.000  0.102
    2  0.022  0.008  0.018  0.054  0.000  0.000  0.000  0.000  0.000  0.102
tot    0.044  0.017  0.035  0.109  0.000  0.000  0.000  0.000  0.000  0.204

band     6 # energy   10.38683602 # occ.  0.00000000

ion      s     py     pz     px    dxy    dyz    dz2    dxz  x2-y2    tot
    1  0.019  0.018  0.022  0.055  0.000  0.000  0.000  0.000  0.000  0.113
    2  0.019  0.018  0.022  0.055  0.000  0.000  0.000  0.000  0.000  0.113
tot    0.037  0.035  0.043  0.110  0.000  0.000  0.000  0.000  0.000  0.226

band     7 # energy   10.96096683 # occ.  0.00000000

ion      s     py     pz     px    dxy    dyz    dz2    dxz  x2-y2    tot
    1  0.055  0.028  0.036  0.020  0.000  0.000  0.000  0.000  0.000  0.139
    2  0.055  0.028  0.036  0.020  0.000  0.000  0.000  0.000  0.000  0.139
tot    0.110  0.056  0.072  0.041  0.000  0.000  0.000  0.000  0.000  0.278

band     8 # energy   12.58976610 # occ.  0.00000000

ion      s     py     pz     px    dxy    dyz    dz2    dxz  x2-y2    tot
    1  0.032  0.053  0.028  0.025  0.000  0.000  0.000  0.000  0.000  0.138
    2  0.032  0.053  0.028  0.025  0.000  0.000  0.000  0.000  0.000  0.138
tot    0.063  0.106  0.055  0.051  0.000  0.000  0.000  0.000  0.000  0.275

band     9 # energy   15.23665747 # occ.  0.00000000

ion      s     py     pz     px    dxy    dyz    dz2    dxz  x2-y2    tot
    1  0.006  0.026  0.076  0.043  0.000  0.000  0.000  0.000  0.000  0.151
    2  0.006  0.025  0.076  0.044  0.000  0.000  0.000  0.000  0.000  0.150
tot    0.011  0.051  0.151  0.087  0.000  0.000  0.000  0.000  0.000  0.301


 k-point   129 :    0.42647059 0.22058824 0.64705882     weight = 0.00000000

band     1 # energy   -4.05141489 # occ.  2.00000000

ion      s     py     pz     px    dxy    dyz    dz2    dxz  x2-y2    tot
    1  0.212  0.022  0.009  0.001  0.000  0.000  0.000  0.000  0.000  0.245
    2  0.212  0.022  0.009  0.001  0.000  0.000  0.000  0.000  0.000  0.245
tot    0.424  0.045  0.018  0.003  0.000  0.000  0.000  0.000  0.000  0.490

band     2 # energy   -2.35007902 # occ.  2.00000000

ion      s     py     pz     px    dxy    dyz    dz2    dxz  x2-y2    tot
    1  0.194  0.028  0.026  0.002  0.000  0.000  0.000  0.000  0.000  0.250
    2  0.194  0.028  0.026  0.002  0.000  0.000  0.000  0.000  0.000  0.250
tot    0.389  0.055  0.051  0.004  0.000  0.000  0.000  0.000  0.000  0.499

band     3 # energy    0.89732253 # occ.  2.00000000

ion      s     py     pz     px    dxy    dyz    dz2    dxz  x2-y2    tot
    1  0.004  0.031  0.066  0.061  0.000  0.000  0.000  0.000  0.000  0.162
    2  0.004  0.031  0.066  0.061  0.000  0.000  0.000  0.000  0.000  0.162
tot    0.008  0.062  0.132  0.123  0.000  0.000  0.000  0.000  0.000  0.325

band     4 # energy    1.80976643 # occ.  2.00000000

ion      s     py     pz     px    dxy    dyz    dz2    dxz  x2-y2    tot
    1  0.001  0.051  0.038  0.083  0.000  0.000  0.000  0.000  0.000  0.173
    2  0.001  0.051  0.038  0.083  0.000  0.000  0.000  0.000  0.000  0.173
tot    0.002  0.103  0.076  0.165  0.000  0.000  0.000  0.000  0.000  0.346

band     5 # energy    9.86715661 # occ.  0.00000000

ion      s     py     pz     px    dxy    dyz    dz2    dxz  x2-y2    tot
    1  0.024  0.021  0.023  0.047  0.000  0.000  0.000  0.000  0.000  0.116
    2  0.024  0.021  0.023  0.047  0.000  0.000  0.000  0.000  0.000  0.116
tot    0.048  0.043  0.046  0.095  0.000  0.000  0.000  0.000  0.000  0.232

band     6 # energy    9.91555082 # occ.  0.00000000

ion      s     py     pz     px    dxy    dyz    dz2    dxz  x2-y2    tot
    1  0.000  0.000  0.000  0.076  0.000  0.000  0.000  0.000  0.000  0.077
    2  0.000  0.000  0.000  0.076  0.000  0.000  0.000  0.000  0.000  0.077
tot    0.000  0.000  0.001  0.153  0.000  0.000  0.000  0.000  0.000  0.154

band     7 # energy   10.63633497 # occ.  0.00000000

ion      s     py     pz     px    dxy    dyz    dz2    dxz  x2-y2    tot
    1  0.075  0.039  0.051  0.000  0.000  0.000  0.000  0.000  0.000  0.165
    2  0.075  0.039  0.051  0.000  0.000  0.000  0.000  0.000  0.000  0.165
tot    0.149  0.078  0.102  0.000  0.000  0.000  0.000  0.000  0.000  0.330

band     8 # energy   12.99854603 # occ.  0.00000000

ion      s     py     pz     px    dxy    dyz    dz2    dxz  x2-y2    tot
    1  0.028  0.048  0.026  0.033  0.000  0.000  0.000  0.000  0.000  0.134
    2  0.028  0.048  0.026  0.033  0.000  0.000  0.000  0.000  0.000  0.134
tot    0.056  0.095  0.052  0.066  0.000  0.000  0.000  0.000  0.000  0.269

band     9 # energy   15.41617608 # occ.  0.00000000

ion      s     py     pz     px    dxy    dyz    dz2    dxz  x2-y2    tot
    1  0.004  0.024  0.077  0.043  0.000  0.000  0.000  0.000  0.000  0.149
    2  0.004  0.024  0.077  0.044  0.000  0.000  0.000  0.000  0.000  0.149
tot    0.007  0.048  0.155  0.087  0.000  0.000  0.000  0.000  0.000  0.297


 k-point   130 :    0.43382353 0.19852941 0.63235294     weight = 0.00000000

band     1 # energy   -4.03776626 # occ.  2.00000000

ion      s     py     pz     px    dxy    dyz    dz2    dxz  x2-y2    tot
    1  0.210  0.025  0.008  0.001  0.000  0.000  0.000  0.000  0.000  0.244
    2  0.210  0.025  0.008  0.001  0.000  0.000  0.000  0.000  0.000  0.244
tot    0.421  0.050  0.015  0.002  0.000  0.000  0.000  0.000  0.000  0.488

band     2 # energy   -2.36938455 # occ.  2.00000000

ion      s     py     pz     px    dxy    dyz    dz2    dxz  x2-y2    tot
    1  0.196  0.032  0.021  0.001  0.000  0.000  0.000  0.000  0.000  0.251
    2  0.196  0.032  0.021  0.001  0.000  0.000  0.000  0.000  0.000  0.251
tot    0.393  0.064  0.042  0.002  0.000  0.000  0.000  0.000  0.000  0.501

band     3 # energy    1.02434383 # occ.  2.00000000

ion      s     py     pz     px    dxy    dyz    dz2    dxz  x2-y2    tot
    1  0.004  0.027  0.069  0.064  0.000  0.000  0.000  0.000  0.000  0.165
    2  0.004  0.027  0.069  0.064  0.000  0.000  0.000  0.000  0.000  0.165
tot    0.008  0.055  0.139  0.127  0.000  0.000  0.000  0.000  0.000  0.330

band     4 # energy    1.72453041 # occ.  2.00000000

ion      s     py     pz     px    dxy    dyz    dz2    dxz  x2-y2    tot
    1  0.000  0.043  0.046  0.082  0.000  0.000  0.000  0.000  0.000  0.172
    2  0.000  0.043  0.046  0.082  0.000  0.000  0.000  0.000  0.000  0.172
tot    0.001  0.086  0.092  0.165  0.000  0.000  0.000  0.000  0.000  0.344

band     5 # energy    9.35540125 # occ.  0.00000000

ion      s     py     pz     px    dxy    dyz    dz2    dxz  x2-y2    tot
    1  0.029  0.023  0.023  0.041  0.000  0.000  0.000  0.000  0.000  0.116
    2  0.029  0.023  0.023  0.041  0.000  0.000  0.000  0.000  0.000  0.116
tot    0.057  0.047  0.045  0.083  0.000  0.000  0.000  0.000  0.000  0.232

band     6 # energy    9.63306393 # occ.  0.00000000

ion      s     py     pz     px    dxy    dyz    dz2    dxz  x2-y2    tot
    1  0.020  0.010  0.009  0.052  0.000  0.000  0.000  0.000  0.000  0.091
    2  0.020  0.010  0.009  0.052  0.000  0.000  0.000  0.000  0.000  0.091
tot    0.039  0.020  0.017  0.105  0.000  0.000  0.000  0.000  0.000  0.181

band     7 # energy   11.04263836 # occ.  0.00000000

ion      s     py     pz     px    dxy    dyz    dz2    dxz  x2-y2    tot
    1  0.053  0.032  0.041  0.025  0.000  0.000  0.000  0.000  0.000  0.152
    2  0.053  0.032  0.041  0.025  0.000  0.000  0.000  0.000  0.000  0.152
tot    0.107  0.064  0.083  0.051  0.000  0.000  0.000  0.000  0.000  0.304

band     8 # energy   13.43152512 # occ.  0.00000000

ion      s     py     pz     px    dxy    dyz    dz2    dxz  x2-y2    tot
    1  0.026  0.044  0.026  0.039  0.000  0.000  0.000  0.000  0.000  0.135
    2  0.025  0.044  0.026  0.039  0.000  0.000  0.000  0.000  0.000  0.135
tot    0.051  0.088  0.052  0.079  0.000  0.000  0.000  0.000  0.000  0.269

band     9 # energy   15.59039122 # occ.  0.00000000

ion      s     py     pz     px    dxy    dyz    dz2    dxz  x2-y2    tot
    1  0.002  0.023  0.079  0.042  0.000  0.000  0.000  0.000  0.000  0.146
    2  0.002  0.022  0.078  0.043  0.000  0.000  0.000  0.000  0.000  0.145
tot    0.004  0.045  0.157  0.085  0.000  0.000  0.000  0.000  0.000  0.291


 k-point   131 :    0.44117647 0.17647059 0.61764706     weight = 0.00000000

band     1 # energy   -4.01149835 # occ.  2.00000000

ion      s     py     pz     px    dxy    dyz    dz2    dxz  x2-y2    tot
    1  0.209  0.028  0.006  0.001  0.000  0.000  0.000  0.000  0.000  0.243
    2  0.209  0.028  0.006  0.001  0.000  0.000  0.000  0.000  0.000  0.243
tot    0.417  0.056  0.012  0.002  0.000  0.000  0.000  0.000  0.000  0.487

band     2 # energy   -2.41565742 # occ.  2.00000000

ion      s     py     pz     px    dxy    dyz    dz2    dxz  x2-y2    tot
    1  0.197  0.037  0.016  0.001  0.000  0.000  0.000  0.000  0.000  0.251
    2  0.197  0.037  0.016  0.001  0.000  0.000  0.000  0.000  0.000  0.251
tot    0.395  0.073  0.032  0.001  0.000  0.000  0.000  0.000  0.000  0.501

band     3 # energy    1.16848849 # occ.  2.00000000

ion      s     py     pz     px    dxy    dyz    dz2    dxz  x2-y2    tot
    1  0.005  0.024  0.073  0.067  0.000  0.000  0.000  0.000  0.000  0.168
    2  0.005  0.024  0.073  0.067  0.000  0.000  0.000  0.000  0.000  0.168
tot    0.009  0.047  0.146  0.133  0.000  0.000  0.000  0.000  0.000  0.335

band     4 # energy    1.68376491 # occ.  2.00000000

ion      s     py     pz     px    dxy    dyz    dz2    dxz  x2-y2    tot
    1  0.000  0.035  0.054  0.083  0.000  0.000  0.000  0.000  0.000  0.172
    2  0.000  0.035  0.054  0.083  0.000  0.000  0.000  0.000  0.000  0.172
tot    0.000  0.069  0.108  0.166  0.000  0.000  0.000  0.000  0.000  0.344

band     5 # energy    8.86228017 # occ.  0.00000000

ion      s     py     pz     px    dxy    dyz    dz2    dxz  x2-y2    tot
    1  0.033  0.025  0.021  0.036  0.000  0.000  0.000  0.000  0.000  0.115
    2  0.033  0.025  0.021  0.036  0.000  0.000  0.000  0.000  0.000  0.115
tot    0.065  0.050  0.043  0.072  0.000  0.000  0.000  0.000  0.000  0.229

band     6 # energy    9.15103996 # occ.  0.00000000

ion      s     py     pz     px    dxy    dyz    dz2    dxz  x2-y2    tot
    1  0.030  0.016  0.013  0.039  0.000  0.000  0.000  0.000  0.000  0.098
    2  0.030  0.016  0.013  0.039  0.000  0.000  0.000  0.000  0.000  0.098
tot    0.060  0.031  0.026  0.078  0.000  0.000  0.000  0.000  0.000  0.195

band     7 # energy   11.69801740 # occ.  0.00000000

ion      s     py     pz     px    dxy    dyz    dz2    dxz  x2-y2    tot
    1  0.041  0.029  0.036  0.039  0.000  0.000  0.000  0.000  0.000  0.145
    2  0.041  0.029  0.036  0.039  0.000  0.000  0.000  0.000  0.000  0.145
tot    0.082  0.058  0.071  0.079  0.000  0.000  0.000  0.000  0.000  0.290

band     8 # energy   13.87953298 # occ.  0.00000000

ion      s     py     pz     px    dxy    dyz    dz2    dxz  x2-y2    tot
    1  0.023  0.040  0.028  0.045  0.000  0.000  0.000  0.000  0.000  0.137
    2  0.023  0.041  0.028  0.046  0.000  0.000  0.000  0.000  0.000  0.137
tot    0.047  0.081  0.055  0.091  0.000  0.000  0.000  0.000  0.000  0.274

band     9 # energy   15.76008831 # occ.  0.00000000

ion      s     py     pz     px    dxy    dyz    dz2    dxz  x2-y2    tot
    1  0.001  0.021  0.080  0.040  0.000  0.000  0.000  0.000  0.000  0.142
    2  0.001  0.020  0.079  0.041  0.000  0.000  0.000  0.000  0.000  0.140
tot    0.002  0.041  0.158  0.081  0.000  0.000  0.000  0.000  0.000  0.282


 k-point   132 :    0.44852941 0.15441176 0.60294118     weight = 0.00000000

band     1 # energy   -3.97240111 # occ.  2.00000000

ion      s     py     pz     px    dxy    dyz    dz2    dxz  x2-y2    tot
    1  0.207  0.031  0.005  0.001  0.000  0.000  0.000  0.000  0.000  0.243
    2  0.207  0.031  0.005  0.001  0.000  0.000  0.000  0.000  0.000  0.243
tot    0.413  0.061  0.010  0.001  0.000  0.000  0.000  0.000  0.000  0.485

band     2 # energy   -2.48805352 # occ.  2.00000000

ion      s     py     pz     px    dxy    dyz    dz2    dxz  x2-y2    tot
    1  0.198  0.040  0.012  0.000  0.000  0.000  0.000  0.000  0.000  0.250
    2  0.198  0.040  0.012  0.000  0.000  0.000  0.000  0.000  0.000  0.250
tot    0.396  0.081  0.024  0.001  0.000  0.000  0.000  0.000  0.000  0.500

band     3 # energy    1.32595920 # occ.  2.00000000

ion      s     py     pz     px    dxy    dyz    dz2    dxz  x2-y2    tot
    1  0.005  0.020  0.077  0.070  0.000  0.000  0.000  0.000  0.000  0.171
    2  0.005  0.020  0.077  0.070  0.000  0.000  0.000  0.000  0.000  0.171
tot    0.009  0.039  0.153  0.140  0.000  0.000  0.000  0.000  0.000  0.342

band     4 # energy    1.68730699 # occ.  2.00000000

ion      s     py     pz     px    dxy    dyz    dz2    dxz  x2-y2    tot
    1  0.000  0.027  0.062  0.084  0.000  0.000  0.000  0.000  0.000  0.174
    2  0.000  0.027  0.062  0.084  0.000  0.000  0.000  0.000  0.000  0.174
tot    0.000  0.054  0.124  0.168  0.000  0.000  0.000  0.000  0.000  0.347

band     5 # energy    8.39504497 # occ.  0.00000000

ion      s     py     pz     px    dxy    dyz    dz2    dxz  x2-y2    tot
    1  0.036  0.026  0.019  0.031  0.000  0.000  0.000  0.000  0.000  0.112
    2  0.036  0.026  0.019  0.031  0.000  0.000  0.000  0.000  0.000  0.112
tot    0.072  0.053  0.039  0.061  0.000  0.000  0.000  0.000  0.000  0.224

band     6 # energy    8.66829915 # occ.  0.00000000

ion      s     py     pz     px    dxy    dyz    dz2    dxz  x2-y2    tot
    1  0.035  0.019  0.013  0.031  0.000  0.000  0.000  0.000  0.000  0.099
    2  0.035  0.019  0.013  0.031  0.000  0.000  0.000  0.000  0.000  0.099
tot    0.070  0.038  0.027  0.062  0.000  0.000  0.000  0.000  0.000  0.198

band     7 # energy   12.40161164 # occ.  0.00000000

ion      s     py     pz     px    dxy    dyz    dz2    dxz  x2-y2    tot
    1  0.034  0.028  0.034  0.048  0.000  0.000  0.000  0.000  0.000  0.143
    2  0.034  0.028  0.034  0.048  0.000  0.000  0.000  0.000  0.000  0.143
tot    0.068  0.056  0.067  0.096  0.000  0.000  0.000  0.000  0.000  0.287

band     8 # energy   14.33649823 # occ.  0.00000000

ion      s     py     pz     px    dxy    dyz    dz2    dxz  x2-y2    tot
    1  0.021  0.036  0.031  0.052  0.000  0.000  0.000  0.000  0.000  0.141
    2  0.021  0.036  0.031  0.052  0.000  0.000  0.000  0.000  0.000  0.141
tot    0.042  0.073  0.062  0.105  0.000  0.000  0.000  0.000  0.000  0.282

band     9 # energy   15.92763475 # occ.  0.00000000

ion      s     py     pz     px    dxy    dyz    dz2    dxz  x2-y2    tot
    1  0.000  0.020  0.078  0.036  0.000  0.000  0.000  0.000  0.000  0.135
    2  0.000  0.019  0.078  0.037  0.000  0.000  0.000  0.000  0.000  0.134
tot    0.001  0.039  0.156  0.073  0.000  0.000  0.000  0.000  0.000  0.269


 k-point   133 :    0.45588235 0.13235294 0.58823529     weight = 0.00000000

band     1 # energy   -3.92039149 # occ.  2.00000000

ion      s     py     pz     px    dxy    dyz    dz2    dxz  x2-y2    tot
    1  0.205  0.033  0.004  0.000  0.000  0.000  0.000  0.000  0.000  0.242
    2  0.205  0.033  0.004  0.000  0.000  0.000  0.000  0.000  0.000  0.242
tot    0.410  0.066  0.007  0.001  0.000  0.000  0.000  0.000  0.000  0.484

band     2 # energy   -2.58337319 # occ.  2.00000000

ion      s     py     pz     px    dxy    dyz    dz2    dxz  x2-y2    tot
    1  0.198  0.043  0.008  0.000  0.000  0.000  0.000  0.000  0.000  0.249
    2  0.198  0.043  0.008  0.000  0.000  0.000  0.000  0.000  0.000  0.249
tot    0.395  0.087  0.016  0.000  0.000  0.000  0.000  0.000  0.000  0.498

band     3 # energy    1.49175060 # occ.  2.00000000

ion      s     py     pz     px    dxy    dyz    dz2    dxz  x2-y2    tot
    1  0.004  0.016  0.081  0.074  0.000  0.000  0.000  0.000  0.000  0.175
    2  0.004  0.016  0.081  0.074  0.000  0.000  0.000  0.000  0.000  0.175
tot    0.009  0.032  0.161  0.148  0.000  0.000  0.000  0.000  0.000  0.349

band     4 # energy    1.73048637 # occ.  2.00000000

ion      s     py     pz     px    dxy    dyz    dz2    dxz  x2-y2    tot
    1  0.000  0.020  0.069  0.086  0.000  0.000  0.000  0.000  0.000  0.176
    2  0.000  0.020  0.069  0.086  0.000  0.000  0.000  0.000  0.000  0.176
tot    0.001  0.041  0.139  0.172  0.000  0.000  0.000  0.000  0.000  0.353

band     5 # energy    7.96065441 # occ.  0.00000000

ion      s     py     pz     px    dxy    dyz    dz2    dxz  x2-y2    tot
    1  0.039  0.028  0.017  0.025  0.000  0.000  0.000  0.000  0.000  0.109
    2  0.039  0.028  0.017  0.025  0.000  0.000  0.000  0.000  0.000  0.109
tot    0.079  0.055  0.033  0.050  0.000  0.000  0.000  0.000  0.000  0.218

band     6 # energy    8.21107943 # occ.  0.00000000

ion      s     py     pz     px    dxy    dyz    dz2    dxz  x2-y2    tot
    1  0.039  0.022  0.012  0.025  0.000  0.000  0.000  0.000  0.000  0.098
    2  0.039  0.022  0.012  0.025  0.000  0.000  0.000  0.000  0.000  0.098
tot    0.078  0.043  0.025  0.050  0.000  0.000  0.000  0.000  0.000  0.196

band     7 # energy   13.12627104 # occ.  0.00000000

ion      s     py     pz     px    dxy    dyz    dz2    dxz  x2-y2    tot
    1  0.029  0.027  0.033  0.055  0.000  0.000  0.000  0.000  0.000  0.143
    2  0.029  0.027  0.033  0.055  0.000  0.000  0.000  0.000  0.000  0.143
tot    0.057  0.054  0.067  0.110  0.000  0.000  0.000  0.000  0.000  0.287

band     8 # energy   14.79609661 # occ.  0.00000000

ion      s     py     pz     px    dxy    dyz    dz2    dxz  x2-y2    tot
    1  0.019  0.032  0.037  0.061  0.000  0.000  0.000  0.000  0.000  0.149
    2  0.019  0.032  0.037  0.061  0.000  0.000  0.000  0.000  0.000  0.149
tot    0.038  0.064  0.073  0.122  0.000  0.000  0.000  0.000  0.000  0.297

band     9 # energy   16.09714097 # occ.  0.00000000

ion      s     py     pz     px    dxy    dyz    dz2    dxz  x2-y2    tot
    1  0.000  0.019  0.075  0.031  0.000  0.000  0.000  0.000  0.000  0.125
    2  0.000  0.019  0.074  0.031  0.000  0.000  0.000  0.000  0.000  0.124
tot    0.000  0.037  0.149  0.063  0.000  0.000  0.000  0.000  0.000  0.249


 k-point   134 :    0.46323529 0.11029412 0.57352941     weight = 0.00000000

band     1 # energy   -3.85549468 # occ.  2.00000000

ion      s     py     pz     px    dxy    dyz    dz2    dxz  x2-y2    tot
    1  0.203  0.036  0.003  0.000  0.000  0.000  0.000  0.000  0.000  0.242
    2  0.203  0.036  0.003  0.000  0.000  0.000  0.000  0.000  0.000  0.242
tot    0.406  0.071  0.005  0.000  0.000  0.000  0.000  0.000  0.000  0.483

band     2 # energy   -2.69674429 # occ.  2.00000000

ion      s     py     pz     px    dxy    dyz    dz2    dxz  x2-y2    tot
    1  0.197  0.045  0.005  0.000  0.000  0.000  0.000  0.000  0.000  0.248
    2  0.197  0.045  0.005  0.000  0.000  0.000  0.000  0.000  0.000  0.248
tot    0.394  0.091  0.010  0.000  0.000  0.000  0.000  0.000  0.000  0.496

band     3 # energy    1.65931001 # occ.  2.00000000

ion      s     py     pz     px    dxy    dyz    dz2    dxz  x2-y2    tot
    1  0.004  0.012  0.085  0.078  0.000  0.000  0.000  0.000  0.000  0.179
    2  0.004  0.012  0.085  0.078  0.000  0.000  0.000  0.000  0.000  0.179
tot    0.008  0.024  0.169  0.157  0.000  0.000  0.000  0.000  0.000  0.358

band     4 # energy    1.80486385 # occ.  2.00000000

ion      s     py     pz     px    dxy    dyz    dz2    dxz  x2-y2    tot
    1  0.001  0.015  0.076  0.088  0.000  0.000  0.000  0.000  0.000  0.180
    2  0.001  0.015  0.076  0.088  0.000  0.000  0.000  0.000  0.000  0.180
tot    0.002  0.029  0.152  0.176  0.000  0.000  0.000  0.000  0.000  0.360

band     5 # energy    7.56707414 # occ.  0.00000000

ion      s     py     pz     px    dxy    dyz    dz2    dxz  x2-y2    tot
    1  0.043  0.029  0.013  0.020  0.000  0.000  0.000  0.000  0.000  0.105
    2  0.043  0.029  0.013  0.020  0.000  0.000  0.000  0.000  0.000  0.105
tot    0.085  0.058  0.027  0.040  0.000  0.000  0.000  0.000  0.000  0.210

band     6 # energy    7.79013934 # occ.  0.00000000

ion      s     py     pz     px    dxy    dyz    dz2    dxz  x2-y2    tot
    1  0.042  0.024  0.011  0.019  0.000  0.000  0.000  0.000  0.000  0.096
    2  0.042  0.024  0.011  0.019  0.000  0.000  0.000  0.000  0.000  0.096
tot    0.084  0.048  0.021  0.038  0.000  0.000  0.000  0.000  0.000  0.192

band     7 # energy   13.86073622 # occ.  0.00000000

ion      s     py     pz     px    dxy    dyz    dz2    dxz  x2-y2    tot
    1  0.024  0.025  0.035  0.062  0.000  0.000  0.000  0.000  0.000  0.145
    2  0.024  0.025  0.035  0.062  0.000  0.000  0.000  0.000  0.000  0.145
tot    0.047  0.050  0.069  0.123  0.000  0.000  0.000  0.000  0.000  0.290

band     8 # energy   15.24775776 # occ.  0.00000000

ion      s     py     pz     px    dxy    dyz    dz2    dxz  x2-y2    tot
    1  0.016  0.026  0.047  0.072  0.000  0.000  0.000  0.000  0.000  0.162
    2  0.016  0.026  0.047  0.072  0.000  0.000  0.000  0.000  0.000  0.162
tot    0.033  0.053  0.093  0.145  0.000  0.000  0.000  0.000  0.000  0.323

band     9 # energy   16.27606877 # occ.  0.00000000

ion      s     py     pz     px    dxy    dyz    dz2    dxz  x2-y2    tot
    1  0.000  0.019  0.067  0.023  0.000  0.000  0.000  0.000  0.000  0.109
    2  0.000  0.019  0.066  0.023  0.000  0.000  0.000  0.000  0.000  0.109
tot    0.001  0.038  0.133  0.046  0.000  0.000  0.000  0.000  0.000  0.218


 k-point   135 :    0.47058824 0.08823529 0.55882353     weight = 0.00000000

band     1 # energy   -3.77791605 # occ.  2.00000000

ion      s     py     pz     px    dxy    dyz    dz2    dxz  x2-y2    tot
    1  0.201  0.038  0.002  0.000  0.000  0.000  0.000  0.000  0.000  0.241
    2  0.201  0.038  0.002  0.000  0.000  0.000  0.000  0.000  0.000  0.241
tot    0.403  0.076  0.004  0.000  0.000  0.000  0.000  0.000  0.000  0.483

band     2 # energy   -2.82262587 # occ.  2.00000000

ion      s     py     pz     px    dxy    dyz    dz2    dxz  x2-y2    tot
    1  0.197  0.047  0.003  0.000  0.000  0.000  0.000  0.000  0.000  0.246
    2  0.197  0.047  0.003  0.000  0.000  0.000  0.000  0.000  0.000  0.246
tot    0.393  0.093  0.006  0.000  0.000  0.000  0.000  0.000  0.000  0.493

band     3 # energy    1.82011991 # occ.  2.00000000

ion      s     py     pz     px    dxy    dyz    dz2    dxz  x2-y2    tot
    1  0.003  0.009  0.089  0.083  0.000  0.000  0.000  0.000  0.000  0.184
    2  0.003  0.009  0.089  0.083  0.000  0.000  0.000  0.000  0.000  0.184
tot    0.006  0.017  0.177  0.166  0.000  0.000  0.000  0.000  0.000  0.367

band     4 # energy    1.89894649 # occ.  2.00000000

ion      s     py     pz     px    dxy    dyz    dz2    dxz  x2-y2    tot
    1  0.001  0.010  0.082  0.091  0.000  0.000  0.000  0.000  0.000  0.184
    2  0.001  0.010  0.082  0.091  0.000  0.000  0.000  0.000  0.000  0.184
tot    0.002  0.020  0.165  0.182  0.000  0.000  0.000  0.000  0.000  0.368

band     5 # energy    7.22389610 # occ.  0.00000000

ion      s     py     pz     px    dxy    dyz    dz2    dxz  x2-y2    tot
    1  0.046  0.031  0.010  0.014  0.000  0.000  0.000  0.000  0.000  0.101
    2  0.046  0.031  0.010  0.014  0.000  0.000  0.000  0.000  0.000  0.101
tot    0.091  0.062  0.020  0.029  0.000  0.000  0.000  0.000  0.000  0.201

band     6 # energy    7.41473452 # occ.  0.00000000

ion      s     py     pz     px    dxy    dyz    dz2    dxz  x2-y2    tot
    1  0.045  0.027  0.008  0.014  0.000  0.000  0.000  0.000  0.000  0.093
    2  0.045  0.027  0.008  0.014  0.000  0.000  0.000  0.000  0.000  0.093
tot    0.090  0.053  0.016  0.027  0.000  0.000  0.000  0.000  0.000  0.187

band     7 # energy   14.59380264 # occ.  0.00000000

ion      s     py     pz     px    dxy    dyz    dz2    dxz  x2-y2    tot
    1  0.019  0.023  0.038  0.070  0.000  0.000  0.000  0.000  0.000  0.149
    2  0.019  0.023  0.038  0.070  0.000  0.000  0.000  0.000  0.000  0.149
tot    0.037  0.045  0.076  0.139  0.000  0.000  0.000  0.000  0.000  0.298

band     8 # energy   15.67174007 # occ.  0.00000000

ion      s     py     pz     px    dxy    dyz    dz2    dxz  x2-y2    tot
    1  0.013  0.019  0.065  0.087  0.000  0.000  0.000  0.000  0.000  0.183
    2  0.013  0.019  0.064  0.088  0.000  0.000  0.000  0.000  0.000  0.183
tot    0.026  0.038  0.129  0.175  0.000  0.000  0.000  0.000  0.000  0.367

band     9 # energy   16.47860623 # occ.  0.00000000

ion      s     py     pz     px    dxy    dyz    dz2    dxz  x2-y2    tot
    1  0.001  0.021  0.052  0.012  0.000  0.000  0.000  0.000  0.000  0.085
    2  0.001  0.020  0.051  0.012  0.000  0.000  0.000  0.000  0.000  0.085
tot    0.003  0.041  0.103  0.023  0.000  0.000  0.000  0.000  0.000  0.170


 k-point   136 :    0.47794118 0.06617647 0.54411765     weight = 0.00000000

band     1 # energy   -3.68805997 # occ.  2.00000000

ion      s     py     pz     px    dxy    dyz    dz2    dxz  x2-y2    tot
    1  0.200  0.040  0.001  0.000  0.000  0.000  0.000  0.000  0.000  0.241
    2  0.200  0.040  0.001  0.000  0.000  0.000  0.000  0.000  0.000  0.241
tot    0.400  0.080  0.002  0.000  0.000  0.000  0.000  0.000  0.000  0.482

band     2 # energy   -2.95560598 # occ.  2.00000000

ion      s     py     pz     px    dxy    dyz    dz2    dxz  x2-y2    tot
    1  0.196  0.047  0.002  0.000  0.000  0.000  0.000  0.000  0.000  0.245
    2  0.196  0.047  0.002  0.000  0.000  0.000  0.000  0.000  0.000  0.245
tot    0.392  0.094  0.003  0.000  0.000  0.000  0.000  0.000  0.000  0.490

band     3 # energy    1.96360381 # occ.  2.00000000

ion      s     py     pz     px    dxy    dyz    dz2    dxz  x2-y2    tot
    1  0.002  0.005  0.093  0.088  0.000  0.000  0.000  0.000  0.000  0.188
    2  0.002  0.005  0.093  0.088  0.000  0.000  0.000  0.000  0.000  0.188
tot    0.004  0.011  0.185  0.177  0.000  0.000  0.000  0.000  0.000  0.376

band     4 # energy    1.99880268 # occ.  2.00000000

ion      s     py     pz     px    dxy    dyz    dz2    dxz  x2-y2    tot
    1  0.001  0.006  0.088  0.094  0.000  0.000  0.000  0.000  0.000  0.189
    2  0.001  0.006  0.088  0.094  0.000  0.000  0.000  0.000  0.000  0.189
tot    0.002  0.011  0.176  0.187  0.000  0.000  0.000  0.000  0.000  0.377

band     5 # energy    6.94265290 # occ.  0.00000000

ion      s     py     pz     px    dxy    dyz    dz2    dxz  x2-y2    tot
    1  0.048  0.032  0.006  0.009  0.000  0.000  0.000  0.000  0.000  0.096
    2  0.048  0.032  0.006  0.009  0.000  0.000  0.000  0.000  0.000  0.096
tot    0.097  0.065  0.013  0.018  0.000  0.000  0.000  0.000  0.000  0.192

band     6 # energy    7.09534534 # occ.  0.00000000

ion      s     py     pz     px    dxy    dyz    dz2    dxz  x2-y2    tot
    1  0.047  0.029  0.005  0.009  0.000  0.000  0.000  0.000  0.000  0.091
    2  0.047  0.029  0.005  0.009  0.000  0.000  0.000  0.000  0.000  0.091
tot    0.095  0.058  0.011  0.017  0.000  0.000  0.000  0.000  0.000  0.181

band     7 # energy   15.30648238 # occ.  0.00000000

ion      s     py     pz     px    dxy    dyz    dz2    dxz  x2-y2    tot
    1  0.013  0.018  0.045  0.081  0.000  0.000  0.000  0.000  0.000  0.158
    2  0.013  0.018  0.045  0.081  0.000  0.000  0.000  0.000  0.000  0.158
tot    0.027  0.036  0.090  0.162  0.000  0.000  0.000  0.000  0.000  0.315

band     8 # energy   16.03446063 # occ.  0.00000000

ion      s     py     pz     px    dxy    dyz    dz2    dxz  x2-y2    tot
    1  0.008  0.010  0.090  0.102  0.000  0.000  0.000  0.000  0.000  0.210
    2  0.008  0.010  0.089  0.102  0.000  0.000  0.000  0.000  0.000  0.210
tot    0.016  0.020  0.179  0.205  0.000  0.000  0.000  0.000  0.000  0.419

band     9 # energy   16.72766431 # occ.  0.00000000

ion      s     py     pz     px    dxy    dyz    dz2    dxz  x2-y2    tot
    1  0.003  0.022  0.029  0.001  0.000  0.000  0.000  0.000  0.000  0.055
    2  0.003  0.022  0.029  0.001  0.000  0.000  0.000  0.000  0.000  0.055
tot    0.007  0.043  0.058  0.003  0.000  0.000  0.000  0.000  0.000  0.111


 k-point   137 :    0.48529412 0.04411765 0.52941176     weight = 0.00000000

band     1 # energy   -3.58659263 # occ.  2.00000000

ion      s     py     pz     px    dxy    dyz    dz2    dxz  x2-y2    tot
    1  0.199  0.042  0.000  0.000  0.000  0.000  0.000  0.000  0.000  0.241
    2  0.199  0.042  0.000  0.000  0.000  0.000  0.000  0.000  0.000  0.241
tot    0.397  0.084  0.001  0.000  0.000  0.000  0.000  0.000  0.000  0.482

band     2 # energy   -3.09088415 # occ.  2.00000000

ion      s     py     pz     px    dxy    dyz    dz2    dxz  x2-y2    tot
    1  0.196  0.047  0.001  0.000  0.000  0.000  0.000  0.000  0.000  0.244
    2  0.196  0.047  0.001  0.000  0.000  0.000  0.000  0.000  0.000  0.244
tot    0.392  0.094  0.001  0.000  0.000  0.000  0.000  0.000  0.000  0.488

band     3 # energy    2.07772495 # occ.  2.00000000

ion      s     py     pz     px    dxy    dyz    dz2    dxz  x2-y2    tot
    1  0.001  0.003  0.096  0.093  0.000  0.000  0.000  0.000  0.000  0.192
    2  0.001  0.003  0.096  0.093  0.000  0.000  0.000  0.000  0.000  0.192
tot    0.002  0.005  0.192  0.186  0.000  0.000  0.000  0.000  0.000  0.385

band     4 # energy    2.08869934 # occ.  2.00000000

ion      s     py     pz     px    dxy    dyz    dz2    dxz  x2-y2    tot
    1  0.001  0.003  0.093  0.096  0.000  0.000  0.000  0.000  0.000  0.192
    2  0.001  0.003  0.093  0.096  0.000  0.000  0.000  0.000  0.000  0.192
tot    0.001  0.005  0.186  0.193  0.000  0.000  0.000  0.000  0.000  0.385

band     5 # energy    6.73660184 # occ.  0.00000000

ion      s     py     pz     px    dxy    dyz    dz2    dxz  x2-y2    tot
    1  0.050  0.034  0.003  0.004  0.000  0.000  0.000  0.000  0.000  0.091
    2  0.050  0.034  0.003  0.004  0.000  0.000  0.000  0.000  0.000  0.091
tot    0.101  0.067  0.006  0.009  0.000  0.000  0.000  0.000  0.000  0.183

band     6 # energy    6.84415927 # occ.  0.00000000

ion      s     py     pz     px    dxy    dyz    dz2    dxz  x2-y2    tot
    1  0.050  0.031  0.003  0.004  0.000  0.000  0.000  0.000  0.000  0.088
    2  0.050  0.031  0.003  0.004  0.000  0.000  0.000  0.000  0.000  0.088
tot    0.099  0.063  0.006  0.008  0.000  0.000  0.000  0.000  0.000  0.176

band     7 # energy   15.95534995 # occ.  0.00000000

ion      s     py     pz     px    dxy    dyz    dz2    dxz  x2-y2    tot
    1  0.008  0.011  0.061  0.098  0.000  0.000  0.000  0.000  0.000  0.178
    2  0.008  0.011  0.061  0.098  0.000  0.000  0.000  0.000  0.000  0.178
tot    0.015  0.023  0.122  0.196  0.000  0.000  0.000  0.000  0.000  0.356

band     8 # energy   16.30617056 # occ.  0.00000000

ion      s     py     pz     px    dxy    dyz    dz2    dxz  x2-y2    tot
    1  0.004  0.004  0.111  0.109  0.000  0.000  0.000  0.000  0.000  0.227
    2  0.004  0.004  0.111  0.109  0.000  0.000  0.000  0.000  0.000  0.227
tot    0.007  0.007  0.222  0.218  0.000  0.000  0.000  0.000  0.000  0.454

band     9 # energy   17.02775873 # occ.  0.00000000

ion      s     py     pz     px    dxy    dyz    dz2    dxz  x2-y2    tot
    1  0.004  0.018  0.010  0.002  0.000  0.000  0.000  0.000  0.000  0.034
    2  0.004  0.018  0.011  0.002  0.000  0.000  0.000  0.000  0.000  0.034
tot    0.008  0.036  0.021  0.003  0.000  0.000  0.000  0.000  0.000  0.068


 k-point   138 :    0.49264706 0.02205882 0.51470588     weight = 0.00000000

band     1 # energy   -3.47450094 # occ.  2.00000000

ion      s     py     pz     px    dxy    dyz    dz2    dxz  x2-y2    tot
    1  0.197  0.044  0.000  0.000  0.000  0.000  0.000  0.000  0.000  0.241
    2  0.197  0.044  0.000  0.000  0.000  0.000  0.000  0.000  0.000  0.241
tot    0.395  0.088  0.000  0.000  0.000  0.000  0.000  0.000  0.000  0.483

band     2 # energy   -3.22447270 # occ.  2.00000000

ion      s     py     pz     px    dxy    dyz    dz2    dxz  x2-y2    tot
    1  0.196  0.046  0.000  0.000  0.000  0.000  0.000  0.000  0.000  0.243
    2  0.196  0.046  0.000  0.000  0.000  0.000  0.000  0.000  0.000  0.243
tot    0.392  0.093  0.000  0.000  0.000  0.000  0.000  0.000  0.000  0.486

band     3 # energy    2.15098450 # occ.  2.00000000

ion      s     py     pz     px    dxy    dyz    dz2    dxz  x2-y2    tot
    1  0.000  0.001  0.098  0.096  0.000  0.000  0.000  0.000  0.000  0.195
    2  0.000  0.001  0.098  0.096  0.000  0.000  0.000  0.000  0.000  0.195
tot    0.000  0.001  0.196  0.193  0.000  0.000  0.000  0.000  0.000  0.391

band     4 # energy    2.15240753 # occ.  2.00000000

ion      s     py     pz     px    dxy    dyz    dz2    dxz  x2-y2    tot
    1  0.000  0.001  0.096  0.098  0.000  0.000  0.000  0.000  0.000  0.195
    2  0.000  0.001  0.096  0.098  0.000  0.000  0.000  0.000  0.000  0.195
tot    0.000  0.001  0.193  0.196  0.000  0.000  0.000  0.000  0.000  0.391

band     5 # energy    6.61843339 # occ.  0.00000000

ion      s     py     pz     px    dxy    dyz    dz2    dxz  x2-y2    tot
    1  0.052  0.034  0.001  0.001  0.000  0.000  0.000  0.000  0.000  0.088
    2  0.052  0.034  0.001  0.001  0.000  0.000  0.000  0.000  0.000  0.088
tot    0.104  0.069  0.002  0.002  0.000  0.000  0.000  0.000  0.000  0.176

band     6 # energy    6.67430690 # occ.  0.00000000

ion      s     py     pz     px    dxy    dyz    dz2    dxz  x2-y2    tot
    1  0.051  0.033  0.001  0.001  0.000  0.000  0.000  0.000  0.000  0.086
    2  0.051  0.033  0.001  0.001  0.000  0.000  0.000  0.000  0.000  0.086
tot    0.103  0.066  0.002  0.002  0.000  0.000  0.000  0.000  0.000  0.173

band     7 # energy   16.42549776 # occ.  0.00000000

ion      s     py     pz     px    dxy    dyz    dz2    dxz  x2-y2    tot
    1  0.002  0.003  0.093  0.119  0.000  0.000  0.000  0.000  0.000  0.217
    2  0.002  0.003  0.092  0.120  0.000  0.000  0.000  0.000  0.000  0.217
tot    0.004  0.006  0.185  0.239  0.000  0.000  0.000  0.000  0.000  0.434

band     8 # energy   16.48965254 # occ.  0.00000000

ion      s     py     pz     px    dxy    dyz    dz2    dxz  x2-y2    tot
    1  0.001  0.001  0.121  0.112  0.000  0.000  0.000  0.000  0.000  0.235
    2  0.001  0.001  0.121  0.112  0.000  0.000  0.000  0.000  0.000  0.234
tot    0.002  0.002  0.241  0.224  0.000  0.000  0.000  0.000  0.000  0.469

band     9 # energy   17.30963305 # occ.  0.00000000

ion      s     py     pz     px    dxy    dyz    dz2    dxz  x2-y2    tot
    1  0.002  0.008  0.004  0.008  0.000  0.000  0.000  0.000  0.000  0.021
    2  0.002  0.007  0.004  0.008  0.000  0.000  0.000  0.000  0.000  0.021
tot    0.004  0.015  0.007  0.016  0.000  0.000  0.000  0.000  0.000  0.042


 k-point   139 :    0.50000000 0.00000000 0.50000000     weight = 0.00000000

band     1 # energy   -3.35319268 # occ.  2.00000000

ion      s     py     pz     px    dxy    dyz    dz2    dxz  x2-y2    tot
    1  0.393  0.000  0.000  0.000  0.000  0.000  0.000  0.000  0.000  0.393
    2  0.000  0.091  0.000  0.000  0.000  0.000  0.000  0.000  0.000  0.091
tot    0.393  0.091  0.000  0.000  0.000  0.000  0.000  0.000  0.000  0.484

band     2 # energy   -3.35316358 # occ.  2.00000000

ion      s     py     pz     px    dxy    dyz    dz2    dxz  x2-y2    tot
    1  0.000  0.091  0.000  0.000  0.000  0.000  0.000  0.000  0.000  0.091
    2  0.393  0.000  0.000  0.000  0.000  0.000  0.000  0.000  0.000  0.393
tot    0.393  0.091  0.000  0.000  0.000  0.000  0.000  0.000  0.000  0.484

band     3 # energy    2.17589006 # occ.  2.00000000

ion      s     py     pz     px    dxy    dyz    dz2    dxz  x2-y2    tot
    1  0.000  0.000  0.041  0.155  0.000  0.000  0.000  0.000  0.000  0.196
    2  0.000  0.000  0.155  0.041  0.000  0.000  0.000  0.000  0.000  0.196
tot    0.000  0.000  0.196  0.196  0.000  0.000  0.000  0.000  0.000  0.393

band     4 # energy    2.17589114 # occ.  2.00000000

ion      s     py     pz     px    dxy    dyz    dz2    dxz  x2-y2    tot
    1  0.000  0.000  0.155  0.041  0.000  0.000  0.000  0.000  0.000  0.196
    2  0.000  0.000  0.041  0.155  0.000  0.000  0.000  0.000  0.000  0.196
tot    0.000  0.000  0.196  0.196  0.000  0.000  0.000  0.000  0.000  0.393

band     5 # energy    6.59705426 # occ.  0.00000000

ion      s     py     pz     px    dxy    dyz    dz2    dxz  x2-y2    tot
    1  0.006  0.064  0.000  0.000  0.000  0.000  0.000  0.000  0.000  0.071
    2  0.098  0.004  0.000  0.000  0.000  0.000  0.000  0.000  0.000  0.102
tot    0.104  0.068  0.000  0.000  0.000  0.000  0.000  0.000  0.000  0.172

band     6 # energy    6.59705805 # occ.  0.00000000

ion      s     py     pz     px    dxy    dyz    dz2    dxz  x2-y2    tot
    1  0.098  0.004  0.000  0.000  0.000  0.000  0.000  0.000  0.000  0.102
    2  0.006  0.064  0.000  0.000  0.000  0.000  0.000  0.000  0.000  0.071
tot    0.104  0.068  0.000  0.000  0.000  0.000  0.000  0.000  0.000  0.172

band     7 # energy   16.57031610 # occ.  0.00000000

ion      s     py     pz     px    dxy    dyz    dz2    dxz  x2-y2    tot
    1  0.000  0.000  0.122  0.118  0.000  0.000  0.000  0.000  0.000  0.240
    2  0.000  0.000  0.118  0.122  0.000  0.000  0.000  0.000  0.000  0.240
tot    0.000  0.000  0.240  0.240  0.000  0.000  0.000  0.000  0.000  0.479

band     8 # energy   16.57466785 # occ.  0.00000000

ion      s     py     pz     px    dxy    dyz    dz2    dxz  x2-y2    tot
    1  0.000  0.000  0.115  0.126  0.000  0.000  0.000  0.000  0.000  0.240
    2  0.000  0.000  0.118  0.120  0.000  0.000  0.000  0.000  0.000  0.238
tot    0.000  0.000  0.233  0.246  0.000  0.000  0.000  0.000  0.000  0.479

band     9 # energy   17.42884019 # occ.  0.00000000

ion      s     py     pz     px    dxy    dyz    dz2    dxz  x2-y2    tot
    1  0.000  0.000  0.007  0.005  0.000  0.000  0.000  0.000  0.000  0.012
    2  0.000  0.000  0.005  0.007  0.000  0.000  0.000  0.000  0.000  0.012
tot    0.000  0.000  0.012  0.012  0.000  0.000  0.000  0.000  0.000  0.024

