<?xml version="1.0" encoding="ISO-8859-1"?>
<modeling>
 <generator>
  <i name="program" type="string">vasp </i>
  <i name="version" type="string">5.4.4.18Apr17-6-g9f103f2a35  </i>
  <i name="subversion" type="string">(build Jul 17 2026 20:05:20) complex            parallel </i>
  <i name="platform" type="string">LinuxGNU </i>
  <i name="date" type="string">2026 08 15 </i>
  <i name="time" type="string">17:35:22 </i>
 </generator>
 <incar>
  <i type="int" name="ISTART">     1</i>
  <i type="string" name="PREC">accurate</i>
  <i type="string" name="ALGO">  Normal</i>
  <i type="logical" name="ADDGRID"> T  </i>
  <i type="int" name="ISPIN">     1</i>
  <i type="int" name="ICHARG">    11</i>
  <i type="int" name="NELM">   100</i>
  <i type="int" name="NELMIN">     8</i>
  <i type="int" name="IBRION">    -1</i>
  <i name="EDIFF">      0.00010000</i>
  <i type="int" name="NSW">     0</i>
  <i name="ENCUT">    400.00000000</i>
  <i type="logical" name="LREAL"> F  </i>
  <i name="TIME">      0.40000000</i>
  <i type="int" name="ISMEAR">     0</i>
  <i name="SIGMA">      0.05000000</i>
  <i type="logical" name="LWAVE"> T  </i>
  <i type="logical" name="LCHARG"> T  </i>
  <i type="int" name="LORBIT">    11</i>
  <v type="int" name="KPOINT_BSE">    -1     0     0     0</v>
  <i type="int" name="NELM">   100</i>
  <i type="logical" name="LHFCALC"> T  </i>
  <i name="HFSCREEN">      0.20000000</i>
  <i name="AEXX">      0.25000000</i>
  <i type="string" name="PRECFOCK">fast</i>
 </incar>
 <structure name="primitive_cell" >
  <crystal>
   <varray name="basis" >
    <v>       0.00000000       2.73461054       2.73461054 </v>
    <v>       2.73461054      -0.00000000       2.73461054 </v>
    <v>       2.73461054       2.73461054       0.00000000 </v>
   </varray>
   <i name="volume">     40.89935362 </i>
   <varray name="rec_basis" >
    <v>      -0.18284139       0.18284139       0.18284139 </v>
    <v>       0.18284139      -0.18284139       0.18284139 </v>
    <v>       0.18284139       0.18284139      -0.18284139 </v>
   </varray>
  </crystal>
  <varray name="positions" >
   <v>       0.00000000       0.00000000       0.00000000 </v>
   <v>       0.25000000       0.25000000       0.25000000 </v>
  </varray>
 </structure>
 <varray name="primitive_index" >
  <v type="int" >        1 </v>
  <v type="int" >        2 </v>
 </varray>
 <kpoints>
  <varray name="kpointlist" >
   <v>       0.00000000       0.00000000       0.00000000 </v>
   <v>       0.12500000       0.00000000       0.00000000 </v>
   <v>       0.25000000       0.00000000       0.00000000 </v>
   <v>       0.37500000       0.00000000       0.00000000 </v>
   <v>       0.50000000       0.00000000       0.00000000 </v>
   <v>       0.12500000       0.12500000       0.00000000 </v>
   <v>       0.25000000       0.12500000       0.00000000 </v>
   <v>       0.37500000       0.12500000       0.00000000 </v>
   <v>       0.50000000       0.12500000       0.00000000 </v>
   <v>      -0.37500000       0.12500000       0.00000000 </v>
   <v>      -0.25000000       0.12500000       0.00000000 </v>
   <v>      -0.12500000       0.12500000       0.00000000 </v>
   <v>       0.25000000       0.25000000       0.00000000 </v>
   <v>       0.37500000       0.25000000       0.00000000 </v>
   <v>       0.50000000       0.25000000       0.00000000 </v>
   <v>      -0.37500000       0.25000000       0.00000000 </v>
   <v>      -0.25000000       0.25000000       0.00000000 </v>
   <v>       0.37500000       0.37500000       0.00000000 </v>
   <v>       0.50000000       0.37500000       0.00000000 </v>
   <v>      -0.37500000       0.37500000       0.00000000 </v>
   <v>       0.50000000       0.50000000       0.00000000 </v>
   <v>       0.37500000       0.25000000       0.12500000 </v>
   <v>       0.50000000       0.25000000       0.12500000 </v>
   <v>      -0.37500000       0.25000000       0.12500000 </v>
   <v>       0.50000000       0.37500000       0.12500000 </v>
   <v>      -0.37500000       0.37500000       0.12500000 </v>
   <v>      -0.25000000       0.37500000       0.12500000 </v>
   <v>      -0.37500000       0.50000000       0.12500000 </v>
   <v>      -0.25000000       0.50000000       0.25000000 </v>
   <v>       0.00000000       0.00000000       0.00000000 </v>
   <v>       0.02380952       0.00000000       0.02380952 </v>
   <v>       0.04761905       0.00000000       0.04761905 </v>
   <v>       0.07142857       0.00000000       0.07142857 </v>
   <v>       0.09523810       0.00000000       0.09523810 </v>
   <v>       0.11904762       0.00000000       0.11904762 </v>
   <v>       0.14285714       0.00000000       0.14285714 </v>
   <v>       0.16666667       0.00000000       0.16666667 </v>
   <v>       0.19047619       0.00000000       0.19047619 </v>
   <v>       0.21428571       0.00000000       0.21428571 </v>
   <v>       0.23809524       0.00000000       0.23809524 </v>
   <v>       0.26190476       0.00000000       0.26190476 </v>
   <v>       0.28571429       0.00000000       0.28571429 </v>
   <v>       0.30952381       0.00000000       0.30952381 </v>
   <v>       0.33333333       0.00000000       0.33333333 </v>
   <v>       0.35714286       0.00000000       0.35714286 </v>
   <v>       0.38095238       0.00000000       0.38095238 </v>
   <v>       0.40476190       0.00000000       0.40476190 </v>
   <v>       0.42857143       0.00000000       0.42857143 </v>
   <v>       0.45238095       0.00000000       0.45238095 </v>
   <v>       0.47619048       0.00000000       0.47619048 </v>
   <v>       0.50000000       0.00000000       0.50000000 </v>
   <v>       0.50000000       0.00000000       0.50000000 </v>
   <v>       0.50000000       0.02500000       0.52500000 </v>
   <v>       0.50000000       0.05000000       0.55000000 </v>
   <v>       0.50000000       0.07500000       0.57500000 </v>
   <v>       0.50000000       0.10000000       0.60000000 </v>
   <v>       0.50000000       0.12500000       0.62500000 </v>
   <v>       0.50000000       0.15000000       0.65000000 </v>
   <v>       0.50000000       0.17500000       0.67500000 </v>
   <v>       0.50000000       0.20000000       0.70000000 </v>
   <v>       0.50000000       0.22500000       0.72500000 </v>
   <v>       0.50000000       0.25000000       0.75000000 </v>
   <v>       0.50000000       0.25000000       0.75000000 </v>
   <v>       0.50000000       0.26666667       0.73333333 </v>
   <v>       0.50000000       0.28333333       0.71666667 </v>
   <v>       0.50000000       0.30000000       0.70000000 </v>
   <v>       0.50000000       0.31666667       0.68333333 </v>
   <v>       0.50000000       0.33333333       0.66666667 </v>
   <v>       0.50000000       0.35000000       0.65000000 </v>
   <v>       0.50000000       0.36666667       0.63333333 </v>
   <v>       0.50000000       0.38333333       0.61666667 </v>
   <v>       0.50000000       0.40000000       0.60000000 </v>
   <v>       0.50000000       0.41666667       0.58333333 </v>
   <v>       0.50000000       0.43333333       0.56666667 </v>
   <v>       0.50000000       0.45000000       0.55000000 </v>
   <v>       0.50000000       0.46666667       0.53333333 </v>
   <v>       0.50000000       0.48333333       0.51666667 </v>
   <v>       0.50000000       0.50000000       0.50000000 </v>
   <v>       0.50000000       0.50000000       0.50000000 </v>
   <v>       0.47222222       0.47222222       0.47222222 </v>
   <v>       0.44444444       0.44444444       0.44444444 </v>
   <v>       0.41666667       0.41666667       0.41666667 </v>
   <v>       0.38888889       0.38888889       0.38888889 </v>
   <v>       0.36111111       0.36111111       0.36111111 </v>
   <v>       0.33333333       0.33333333       0.33333333 </v>
   <v>       0.30555556       0.30555556       0.30555556 </v>
   <v>       0.27777778       0.27777778       0.27777778 </v>
   <v>       0.25000000       0.25000000       0.25000000 </v>
   <v>       0.22222222       0.22222222       0.22222222 </v>
   <v>       0.19444444       0.19444444       0.19444444 </v>
   <v>       0.16666667       0.16666667       0.16666667 </v>
   <v>       0.13888889       0.13888889       0.13888889 </v>
   <v>       0.11111111       0.11111111       0.11111111 </v>
   <v>       0.08333333       0.08333333       0.08333333 </v>
   <v>       0.05555556       0.05555556       0.05555556 </v>
   <v>       0.02777778       0.02777778       0.02777778 </v>
   <v>       0.00000000       0.00000000       0.00000000 </v>
   <v>       0.00000000       0.00000000       0.00000000 </v>
   <v>       0.01630435       0.01630435       0.03260870 </v>
   <v>       0.03260870       0.03260870       0.06521739 </v>
   <v>       0.04891304       0.04891304       0.09782609 </v>
   <v>       0.06521739       0.06521739       0.13043478 </v>
   <v>       0.08152174       0.08152174       0.16304348 </v>
   <v>       0.09782609       0.09782609       0.19565217 </v>
   <v>       0.11413043       0.11413043       0.22826087 </v>
   <v>       0.13043478       0.13043478       0.26086957 </v>
   <v>       0.14673913       0.14673913       0.29347826 </v>
   <v>       0.16304348       0.16304348       0.32608696 </v>
   <v>       0.17934783       0.17934783       0.35869565 </v>
   <v>       0.19565217       0.19565217       0.39130435 </v>
   <v>       0.21195652       0.21195652       0.42391304 </v>
   <v>       0.22826087       0.22826087       0.45652174 </v>
   <v>       0.24456522       0.24456522       0.48913043 </v>
   <v>       0.26086957       0.26086957       0.52173913 </v>
   <v>       0.27717391       0.27717391       0.55434783 </v>
   <v>       0.29347826       0.29347826       0.58695652 </v>
   <v>       0.30978261       0.30978261       0.61956522 </v>
   <v>       0.32608696       0.32608696       0.65217391 </v>
   <v>       0.34239130       0.34239130       0.68478261 </v>
   <v>       0.35869565       0.35869565       0.71739130 </v>
   <v>       0.37500000       0.37500000       0.75000000 </v>
   <v>       0.37500000       0.37500000       0.75000000 </v>
   <v>       0.38235294       0.35294118       0.73529412 </v>
   <v>       0.38970588       0.33088235       0.72058824 </v>
   <v>       0.39705882       0.30882353       0.70588235 </v>
   <v>       0.40441176       0.28676471       0.69117647 </v>
   <v>       0.41176471       0.26470588       0.67647059 </v>
   <v>       0.41911765       0.24264706       0.66176471 </v>
   <v>       0.42647059       0.22058824       0.64705882 </v>
   <v>       0.43382353       0.19852941       0.63235294 </v>
   <v>       0.44117647       0.17647059       0.61764706 </v>
   <v>       0.44852941       0.15441176       0.60294118 </v>
   <v>       0.45588235       0.13235294       0.58823529 </v>
   <v>       0.46323529       0.11029412       0.57352941 </v>
   <v>       0.47058824       0.08823529       0.55882353 </v>
   <v>       0.47794118       0.06617647       0.54411765 </v>
   <v>       0.48529412       0.04411765       0.52941176 </v>
   <v>       0.49264706       0.02205882       0.51470588 </v>
   <v>       0.50000000       0.00000000       0.50000000 </v>
  </varray>
  <varray name="weights" >
   <v>       0.00195312 </v>
   <v>       0.01562500 </v>
   <v>       0.01562500 </v>
   <v>       0.01562500 </v>
   <v>       0.00781250 </v>
   <v>       0.01171875 </v>
   <v>       0.04687500 </v>
   <v>       0.04687500 </v>
   <v>       0.04687500 </v>
   <v>       0.04687500 </v>
   <v>       0.04687500 </v>
   <v>       0.02343750 </v>
   <v>       0.01171875 </v>
   <v>       0.04687500 </v>
   <v>       0.04687500 </v>
   <v>       0.04687500 </v>
   <v>       0.02343750 </v>
   <v>       0.01171875 </v>
   <v>       0.04687500 </v>
   <v>       0.02343750 </v>
   <v>       0.00585938 </v>
   <v>       0.04687500 </v>
   <v>       0.09375000 </v>
   <v>       0.04687500 </v>
   <v>       0.04687500 </v>
   <v>       0.09375000 </v>
   <v>       0.04687500 </v>
   <v>       0.02343750 </v>
   <v>       0.01171875 </v>
   <v>       0.00000000 </v>
   <v>       0.00000000 </v>
   <v>       0.00000000 </v>
   <v>       0.00000000 </v>
   <v>       0.00000000 </v>
   <v>       0.00000000 </v>
   <v>       0.00000000 </v>
   <v>       0.00000000 </v>
   <v>       0.00000000 </v>
   <v>       0.00000000 </v>
   <v>       0.00000000 </v>
   <v>       0.00000000 </v>
   <v>       0.00000000 </v>
   <v>       0.00000000 </v>
   <v>       0.00000000 </v>
   <v>       0.00000000 </v>
   <v>       0.00000000 </v>
   <v>       0.00000000 </v>
   <v>       0.00000000 </v>
   <v>       0.00000000 </v>
   <v>       0.00000000 </v>
   <v>       0.00000000 </v>
   <v>       0.00000000 </v>
   <v>       0.00000000 </v>
   <v>       0.00000000 </v>
   <v>       0.00000000 </v>
   <v>       0.00000000 </v>
   <v>       0.00000000 </v>
   <v>       0.00000000 </v>
   <v>       0.00000000 </v>
   <v>       0.00000000 </v>
   <v>       0.00000000 </v>
   <v>       0.00000000 </v>
   <v>       0.00000000 </v>
   <v>       0.00000000 </v>
   <v>       0.00000000 </v>
   <v>       0.00000000 </v>
   <v>       0.00000000 </v>
   <v>       0.00000000 </v>
   <v>       0.00000000 </v>
   <v>       0.00000000 </v>
   <v>       0.00000000 </v>
   <v>       0.00000000 </v>
   <v>       0.00000000 </v>
   <v>       0.00000000 </v>
   <v>       0.00000000 </v>
   <v>       0.00000000 </v>
   <v>       0.00000000 </v>
   <v>       0.00000000 </v>
   <v>       0.00000000 </v>
   <v>       0.00000000 </v>
   <v>       0.00000000 </v>
   <v>       0.00000000 </v>
   <v>       0.00000000 </v>
   <v>       0.00000000 </v>
   <v>       0.00000000 </v>
   <v>       0.00000000 </v>
   <v>       0.00000000 </v>
   <v>       0.00000000 </v>
   <v>       0.00000000 </v>
   <v>       0.00000000 </v>
   <v>       0.00000000 </v>
   <v>       0.00000000 </v>
   <v>       0.00000000 </v>
   <v>       0.00000000 </v>
   <v>       0.00000000 </v>
   <v>       0.00000000 </v>
   <v>       0.00000000 </v>
   <v>       0.00000000 </v>
   <v>       0.00000000 </v>
   <v>       0.00000000 </v>
   <v>       0.00000000 </v>
   <v>       0.00000000 </v>
   <v>       0.00000000 </v>
   <v>       0.00000000 </v>
   <v>       0.00000000 </v>
   <v>       0.00000000 </v>
   <v>       0.00000000 </v>
   <v>       0.00000000 </v>
   <v>       0.00000000 </v>
   <v>       0.00000000 </v>
   <v>       0.00000000 </v>
   <v>       0.00000000 </v>
   <v>       0.00000000 </v>
   <v>       0.00000000 </v>
   <v>       0.00000000 </v>
   <v>       0.00000000 </v>
   <v>       0.00000000 </v>
   <v>       0.00000000 </v>
   <v>       0.00000000 </v>
   <v>       0.00000000 </v>
   <v>       0.00000000 </v>
   <v>       0.00000000 </v>
   <v>       0.00000000 </v>
   <v>       0.00000000 </v>
   <v>       0.00000000 </v>
   <v>       0.00000000 </v>
   <v>       0.00000000 </v>
   <v>       0.00000000 </v>
   <v>       0.00000000 </v>
   <v>       0.00000000 </v>
   <v>       0.00000000 </v>
   <v>       0.00000000 </v>
   <v>       0.00000000 </v>
   <v>       0.00000000 </v>
   <v>       0.00000000 </v>
   <v>       0.00000000 </v>
   <v>       0.00000000 </v>
   <v>       0.00000000 </v>
   <v>       0.00000000 </v>
  </varray>
 </kpoints>
 <parameters>
  <separator name="general" >
   <i type="string" name="SYSTEM">unknown system</i>
   <i type="logical" name="LCOMPAT"> F  </i>
  </separator>
  <separator name="electronic" >
   <i type="string" name="PREC">accura</i>
   <i name="ENMAX">    400.00000000</i>
   <i name="ENAUG">    322.06900000</i>
   <i name="EDIFF">      0.00010000</i>
   <i type="int" name="IALGO">    38</i>
   <i type="int" name="IWAVPR">    10</i>
   <i type="int" name="NBANDS">     9</i>
   <i name="NELECT">      8.00000000</i>
   <i type="int" name="TURBO">     0</i>
   <i type="int" name="IRESTART">     0</i>
   <i type="int" name="NREBOOT">     0</i>
   <i type="int" name="NMIN">     0</i>
   <i name="EREF">      0.00000000</i>
   <separator name="electronic smearing" >
    <i type="int" name="ISMEAR">     0</i>
    <i name="SIGMA">      0.05000000</i>
    <i name="KSPACING">      0.50000000</i>
    <i type="logical" name="KGAMMA"> T  </i>
   </separator>
   <separator name="electronic projectors" >
    <i type="logical" name="LREAL"> F  </i>
    <v name="ROPT">      0.00000000</v>
    <i type="int" name="LMAXPAW">  -100</i>
    <i type="int" name="LMAXMIX">     2</i>
    <i type="logical" name="NLSPLINE"> F  </i>
   </separator>
   <separator name="electronic startup" >
    <i type="int" name="ISTART">     1</i>
    <i type="int" name="ICHARG">    11</i>
    <i type="int" name="INIWAV">     1</i>
   </separator>
   <separator name="electronic spin" >
    <i type="int" name="ISPIN">     1</i>
    <i type="logical" name="LNONCOLLINEAR"> F  </i>
    <v name="MAGMOM">      1.00000000      1.00000000</v>
    <i name="NUPDOWN">     -1.00000000</i>
    <i type="logical" name="LSORBIT"> F  </i>
    <v name="SAXIS">      0.00000000      0.00000000      1.00000000</v>
    <i type="logical" name="LSPIRAL"> F  </i>
    <v name="QSPIRAL">      0.00000000      0.00000000      0.00000000</v>
    <i type="logical" name="LZEROZ"> F  </i>
   </separator>
   <separator name="electronic exchange-correlation" >
    <i type="logical" name="LASPH"> F  </i>
    <i type="logical" name="LMETAGGA"> F  </i>
   </separator>
   <separator name="electronic convergence" >
    <i type="int" name="NELM">   100</i>
    <i type="int" name="NELMDL">     0</i>
    <i type="int" name="NELMIN">     8</i>
    <i name="ENINI">    400.00000000</i>
    <separator name="electronic convergence detail" >
     <i type="logical" name="LDIAG"> T  </i>
     <i type="logical" name="LSUBROT"> F  </i>
     <i name="WEIMIN">      0.00000000</i>
     <i name="EBREAK">      0.00000278</i>
     <i name="DEPER">      0.30000000</i>
     <i type="int" name="NRMM">     4</i>
     <i name="TIME">      0.40000000</i>
    </separator>
   </separator>
   <separator name="electronic mixer" >
    <i name="AMIX">      0.40000000</i>
    <i name="BMIX">      1.00000000</i>
    <i name="AMIN">      0.10000000</i>
    <i name="AMIX_MAG">      1.60000000</i>
    <i name="BMIX_MAG">      1.00000000</i>
    <separator name="electronic mixer details" >
     <i type="int" name="IMIX">     1</i>
     <i type="logical" name="MIXFIRST"> F  </i>
     <i type="int" name="MAXMIX">   -45</i>
     <i name="WC">    100.00000000</i>
     <i type="int" name="INIMIX">     1</i>
     <i type="int" name="MIXPRE">     1</i>
     <i type="int" name="MREMOVE">     5</i>
    </separator>
   </separator>
   <separator name="electronic dipolcorrection" >
    <i type="logical" name="LDIPOL"> F  </i>
    <i type="logical" name="LMONO"> F  </i>
    <i type="int" name="IDIPOL">     0</i>
    <i name="EPSILON">      1.00000000</i>
    <v name="DIPOL">   -100.00000000   -100.00000000   -100.00000000</v>
    <i name="EFIELD">      0.00000000</i>
   </separator>
  </separator>
  <separator name="grids" >
   <i type="int" name="NGX">    28</i>
   <i type="int" name="NGY">    28</i>
   <i type="int" name="NGZ">    28</i>
   <i type="int" name="NGXF">    56</i>
   <i type="int" name="NGYF">    56</i>
   <i type="int" name="NGZF">    56</i>
   <i type="logical" name="ADDGRID"> T  </i>
  </separator>
  <separator name="ionic" >
   <i type="int" name="NSW">     0</i>
   <i type="int" name="IBRION">    -1</i>
   <i type="int" name="MDALGO">     0</i>
   <i type="int" name="ISIF">     0</i>
   <i name="PSTRESS">      0.00000000</i>
   <i name="EDIFFG">      0.00100000</i>
   <i type="int" name="NFREE">     0</i>
   <i name="POTIM">      0.50000000</i>
   <i name="SMASS">     -3.00000000</i>
   <i name="SCALEE">      1.00000000</i>
  </separator>
  <separator name="ionic md" >
   <i name="TEBEG">      0.00010000</i>
   <i name="TEEND">      0.00010000</i>
   <i type="int" name="NBLOCK">     1</i>
   <i type="int" name="KBLOCK">     1</i>
   <i type="int" name="NPACO">   256</i>
   <i name="APACO">     16.00000000</i>
  </separator>
  <separator name="symmetry" >
   <i type="int" name="ISYM">     3</i>
   <i name="SYMPREC">      0.00001000</i>
  </separator>
  <separator name="dos" >
   <i type="int" name="LORBIT">    11</i>
   <v name="RWIGS">     -1.00000000</v>
   <i type="int" name="NEDOS">   301</i>
   <i name="EMIN">     10.00000000</i>
   <i name="EMAX">    -10.00000000</i>
   <i name="EFERMI">      0.00000000</i>
  </separator>
  <separator name="writing" >
   <i type="int" name="NWRITE">     2</i>
   <i type="logical" name="LWAVE"> T  </i>
   <i type="logical" name="LDOWNSAMPLE"> F  </i>
   <i type="logical" name="LCHARG"> T  </i>
   <i type="logical" name="LPARD"> F  </i>
   <i type="logical" name="LVTOT"> F  </i>
   <i type="logical" name="LVHAR"> F  </i>
   <i type="logical" name="LELF"> F  </i>
   <i type="logical" name="LOPTICS"> F  </i>
   <v name="STM">      0.00000000      0.00000000      0.00000000      0.00000000      0.00000000      0.00000000      0.00000000</v>
  </separator>
  <separator name="performance" >
   <i type="int" name="NPAR">     3</i>
   <i type="int" name="NSIM">     4</i>
   <i type="int" name="NBLK">    -1</i>
   <i type="logical" name="LPLANE"> T  </i>
   <i type="logical" name="LSCALAPACK"> T  </i>
   <i type="logical" name="LSCAAWARE"> F  </i>
   <i type="logical" name="LSCALU"> F  </i>
   <i type="logical" name="LASYNC"> F  </i>
   <i type="logical" name="LORBITALREAL"> F  </i>
  </separator>
  <separator name="miscellaneous" >
   <i type="int" name="IDIOT">     3</i>
   <i type="int" name="ISPECIAL">     0</i>
   <i type="logical" name="LMUSIC"> F  </i>
   <v name="POMASS">     28.08500000</v>
   <v name="DARWINR">      0.00000000</v>
   <v name="DARWINV">      1.00000000</v>
   <i type="logical" name="LCORR"> T  </i>
  </separator>
  <i type="logical" name="GGA_COMPAT"> T  </i>
  <i type="logical" name="LBERRY"> F  </i>
  <i type="int" name="ICORELEVEL">     0</i>
  <i type="logical" name="LDAU"> F  </i>
  <i type="int" name="I_CONSTRAINED_M">     0</i>
  <separator name="electronic exchange-correlation" >
   <i type="string" name="GGA">--</i>
   <i type="int" name="VOSKOWN">     0</i>
   <i type="logical" name="LHFCALC"> T  </i>
   <i type="string" name="PRECFOCK">fast</i>
   <i type="logical" name="LSYMGRAD"> F  </i>
   <i type="logical" name="LHFONE"> F  </i>
   <i type="logical" name="LRHFCALC"> F  </i>
   <i type="logical" name="LTHOMAS"> F  </i>
   <i type="logical" name="LMODELHF"> F  </i>
   <i name="ENCUT4O">     -1.00000000</i>
   <i type="int" name="EXXOEP">     0</i>
   <i type="int" name="FOURORBIT">     0</i>
   <i name="AEXX">      0.25000000</i>
   <i name="HFALPHA">     -1.00000000</i>
   <i name="MCALPHA">      0.00000000</i>
   <i name="ALDAX">      0.75000000</i>
   <i name="AGGAX">      0.75000000</i>
   <i name="ALDAC">      1.00000000</i>
   <i name="AGGAC">      1.00000000</i>
   <i type="int" name="NKREDX">     1</i>
   <i type="int" name="NKREDY">     1</i>
   <i type="int" name="NKREDZ">     1</i>
   <i type="logical" name="SHIFTRED"> F  </i>
   <i type="logical" name="ODDONLY"> F  </i>
   <i type="logical" name="EVENONLY"> F  </i>
   <i type="int" name="LMAXFOCK">     4</i>
   <i type="int" name="NMAXFOCKAE">     1</i>
   <i type="logical" name="LFOCKAEDFT"> F  </i>
   <i name="HFSCREEN">      0.20000000</i>
   <i name="HFSCREENC">      0.20000000</i>
   <i type="int" name="NBANDSGWLOW">     1</i>
  </separator>
  <separator name="vdW DFT" >
   <i type="logical" name="LUSE_VDW"> F  </i>
   <i name="Zab_VDW">     -0.84910000</i>
   <i name="PARAM1">      0.12340000</i>
   <i name="PARAM2">      1.00000000</i>
   <i name="PARAM3">      0.00000000</i>
  </separator>
  <separator name="model GW" >
   <i type="int" name="MODEL_GW">     0</i>
   <i name="MODEL_EPS0">     12.26980609</i>
   <i name="MODEL_ALPHA">      1.00000000</i>
  </separator>
  <separator name="linear response parameters" >
   <i type="logical" name="LEPSILON"> F  </i>
   <i type="logical" name="LRPA"> F  </i>
   <i type="logical" name="LNABLA"> F  </i>
   <i type="logical" name="LVEL"> F  </i>
   <i type="int" name="KINTER">     0</i>
   <i name="CSHIFT">      0.10000000</i>
   <i name="OMEGAMAX">     -1.00000000</i>
   <i name="DEG_THRESHOLD">      0.00200000</i>
   <i name="RTIME">     -0.10000000</i>
   <i name="WPLASMAI">      0.00000000</i>
   <v name="DFIELD">      0.00000000      0.00000000      0.00000000</v>
   <v name="WPLASMA">      0.00000000      0.00000000      0.00000000      0.00000000      0.00000000      0.00000000      0.00000000      0.00000000      0.00000000</v>
  </separator>
  <separator name="orbital magnetization" >
   <i type="logical" name="NUCIND"> F  </i>
   <v name="MAGPOS">      0.00000000      0.00000000      0.00000000</v>
   <i type="logical" name="LNICSALL"> T  </i>
   <i type="logical" name="ORBITALMAG"> F  </i>
   <i type="logical" name="LMAGBLOCH"> F  </i>
   <i type="logical" name="LCHIMAG"> F  </i>
   <i type="logical" name="LGAUGE"> T  </i>
   <i type="int" name="MAGATOM">     0</i>
   <v name="MAGDIPOL">      0.00000000      0.00000000      0.00000000</v>
   <v name="AVECCONST">      0.00000000      0.00000000      0.00000000</v>
  </separator>
  <separator name="response functions" >
   <i type="logical" name="LADDER"> F  </i>
   <i type="logical" name="LRPAFORCE"> F  </i>
   <i type="logical" name="LFXC"> F  </i>
   <i type="logical" name="LHARTREE"> T  </i>
   <i type="int" name="IBSE">     0</i>
   <v type="int" name="KPOINT">    -1     0     0     0</v>
   <i type="logical" name="LTCTE"> F  </i>
   <i type="logical" name="LTETE"> F  </i>
   <i type="logical" name="LTRIPLET"> F  </i>
   <i type="logical" name="LFXCEPS"> F  </i>
   <i type="logical" name="LFXHEG"> F  </i>
   <i type="int" name="NATURALO">     2</i>
   <i type="logical" name="L2ORDER"> F  </i>
   <i type="logical" name="LMP2LT"> F  </i>
   <i type="logical" name="LUSEW"> F  </i>
   <i name="ENCUTGW">     -2.00000000</i>
   <i name="ENCUTGWSOFT">     -2.00000000</i>
   <i name="ENCUTLF">     -1.00000000</i>
   <i type="int" name="LMAXMP2">    -1</i>
   <i name="SCISSOR">      0.00000000</i>
   <i type="int" name="NOMEGA">     0</i>
   <i type="int" name="NOMEGAR">     0</i>
   <i type="int" name="NBANDSGW">    -1</i>
   <i type="int" name="NBANDSO">    -1</i>
   <i type="int" name="NBANDSV">    -1</i>
   <i type="int" name="NELM">   100</i>
   <i type="int" name="NELMHF">     1</i>
   <i type="int" name="DIM">     3</i>
   <i type="int" name="ANTIRES">     0</i>
   <i name="OMEGAMAX">    -30.00000000</i>
   <i name="OMEGAMIN">    -30.00000000</i>
   <i name="OMEGATL">   -200.00000000</i>
   <i type="int" name="OMEGAGRID">   140</i>
   <i name="CSHIFT">     -0.10000000</i>
   <i type="logical" name="SELFENERGY"> F  </i>
   <i type="logical" name="LSPECTRAL"> F  </i>
   <i type="logical" name="LSPECTRALGW"> F  </i>
   <i type="logical" name="LSINGLES"> F  </i>
   <i type="logical" name="LFERMIGW"> F  </i>
   <i type="logical" name="ODDONLYGW"> F  </i>
   <i type="logical" name="EVENONLYGW"> F  </i>
   <i type="int" name="NKREDLFX">     1</i>
   <i type="int" name="NKREDLFY">     1</i>
   <i type="int" name="NKREDLFZ">     1</i>
   <i type="int" name="MAXMEM">  2800</i>
   <i type="int" name="TELESCOPE">     0</i>
   <i type="int" name="TAUPAR">     1</i>
   <i type="int" name="OMEGAPAR">    -1</i>
   <i name="LAMBDA">      1.00000000</i>
  </separator>
  <separator name="External order field" >
   <i name="OFIELD_KAPPA">      0.00000000</i>
   <v name="OFIELD_K">      0.00000000      0.00000000      0.00000000</v>
   <i name="OFIELD_Q6_NEAR">      0.00000000</i>
   <i name="OFIELD_Q6_FAR">      0.00000000</i>
   <i name="OFIELD_A">      0.00000000</i>
  </separator>
 </parameters>
 <atominfo>
  <atoms>       2 </atoms>
  <types>       1 </types>
  <array name="atoms" >
   <dimension dim="1">ion</dimension>
   <field type="string">element</field>
   <field type="int">atomtype</field>
   <set>
    <rc><c>Si</c><c>   1</c></rc>
    <rc><c>Si</c><c>   1</c></rc>
   </set>
  </array>
  <array name="atomtypes" >
   <dimension dim="1">type</dimension>
   <field type="int">atomspertype</field>
   <field type="string">element</field>
   <field>mass</field>
   <field>valence</field>
   <field type="string">pseudopotential</field>
   <set>
    <rc><c>   2</c><c>Si</c><c>     28.08500000</c><c>      4.00000000</c><c>  PAW_PBE Si 05Jan2001                  </c></rc>
   </set>
  </array>
 </atominfo>
 <structure name="initialpos" >
  <crystal>
   <varray name="basis" >
    <v>       0.00000000       2.73461054       2.73461054 </v>
    <v>       2.73461054      -0.00000000       2.73461054 </v>
    <v>       2.73461054       2.73461054       0.00000000 </v>
   </varray>
   <i name="volume">     40.89935362 </i>
   <varray name="rec_basis" >
    <v>      -0.18284139       0.18284139       0.18284139 </v>
    <v>       0.18284139      -0.18284139       0.18284139 </v>
    <v>       0.18284139       0.18284139      -0.18284139 </v>
   </varray>
  </crystal>
  <varray name="positions" >
   <v>       0.00000000       0.00000000       0.00000000 </v>
   <v>       0.25000000       0.25000000       0.25000000 </v>
  </varray>
 </structure>
 <calculation>
  <scstep>
   <time name="dav">  920.01  921.82</time>
   <time name="total">  920.30  922.11</time>
   <energy>
    <i name="alphaZ">      3.29228976 </i>
    <i name="ewald">   -226.92444198 </i>
    <i name="hartreedc">    -15.21642401 </i>
    <i name="XCdc">    -14.44370615 </i>
    <i name="pawpsdc">   1618.92385455 </i>
    <i name="pawaedc">  -1591.27360753 </i>
    <i name="eentropy">     -0.00000000 </i>
    <i name="bandstr">     -2.15403600 </i>
    <i name="atom">    203.99733562 </i>
    <i name="e_fr_energy">    -12.57925539 </i>
    <i name="e_wo_entrp">    -12.57925539 </i>
    <i name="e_0_energy">    -12.57925539 </i>
   </energy>
  </scstep>
  <scstep>
   <time name="dav">  767.02  767.41</time>
   <time name="total">  767.02  767.41</time>
   <energy>
    <i name="e_fr_energy">    -12.57926810 </i>
    <i name="e_wo_entrp">    -12.57926810 </i>
    <i name="e_0_energy">    -12.57926810 </i>
   </energy>
  </scstep>
  <scstep>
   <time name="dav"> 1018.68 1020.14</time>
   <time name="total"> 1018.68 1020.14</time>
   <energy>
    <i name="e_fr_energy">    -12.57926877 </i>
    <i name="e_wo_entrp">    -12.57926877 </i>
    <i name="e_0_energy">    -12.57926877 </i>
   </energy>
  </scstep>
  <scstep>
   <time name="dav">  846.03  847.51</time>
   <time name="total">  846.03  847.52</time>
   <energy>
    <i name="e_fr_energy">    -12.57926881 </i>
    <i name="e_wo_entrp">    -12.57926881 </i>
    <i name="e_0_energy">    -12.57926881 </i>
   </energy>
  </scstep>
  <structure>
   <crystal>
    <varray name="basis" >
     <v>       0.00000000       2.73461054       2.73461054 </v>
     <v>       2.73461054      -0.00000000       2.73461054 </v>
     <v>       2.73461054       2.73461054       0.00000000 </v>
    </varray>
    <i name="volume">     40.89935362 </i>
    <varray name="rec_basis" >
     <v>      -0.18284139       0.18284139       0.18284139 </v>
     <v>       0.18284139      -0.18284139       0.18284139 </v>
     <v>       0.18284139       0.18284139      -0.18284139 </v>
    </varray>
   </crystal>
   <varray name="positions" >
    <v>       0.00000000       0.00000000       0.00000000 </v>
    <v>       0.25000000       0.25000000       0.25000000 </v>
   </varray>
  </structure>
  <varray name="forces" >
   <v>       0.00000000       0.00000000       0.00000000 </v>
   <v>      -0.00000000      -0.00000000      -0.00000000 </v>
  </varray>
  <energy>
   <i name="e_fr_energy">    -12.57926881 </i>
   <i name="e_wo_entrp">    -12.57926881 </i>
   <i name="e_0_energy">     -0.00000000 </i>
  </energy>
  <time name="totalsc"> 3766.63 3771.92</time>
  <eigenvalues>
   <array>
    <dimension dim="1">band</dimension>
    <dimension dim="2">kpoint</dimension>
    <dimension dim="3">spin</dimension>
    <field>eigene</field>
    <field>occ</field>
    <set>
     <set comment="spin 1">
      <set comment="kpoint 1">
       <r>   -7.8918    1.0000 </r>
       <r>    5.2533    1.0000 </r>
       <r>    5.2533    1.0000 </r>
       <r>    5.2533    1.0000 </r>
       <r>    8.5814    0.0000 </r>
       <r>    8.5814    0.0000 </r>
       <r>    8.5814    0.0000 </r>
       <r>    9.3233    0.0000 </r>
       <r>   13.9720    0.0000 </r>
      </set>
      <set comment="kpoint 2">
       <r>   -7.6695    1.0000 </r>
       <r>    3.5652    1.0000 </r>
       <r>    4.9591    1.0000 </r>
       <r>    4.9591    1.0000 </r>
       <r>    8.4712    0.0000 </r>
       <r>    9.0209    0.0000 </r>
       <r>    9.0209    0.0000 </r>
       <r>   10.7357    0.0000 </r>
       <r>   13.5149    0.0000 </r>
      </set>
      <set comment="kpoint 3">
       <r>   -7.0205    1.0000 </r>
       <r>    1.0000    1.0000 </r>
       <r>    4.4527    1.0000 </r>
       <r>    4.4527    1.0000 </r>
       <r>    7.9515    0.0000 </r>
       <r>    9.5781    0.0000 </r>
       <r>    9.5781    0.0000 </r>
       <r>   13.0779    0.0000 </r>
       <r>   13.4607    0.0000 </r>
      </set>
      <set comment="kpoint 4">
       <r>   -6.0470    1.0000 </r>
       <r>   -1.2385    1.0000 </r>
       <r>    4.0878    1.0000 </r>
       <r>    4.0878    1.0000 </r>
       <r>    7.5607    0.0000 </r>
       <r>    9.5294    0.0000 </r>
       <r>    9.5294    0.0000 </r>
       <r>   14.0368    0.0000 </r>
       <r>   14.9224    0.0000 </r>
      </set>
      <set comment="kpoint 5">
       <r>   -5.3558    1.0000 </r>
       <r>   -2.3634    1.0000 </r>
       <r>    3.9611    1.0000 </r>
       <r>    3.9611    1.0000 </r>
       <r>    7.4238    0.0000 </r>
       <r>    9.4144    0.0000 </r>
       <r>    9.4144    0.0000 </r>
       <r>   13.8585    0.0000 </r>
       <r>   17.0130    0.0000 </r>
      </set>
      <set comment="kpoint 6">
       <r>   -7.5945    1.0000 </r>
       <r>    3.8289    1.0000 </r>
       <r>    4.4243    1.0000 </r>
       <r>    4.4243    1.0000 </r>
       <r>    7.9766    0.0000 </r>
       <r>    9.7604    0.0000 </r>
       <r>    9.7604    0.0000 </r>
       <r>   10.4170    0.0000 </r>
       <r>   12.7050    0.0000 </r>
      </set>
      <set comment="kpoint 7">
       <r>   -7.0836    1.0000 </r>
       <r>    1.7629    1.0000 </r>
       <r>    3.8667    1.0000 </r>
       <r>    3.9636    1.0000 </r>
       <r>    8.0885    0.0000 </r>
       <r>    9.7591    0.0000 </r>
       <r>   10.5812    0.0000 </r>
       <r>   10.8498    0.0000 </r>
       <r>   13.7179    0.0000 </r>
      </set>
      <set comment="kpoint 8">
       <r>   -6.1950    1.0000 </r>
       <r>   -0.5138    1.0000 </r>
       <r>    3.3251    1.0000 </r>
       <r>    3.5636    1.0000 </r>
       <r>    8.1856    0.0000 </r>
       <r>    9.6917    0.0000 </r>
       <r>   10.5889    0.0000 </r>
       <r>   11.6126    0.0000 </r>
       <r>   15.5928    0.0000 </r>
      </set>
      <set comment="kpoint 9">
       <r>   -5.2587    1.0000 </r>
       <r>   -2.1260    1.0000 </r>
       <r>    2.8370    1.0000 </r>
       <r>    3.5800    1.0000 </r>
       <r>    8.1342    0.0000 </r>
       <r>    9.5436    0.0000 </r>
       <r>   10.2129    0.0000 </r>
       <r>   13.6221    0.0000 </r>
       <r>   15.2176    0.0000 </r>
      </set>
      <set comment="kpoint 10">
       <r>   -5.5237    1.0000 </r>
       <r>   -1.7192    1.0000 </r>
       <r>    2.6422    1.0000 </r>
       <r>    3.8965    1.0000 </r>
       <r>    8.3099    0.0000 </r>
       <r>    9.6527    0.0000 </r>
       <r>    9.9777    0.0000 </r>
       <r>   14.1591    0.0000 </r>
       <r>   14.4101    0.0000 </r>
      </set>
      <set comment="kpoint 11">
       <r>   -6.5290    1.0000 </r>
       <r>    0.2144    1.0000 </r>
       <r>    2.8181    1.0000 </r>
       <r>    4.4265    1.0000 </r>
       <r>    8.6926    0.0000 </r>
       <r>    9.7842    0.0000 </r>
       <r>    9.8886    0.0000 </r>
       <r>   12.4657    0.0000 </r>
       <r>   12.6911    0.0000 </r>
      </set>
      <set comment="kpoint 12">
       <r>   -7.3031    1.0000 </r>
       <r>    2.3558    1.0000 </r>
       <r>    3.5712    1.0000 </r>
       <r>    4.9397    1.0000 </r>
       <r>    9.0663    0.0000 </r>
       <r>    9.1911    0.0000 </r>
       <r>    9.3243    0.0000 </r>
       <r>   11.6648    0.0000 </r>
       <r>   12.5562    0.0000 </r>
      </set>
      <set comment="kpoint 13">
       <r>   -6.7119    1.0000 </r>
       <r>    1.4128    1.0000 </r>
       <r>    3.2436    1.0000 </r>
       <r>    3.2436    1.0000 </r>
       <r>    7.0293    0.0000 </r>
       <r>    9.1595    0.0000 </r>
       <r>   11.9550    0.0000 </r>
       <r>   11.9550    0.0000 </r>
       <r>   14.2730    0.0000 </r>
      </set>
      <set comment="kpoint 14">
       <r>   -5.9362    1.0000 </r>
       <r>   -0.1644    1.0000 </r>
       <r>    2.4208    1.0000 </r>
       <r>    2.8890    1.0000 </r>
       <r>    7.2548    0.0000 </r>
       <r>    8.9015    0.0000 </r>
       <r>   12.1838    0.0000 </r>
       <r>   12.5032    0.0000 </r>
       <r>   16.4026    0.0000 </r>
      </set>
      <set comment="kpoint 15">
       <r>   -4.9256    1.0000 </r>
       <r>   -1.7507    1.0000 </r>
       <r>    1.4860    1.0000 </r>
       <r>    2.8869    1.0000 </r>
       <r>    7.4497    0.0000 </r>
       <r>   10.5271    0.0000 </r>
       <r>   11.9098    0.0000 </r>
       <r>   12.1385    0.0000 </r>
       <r>   16.5673    0.0000 </r>
      </set>
      <set comment="kpoint 16">
       <r>   -4.7045    1.0000 </r>
       <r>   -2.0321    1.0000 </r>
       <r>    0.9854    1.0000 </r>
       <r>    3.2315    1.0000 </r>
       <r>    7.7955    0.0000 </r>
       <r>   11.5654    0.0000 </r>
       <r>   11.6889    0.0000 </r>
       <r>   13.2103    0.0000 </r>
       <r>   14.3019    0.0000 </r>
      </set>
      <set comment="kpoint 17">
       <r>   -5.6624    1.0000 </r>
       <r>   -0.7557    1.0000 </r>
       <r>    1.2582    1.0000 </r>
       <r>    3.8356    1.0000 </r>
       <r>    8.4378    0.0000 </r>
       <r>   10.9783    0.0000 </r>
       <r>   11.1991    0.0000 </r>
       <r>   12.3248    0.0000 </r>
       <r>   12.6488    0.0000 </r>
      </set>
      <set comment="kpoint 18">
       <r>   -5.2759    1.0000 </r>
       <r>   -1.0638    1.0000 </r>
       <r>    2.4491    1.0000 </r>
       <r>    2.4491    1.0000 </r>
       <r>    6.4870    0.0000 </r>
       <r>    7.4820    0.0000 </r>
       <r>   14.3801    0.0000 </r>
       <r>   14.3801    0.0000 </r>
       <r>   16.8725    0.0000 </r>
      </set>
      <set comment="kpoint 19">
       <r>   -4.2924    1.0000 </r>
       <r>   -2.2654    1.0000 </r>
       <r>    1.5859    1.0000 </r>
       <r>    2.3628    1.0000 </r>
       <r>    6.7887    0.0000 </r>
       <r>    7.9067    0.0000 </r>
       <r>   14.6174    0.0000 </r>
       <r>   14.6762    0.0000 </r>
       <r>   17.1840    0.0000 </r>
      </set>
      <set comment="kpoint 20">
       <r>   -3.8174    1.0000 </r>
       <r>   -2.6980    1.0000 </r>
       <r>    0.6581    1.0000 </r>
       <r>    2.6445    1.0000 </r>
       <r>    7.1189    0.0000 </r>
       <r>   10.1936    0.0000 </r>
       <r>   13.8059    0.0000 </r>
       <r>   14.2806    0.0000 </r>
       <r>   14.5472    0.0000 </r>
      </set>
      <set comment="kpoint 21">
       <r>   -3.3532    1.0000 </r>
       <r>   -3.3532    1.0000 </r>
       <r>    2.1759    1.0000 </r>
       <r>    2.1759    1.0000 </r>
       <r>    6.5971    0.0000 </r>
       <r>    6.5971    0.0000 </r>
       <r>   16.5703    0.0000 </r>
       <r>   16.5703    0.0000 </r>
       <r>   17.4288    0.0000 </r>
      </set>
      <set comment="kpoint 22">
       <r>   -6.4421    1.0000 </r>
       <r>    0.5643    1.0000 </r>
       <r>    2.3892    1.0000 </r>
       <r>    3.7464    1.0000 </r>
       <r>    8.4078    0.0000 </r>
       <r>    9.9766    0.0000 </r>
       <r>   10.2576    0.0000 </r>
       <r>   11.6720    0.0000 </r>
       <r>   14.0549    0.0000 </r>
      </set>
      <set comment="kpoint 23">
       <r>   -5.4725    1.0000 </r>
       <r>   -1.1470    1.0000 </r>
       <r>    1.7164    1.0000 </r>
       <r>    3.2097    1.0000 </r>
       <r>    8.8694    0.0000 </r>
       <r>    9.5854    0.0000 </r>
       <r>   11.1527    0.0000 </r>
       <r>   12.1291    0.0000 </r>
       <r>   15.3552    0.0000 </r>
      </set>
      <set comment="kpoint 24">
       <r>   -4.7635    1.0000 </r>
       <r>   -2.1820    1.0000 </r>
       <r>    1.5693    1.0000 </r>
       <r>    2.9617    1.0000 </r>
       <r>    9.0697    0.0000 </r>
       <r>    9.1389    0.0000 </r>
       <r>   12.1067    0.0000 </r>
       <r>   13.3493    0.0000 </r>
       <r>   13.6811    0.0000 </r>
      </set>
      <set comment="kpoint 25">
       <r>   -5.0596    1.0000 </r>
       <r>   -1.3066    1.0000 </r>
       <r>    1.6712    1.0000 </r>
       <r>    2.3173    1.0000 </r>
       <r>    7.8750    0.0000 </r>
       <r>    8.6322    0.0000 </r>
       <r>   11.9336    0.0000 </r>
       <r>   14.3224    0.0000 </r>
       <r>   16.5930    0.0000 </r>
      </set>
      <set comment="kpoint 26">
       <r>   -4.1040    1.0000 </r>
       <r>   -2.3739    1.0000 </r>
       <r>    0.9187    1.0000 </r>
       <r>    2.1045    1.0000 </r>
       <r>    8.3492    0.0000 </r>
       <r>   10.3455    0.0000 </r>
       <r>   11.4395    0.0000 </r>
       <r>   13.7179    0.0000 </r>
       <r>   14.7377    0.0000 </r>
      </set>
      <set comment="kpoint 27">
       <r>   -4.4885    1.0000 </r>
       <r>   -1.9712    1.0000 </r>
       <r>    0.7382    1.0000 </r>
       <r>    2.5118    1.0000 </r>
       <r>    8.8560    0.0000 </r>
       <r>   10.6395    0.0000 </r>
       <r>   11.3563    0.0000 </r>
       <r>   13.2762    0.0000 </r>
       <r>   14.1937    0.0000 </r>
      </set>
      <set comment="kpoint 28">
       <r>   -3.2699    1.0000 </r>
       <r>   -3.2699    1.0000 </r>
       <r>    1.6067    1.0000 </r>
       <r>    1.6067    1.0000 </r>
       <r>    7.9067    0.0000 </r>
       <r>    7.9067    0.0000 </r>
       <r>   14.1474    0.0000 </r>
       <r>   14.1474    0.0000 </r>
       <r>   17.0276    0.0000 </r>
      </set>
      <set comment="kpoint 29">
       <r>   -3.1786    1.0000 </r>
       <r>   -3.1786    1.0000 </r>
       <r>    1.1491    1.0000 </r>
       <r>    1.1491    1.0000 </r>
       <r>   10.3156    0.0000 </r>
       <r>   10.3156    0.0000 </r>
       <r>   11.1673    0.0000 </r>
       <r>   11.1673    0.0000 </r>
       <r>   17.0377    0.0000 </r>
      </set>
      <set comment="kpoint 30">
       <r>   -7.8918    1.0000 </r>
       <r>    5.2533    1.0000 </r>
       <r>    5.2533    1.0000 </r>
       <r>    5.2533    1.0000 </r>
       <r>    8.5814    0.0000 </r>
       <r>    8.5814    0.0000 </r>
       <r>    8.5814    0.0000 </r>
       <r>    9.3233    0.0000 </r>
       <r>   13.9721    0.0000 </r>
      </set>
      <set comment="kpoint 31">
       <r>   -7.8810    1.0000 </r>
       <r>    5.1836    1.0000 </r>
       <r>    5.2118    1.0000 </r>
       <r>    5.2118    1.0000 </r>
       <r>    8.5540    0.0000 </r>
       <r>    8.6357    0.0000 </r>
       <r>    8.6357    0.0000 </r>
       <r>    9.3902    0.0000 </r>
       <r>   14.0191    0.0000 </r>
      </set>
      <set comment="kpoint 32">
       <r>   -7.8485    1.0000 </r>
       <r>    4.9878    1.0000 </r>
       <r>    5.0952    1.0000 </r>
       <r>    5.0952    1.0000 </r>
       <r>    8.4752    0.0000 </r>
       <r>    8.7906    0.0000 </r>
       <r>    8.7906    0.0000 </r>
       <r>    9.5752    0.0000 </r>
       <r>   13.7256    0.0000 </r>
      </set>
      <set comment="kpoint 33">
       <r>   -7.7945    1.0000 </r>
       <r>    4.6955    1.0000 </r>
       <r>    4.9222    1.0000 </r>
       <r>    4.9222    1.0000 </r>
       <r>    8.3531    0.0000 </r>
       <r>    9.0275    0.0000 </r>
       <r>    9.0275    0.0000 </r>
       <r>    9.8391    0.0000 </r>
       <r>   13.3861    0.0000 </r>
      </set>
      <set comment="kpoint 34">
       <r>   -7.7190    1.0000 </r>
       <r>    4.3367    1.0000 </r>
       <r>    4.7128    1.0000 </r>
       <r>    4.7128    1.0000 </r>
       <r>    8.1986    0.0000 </r>
       <r>    9.3260    0.0000 </r>
       <r>    9.3260    0.0000 </r>
       <r>   10.1296    0.0000 </r>
       <r>   13.0364    0.0000 </r>
      </set>
      <set comment="kpoint 35">
       <r>   -7.6221    1.0000 </r>
       <r>    3.9343    1.0000 </r>
       <r>    4.4833    1.0000 </r>
       <r>    4.4833    1.0000 </r>
       <r>    8.0227    0.0000 </r>
       <r>    9.6691    0.0000 </r>
       <r>    9.6691    0.0000 </r>
       <r>   10.3744    0.0000 </r>
       <r>   12.7534    0.0000 </r>
      </set>
      <set comment="kpoint 36">
       <r>   -7.5038    1.0000 </r>
       <r>    3.5036    1.0000 </r>
       <r>    4.2457    1.0000 </r>
       <r>    4.2457    1.0000 </r>
       <r>    7.8354    0.0000 </r>
       <r>   10.0446    0.0000 </r>
       <r>   10.0446    0.0000 </r>
       <r>   10.4731    0.0000 </r>
       <r>   12.6416    0.0000 </r>
      </set>
      <set comment="kpoint 37">
       <r>   -7.3643    1.0000 </r>
       <r>    3.0544    1.0000 </r>
       <r>    4.0081    1.0000 </r>
       <r>    4.0081    1.0000 </r>
       <r>    7.6445    0.0000 </r>
       <r>   10.3590    0.0000 </r>
       <r>   10.4441    0.0000 </r>
       <r>   10.4441    0.0000 </r>
       <r>   12.7720    0.0000 </r>
      </set>
      <set comment="kpoint 38">
       <r>   -7.2038    1.0000 </r>
       <r>    2.5931    1.0000 </r>
       <r>    3.7760    1.0000 </r>
       <r>    3.7760    1.0000 </r>
       <r>    7.4566    0.0000 </r>
       <r>   10.0816    0.0000 </r>
       <r>   10.8610    0.0000 </r>
       <r>   10.8610    0.0000 </r>
       <r>   13.0963    0.0000 </r>
      </set>
      <set comment="kpoint 39">
       <r>   -7.0224    1.0000 </r>
       <r>    2.1242    1.0000 </r>
       <r>    3.5536    1.0000 </r>
       <r>    3.5536    1.0000 </r>
       <r>    7.2765    0.0000 </r>
       <r>    9.7273    0.0000 </r>
       <r>   11.2912    0.0000 </r>
       <r>   11.2912    0.0000 </r>
       <r>   13.5290    0.0000 </r>
      </set>
      <set comment="kpoint 40">
       <r>   -6.8205    1.0000 </r>
       <r>    1.6506    1.0000 </r>
       <r>    3.3434    1.0000 </r>
       <r>    3.3434    1.0000 </r>
       <r>    7.1081    0.0000 </r>
       <r>    9.3489    0.0000 </r>
       <r>   11.7317    0.0000 </r>
       <r>   11.7318    0.0000 </r>
       <r>   14.0174    0.0000 </r>
      </set>
      <set comment="kpoint 41">
       <r>   -6.5982    1.0000 </r>
       <r>    1.1746    1.0000 </r>
       <r>    3.1476    1.0000 </r>
       <r>    3.1476    1.0000 </r>
       <r>    6.9544    0.0000 </r>
       <r>    8.9726    0.0000 </r>
       <r>   12.1800    0.0000 </r>
       <r>   12.1800    0.0000 </r>
       <r>   14.5339    0.0000 </r>
      </set>
      <set comment="kpoint 42">
       <r>   -6.3559    1.0000 </r>
       <r>    0.6983    1.0000 </r>
       <r>    2.9676    1.0000 </r>
       <r>    2.9676    1.0000 </r>
       <r>    6.8178    0.0000 </r>
       <r>    8.6116    0.0000 </r>
       <r>   12.6346    0.0000 </r>
       <r>   12.6346    0.0000 </r>
       <r>   15.0646    0.0000 </r>
      </set>
      <set comment="kpoint 43">
       <r>   -6.0940    1.0000 </r>
       <r>    0.2233    1.0000 </r>
       <r>    2.8044    1.0000 </r>
       <r>    2.8044    1.0000 </r>
       <r>    6.7002    0.0000 </r>
       <r>    8.2727    0.0000 </r>
       <r>   13.0943    0.0000 </r>
       <r>   13.0945    0.0000 </r>
       <r>   15.5999    0.0000 </r>
      </set>
      <set comment="kpoint 44">
       <r>   -5.8128    1.0000 </r>
       <r>   -0.2489    1.0000 </r>
       <r>    2.6590    1.0000 </r>
       <r>    2.6590    1.0000 </r>
       <r>    6.6031    0.0000 </r>
       <r>    7.9598    0.0000 </r>
       <r>   13.5586    0.0000 </r>
       <r>   13.5588    0.0000 </r>
       <r>   16.1334    0.0000 </r>
      </set>
      <set comment="kpoint 45">
       <r>   -5.5128    1.0000 </r>
       <r>   -0.7167    1.0000 </r>
       <r>    2.5320    1.0000 </r>
       <r>    2.5320    1.0000 </r>
       <r>    6.5281    0.0000 </r>
       <r>    7.6757    0.0000 </r>
       <r>   14.0268    0.0000 </r>
       <r>   14.0268    0.0000 </r>
       <r>   16.6595    0.0000 </r>
      </set>
      <set comment="kpoint 46">
       <r>   -5.1946    1.0000 </r>
       <r>   -1.1787    1.0000 </r>
       <r>    2.4238    1.0000 </r>
       <r>    2.4238    1.0000 </r>
       <r>    6.4762    0.0000 </r>
       <r>    7.4211    0.0000 </r>
       <r>   14.4983    0.0000 </r>
       <r>   14.4983    0.0000 </r>
       <r>   17.1362    0.0000 </r>
      </set>
      <set comment="kpoint 47">
       <r>   -4.8587    1.0000 </r>
       <r>   -1.6334    1.0000 </r>
       <r>    2.3349    1.0000 </r>
       <r>    2.3349    1.0000 </r>
       <r>    6.4485    0.0000 </r>
       <r>    7.1966    0.0000 </r>
       <r>   14.9719    0.0000 </r>
       <r>   14.9720    0.0000 </r>
       <r>   17.3339    0.0000 </r>
      </set>
      <set comment="kpoint 48">
       <r>   -4.5059    1.0000 </r>
       <r>   -2.0796    1.0000 </r>
       <r>    2.2655    1.0000 </r>
       <r>    2.2655    1.0000 </r>
       <r>    6.4459    0.0000 </r>
       <r>    7.0023    0.0000 </r>
       <r>   15.4453    0.0000 </r>
       <r>   15.4453    0.0000 </r>
       <r>   17.7303    0.0000 </r>
      </set>
      <set comment="kpoint 49">
       <r>   -4.1367    1.0000 </r>
       <r>   -2.5157    1.0000 </r>
       <r>    2.2158    1.0000 </r>
       <r>    2.2158    1.0000 </r>
       <r>    6.4692    0.0000 </r>
       <r>    6.8379    0.0000 </r>
       <r>   15.9108    0.0000 </r>
       <r>   15.9108    0.0000 </r>
       <r>   18.1248    0.0000 </r>
      </set>
      <set comment="kpoint 50">
       <r>   -3.7522    1.0000 </r>
       <r>   -2.9406    1.0000 </r>
       <r>    2.1859    1.0000 </r>
       <r>    2.1859    1.0000 </r>
       <r>    6.5194    0.0000 </r>
       <r>    6.7030    0.0000 </r>
       <r>   16.3389    0.0000 </r>
       <r>   16.3394    0.0000 </r>
       <r>   17.6672    0.0000 </r>
      </set>
      <set comment="kpoint 51">
       <r>   -3.3532    1.0000 </r>
       <r>   -3.3532    1.0000 </r>
       <r>    2.1759    1.0000 </r>
       <r>    2.1759    1.0000 </r>
       <r>    6.5971    0.0000 </r>
       <r>    6.5971    0.0000 </r>
       <r>   16.5703    0.0000 </r>
       <r>   16.5747    0.0000 </r>
       <r>   17.4288    0.0000 </r>
      </set>
      <set comment="kpoint 52">
       <r>   -3.3532    1.0000 </r>
       <r>   -3.3532    1.0000 </r>
       <r>    2.1759    1.0000 </r>
       <r>    2.1759    1.0000 </r>
       <r>    6.5971    0.0000 </r>
       <r>    6.5971    0.0000 </r>
       <r>   16.5703    0.0000 </r>
       <r>   16.5747    0.0000 </r>
       <r>   17.4288    0.0000 </r>
      </set>
      <set comment="kpoint 53">
       <r>   -3.3493    1.0000 </r>
       <r>   -3.3492    1.0000 </r>
       <r>    2.1437    1.0000 </r>
       <r>    2.1437    1.0000 </r>
       <r>    6.6585    0.0000 </r>
       <r>    6.6586    0.0000 </r>
       <r>   16.4572    0.0000 </r>
       <r>   16.4581    0.0000 </r>
       <r>   17.2932    0.0000 </r>
      </set>
      <set comment="kpoint 54">
       <r>   -3.3378    1.0000 </r>
       <r>   -3.3378    1.0000 </r>
       <r>    2.0535    1.0000 </r>
       <r>    2.0535    1.0000 </r>
       <r>    6.8368    0.0000 </r>
       <r>    6.8368    0.0000 </r>
       <r>   16.0747    0.0000 </r>
       <r>   16.0752    0.0000 </r>
       <r>   17.1271    0.0000 </r>
      </set>
      <set comment="kpoint 55">
       <r>   -3.3197    1.0000 </r>
       <r>   -3.3197    1.0000 </r>
       <r>    1.9213    1.0000 </r>
       <r>    1.9213    1.0000 </r>
       <r>    7.1164    0.0000 </r>
       <r>    7.1164    0.0000 </r>
       <r>   15.4930    0.0000 </r>
       <r>   15.4933    0.0000 </r>
       <r>   17.0579    0.0000 </r>
      </set>
      <set comment="kpoint 56">
       <r>   -3.2964    1.0000 </r>
       <r>   -3.2964    1.0000 </r>
       <r>    1.7664    1.0000 </r>
       <r>    1.7664    1.0000 </r>
       <r>    7.4787    0.0000 </r>
       <r>    7.4787    0.0000 </r>
       <r>   14.8327    0.0000 </r>
       <r>   14.8327    0.0000 </r>
       <r>   17.0342    0.0000 </r>
      </set>
      <set comment="kpoint 57">
       <r>   -3.2699    1.0000 </r>
       <r>   -3.2699    1.0000 </r>
       <r>    1.6067    1.0000 </r>
       <r>    1.6067    1.0000 </r>
       <r>    7.9067    0.0000 </r>
       <r>    7.9067    0.0000 </r>
       <r>   14.1474    0.0000 </r>
       <r>   14.1474    0.0000 </r>
       <r>   17.0277    0.0000 </r>
      </set>
      <set comment="kpoint 58">
       <r>   -3.2426    1.0000 </r>
       <r>   -3.2426    1.0000 </r>
       <r>    1.4570    1.0000 </r>
       <r>    1.4570    1.0000 </r>
       <r>    8.3864    0.0000 </r>
       <r>    8.3864    0.0000 </r>
       <r>   13.4591    0.0000 </r>
       <r>   13.4591    0.0000 </r>
       <r>   17.0280    0.0000 </r>
      </set>
      <set comment="kpoint 59">
       <r>   -3.2173    1.0000 </r>
       <r>   -3.2173    1.0000 </r>
       <r>    1.3289    1.0000 </r>
       <r>    1.3289    1.0000 </r>
       <r>    8.9055    0.0000 </r>
       <r>    8.9055    0.0000 </r>
       <r>   12.7799    0.0000 </r>
       <r>   12.7799    0.0000 </r>
       <r>   17.0311    0.0000 </r>
      </set>
      <set comment="kpoint 60">
       <r>   -3.1967    1.0000 </r>
       <r>   -3.1967    1.0000 </r>
       <r>    1.2311    1.0000 </r>
       <r>    1.2311    1.0000 </r>
       <r>    9.4502    0.0000 </r>
       <r>    9.4502    0.0000 </r>
       <r>   12.1223    0.0000 </r>
       <r>   12.1223    0.0000 </r>
       <r>   17.0344    0.0000 </r>
      </set>
      <set comment="kpoint 61">
       <r>   -3.1833    1.0000 </r>
       <r>   -3.1832    1.0000 </r>
       <r>    1.1699    1.0000 </r>
       <r>    1.1699    1.0000 </r>
       <r>    9.9880    0.0000 </r>
       <r>    9.9880    0.0000 </r>
       <r>   11.5173    0.0000 </r>
       <r>   11.5173    0.0000 </r>
       <r>   17.0368    0.0000 </r>
      </set>
      <set comment="kpoint 62">
       <r>   -3.1786    1.0000 </r>
       <r>   -3.1786    1.0000 </r>
       <r>    1.1491    1.0000 </r>
       <r>    1.1491    1.0000 </r>
       <r>   10.3156    0.0000 </r>
       <r>   10.3156    0.0000 </r>
       <r>   11.1673    0.0000 </r>
       <r>   11.1673    0.0000 </r>
       <r>   17.0377    0.0000 </r>
      </set>
      <set comment="kpoint 63">
       <r>   -3.1786    1.0000 </r>
       <r>   -3.1786    1.0000 </r>
       <r>    1.1491    1.0000 </r>
       <r>    1.1491    1.0000 </r>
       <r>   10.3156    0.0000 </r>
       <r>   10.3156    0.0000 </r>
       <r>   11.1673    0.0000 </r>
       <r>   11.1673    0.0000 </r>
       <r>   17.0377    0.0000 </r>
      </set>
      <set comment="kpoint 64">
       <r>   -3.4197    1.0000 </r>
       <r>   -2.9429    1.0000 </r>
       <r>    0.9921    1.0000 </r>
       <r>    1.3432    1.0000 </r>
       <r>   10.1111    0.0000 </r>
       <r>   10.4014    0.0000 </r>
       <r>   11.0808    0.0000 </r>
       <r>   11.4147    0.0000 </r>
       <r>   16.5514    0.0000 </r>
      </set>
      <set comment="kpoint 65">
       <r>   -3.6589    1.0000 </r>
       <r>   -2.7225    1.0000 </r>
       <r>    0.8836    1.0000 </r>
       <r>    1.5653    1.0000 </r>
       <r>    9.8920    0.0000 </r>
       <r>   10.2753    0.0000 </r>
       <r>   11.2472    0.0000 </r>
       <r>   11.7191    0.0000 </r>
       <r>   15.9456    0.0000 </r>
      </set>
      <set comment="kpoint 66">
       <r>   -3.8909    1.0000 </r>
       <r>   -2.5289    1.0000 </r>
       <r>    0.8361    1.0000 </r>
       <r>    1.8074    1.0000 </r>
       <r>    9.6881    0.0000 </r>
       <r>   10.0591    0.0000 </r>
       <r>   11.5438    0.0000 </r>
       <r>   12.0514    0.0000 </r>
       <r>   15.2720    0.0000 </r>
      </set>
      <set comment="kpoint 67">
       <r>   -4.1119    1.0000 </r>
       <r>   -2.3737    1.0000 </r>
       <r>    0.8616    1.0000 </r>
       <r>    2.0624    1.0000 </r>
       <r>    9.5093    0.0000 </r>
       <r>    9.8282    0.0000 </r>
       <r>   11.8942    0.0000 </r>
       <r>   12.4017    0.0000 </r>
       <r>   14.5654    0.0000 </r>
      </set>
      <set comment="kpoint 68">
       <r>   -4.3189    1.0000 </r>
       <r>   -2.2648    1.0000 </r>
       <r>    0.9681    1.0000 </r>
       <r>    2.3237    1.0000 </r>
       <r>    9.3605    0.0000 </r>
       <r>    9.6014    0.0000 </r>
       <r>   12.2777    0.0000 </r>
       <r>   12.7645    0.0000 </r>
       <r>   13.8491    0.0000 </r>
      </set>
      <set comment="kpoint 69">
       <r>   -4.5099    1.0000 </r>
       <r>   -2.2028    1.0000 </r>
       <r>    1.1556    1.0000 </r>
       <r>    2.5848    1.0000 </r>
       <r>    9.2450    0.0000 </r>
       <r>    9.3831    0.0000 </r>
       <r>   12.6859    0.0000 </r>
       <r>   13.1340    0.0000 </r>
       <r>   13.1402    0.0000 </r>
      </set>
      <set comment="kpoint 70">
       <r>   -4.6836    1.0000 </r>
       <r>   -2.1811    1.0000 </r>
       <r>    1.4159    1.0000 </r>
       <r>    2.8391    1.0000 </r>
       <r>    9.1649    0.0000 </r>
       <r>    9.1728    0.0000 </r>
       <r>   12.4418    0.0000 </r>
       <r>   13.1303    0.0000 </r>
       <r>   13.5030    0.0000 </r>
      </set>
      <set comment="kpoint 71">
       <r>   -4.8387    1.0000 </r>
       <r>   -2.1888    1.0000 </r>
       <r>    1.7357    1.0000 </r>
       <r>    3.0800    1.0000 </r>
       <r>    8.9668    0.0000 </r>
       <r>    9.1221    0.0000 </r>
       <r>   11.7803    0.0000 </r>
       <r>   13.5804    0.0000 </r>
       <r>   13.8536    0.0000 </r>
      </set>
      <set comment="kpoint 72">
       <r>   -4.9744    1.0000 </r>
       <r>   -2.2145    1.0000 </r>
       <r>    2.0997    1.0000 </r>
       <r>    3.3011    1.0000 </r>
       <r>    8.7577    0.0000 </r>
       <r>    9.1160    0.0000 </r>
       <r>   11.1640    0.0000 </r>
       <r>   14.0556    0.0000 </r>
       <r>   14.1569    0.0000 </r>
      </set>
      <set comment="kpoint 73">
       <r>   -5.0901    1.0000 </r>
       <r>   -2.2489    1.0000 </r>
       <r>    2.4917    1.0000 </r>
       <r>    3.4963    1.0000 </r>
       <r>    8.5341    0.0000 </r>
       <r>    9.1438    0.0000 </r>
       <r>   10.6140    0.0000 </r>
       <r>   14.3507    0.0000 </r>
       <r>   14.5512    0.0000 </r>
      </set>
      <set comment="kpoint 74">
       <r>   -5.1853    1.0000 </r>
       <r>   -2.2847    1.0000 </r>
       <r>    2.8939    1.0000 </r>
       <r>    3.6609    1.0000 </r>
       <r>    8.2834    0.0000 </r>
       <r>    9.1990    0.0000 </r>
       <r>   10.1562    0.0000 </r>
       <r>   14.3643    0.0000 </r>
       <r>   15.0700    0.0000 </r>
      </set>
      <set comment="kpoint 75">
       <r>   -5.2597    1.0000 </r>
       <r>   -2.3169    1.0000 </r>
       <r>    3.2829    1.0000 </r>
       <r>    3.7914    1.0000 </r>
       <r>    8.0042    0.0000 </r>
       <r>    9.2702    0.0000 </r>
       <r>    9.8111    0.0000 </r>
       <r>   14.2258    0.0000 </r>
       <r>   15.6026    0.0000 </r>
      </set>
      <set comment="kpoint 76">
       <r>   -5.3130    1.0000 </r>
       <r>   -2.3421    1.0000 </r>
       <r>    3.6248    1.0000 </r>
       <r>    3.8855    1.0000 </r>
       <r>    7.7250    0.0000 </r>
       <r>    9.3415    0.0000 </r>
       <r>    9.5820    0.0000 </r>
       <r>   14.0457    0.0000 </r>
       <r>   16.2417    0.0000 </r>
      </set>
      <set comment="kpoint 77">
       <r>   -5.3451    1.0000 </r>
       <r>   -2.3580    1.0000 </r>
       <r>    3.8699    1.0000 </r>
       <r>    3.9421    1.0000 </r>
       <r>    7.5076    0.0000 </r>
       <r>    9.3946    0.0000 </r>
       <r>    9.4549    0.0000 </r>
       <r>   13.9087    0.0000 </r>
       <r>   16.8319    0.0000 </r>
      </set>
      <set comment="kpoint 78">
       <r>   -5.3558    1.0000 </r>
       <r>   -2.3634    1.0000 </r>
       <r>    3.9611    1.0000 </r>
       <r>    3.9611    1.0000 </r>
       <r>    7.4238    0.0000 </r>
       <r>    9.4144    0.0000 </r>
       <r>    9.4144    0.0000 </r>
       <r>   13.8585    0.0000 </r>
       <r>   17.0137    0.0000 </r>
      </set>
      <set comment="kpoint 79">
       <r>   -5.3558    1.0000 </r>
       <r>   -2.3634    1.0000 </r>
       <r>    3.9611    1.0000 </r>
       <r>    3.9611    1.0000 </r>
       <r>    7.4238    0.0000 </r>
       <r>    9.4144    0.0000 </r>
       <r>    9.4144    0.0000 </r>
       <r>   13.8585    0.0000 </r>
       <r>   17.0137    0.0000 </r>
      </set>
      <set comment="kpoint 80">
       <r>   -5.4027    1.0000 </r>
       <r>   -2.2949    1.0000 </r>
       <r>    3.9674    1.0000 </r>
       <r>    3.9674    1.0000 </r>
       <r>    7.4306    0.0000 </r>
       <r>    9.4211    0.0000 </r>
       <r>    9.4211    0.0000 </r>
       <r>   13.8692    0.0000 </r>
       <r>   16.6855    0.0000 </r>
      </set>
      <set comment="kpoint 81">
       <r>   -5.5317    1.0000 </r>
       <r>   -2.1014    1.0000 </r>
       <r>    3.9862    1.0000 </r>
       <r>    3.9862    1.0000 </r>
       <r>    7.4510    0.0000 </r>
       <r>    9.4405    0.0000 </r>
       <r>    9.4405    0.0000 </r>
       <r>   13.9007    0.0000 </r>
       <r>   16.1664    0.0000 </r>
      </set>
      <set comment="kpoint 82">
       <r>   -5.7170    1.0000 </r>
       <r>   -1.8088    1.0000 </r>
       <r>    4.0176    1.0000 </r>
       <r>    4.0176    1.0000 </r>
       <r>    7.4849    0.0000 </r>
       <r>    9.4708    0.0000 </r>
       <r>    9.4708    0.0000 </r>
       <r>   13.9497    0.0000 </r>
       <r>   15.6473    0.0000 </r>
      </set>
      <set comment="kpoint 83">
       <r>   -5.9332    1.0000 </r>
       <r>   -1.4428    1.0000 </r>
       <r>    4.0614    1.0000 </r>
       <r>    4.0614    1.0000 </r>
       <r>    7.5321    0.0000 </r>
       <r>    9.5090    0.0000 </r>
       <r>    9.5090    0.0000 </r>
       <r>   14.0090    0.0000 </r>
       <r>   15.1549    0.0000 </r>
      </set>
      <set comment="kpoint 84">
       <r>   -6.1621    1.0000 </r>
       <r>   -1.0224    1.0000 </r>
       <r>    4.1173    1.0000 </r>
       <r>    4.1173    1.0000 </r>
       <r>    7.5924    0.0000 </r>
       <r>    9.5497    0.0000 </r>
       <r>    9.5497    0.0000 </r>
       <r>   14.0611    0.0000 </r>
       <r>   14.7006    0.0000 </r>
      </set>
      <set comment="kpoint 85">
       <r>   -6.3917    1.0000 </r>
       <r>   -0.5603    1.0000 </r>
       <r>    4.1850    1.0000 </r>
       <r>    4.1850    1.0000 </r>
       <r>    7.6652    0.0000 </r>
       <r>    9.5862    0.0000 </r>
       <r>    9.5863    0.0000 </r>
       <r>   14.0612    0.0000 </r>
       <r>   14.2937    0.0000 </r>
      </set>
      <set comment="kpoint 86">
       <r>   -6.6142    1.0000 </r>
       <r>   -0.0651    1.0000 </r>
       <r>    4.2640    1.0000 </r>
       <r>    4.2640    1.0000 </r>
       <r>    7.7501    0.0000 </r>
       <r>    9.6099    0.0000 </r>
       <r>    9.6099    0.0000 </r>
       <r>   13.9033    0.0000 </r>
       <r>   13.9443    0.0000 </r>
      </set>
      <set comment="kpoint 87">
       <r>   -6.8249    1.0000 </r>
       <r>    0.4566    1.0000 </r>
       <r>    4.3536    1.0000 </r>
       <r>    4.3536    1.0000 </r>
       <r>    7.8459    0.0000 </r>
       <r>    9.6104    0.0000 </r>
       <r>    9.6104    0.0000 </r>
       <r>   13.5495    0.0000 </r>
       <r>   13.6632    0.0000 </r>
      </set>
      <set comment="kpoint 88">
       <r>   -7.0205    1.0000 </r>
       <r>    1.0000    1.0000 </r>
       <r>    4.4527    1.0000 </r>
       <r>    4.4527    1.0000 </r>
       <r>    7.9515    0.0000 </r>
       <r>    9.5781    0.0000 </r>
       <r>    9.5781    0.0000 </r>
       <r>   13.0807    0.0000 </r>
       <r>   13.4607    0.0000 </r>
      </set>
      <set comment="kpoint 89">
       <r>   -7.1989    1.0000 </r>
       <r>    1.5601    1.0000 </r>
       <r>    4.5597    1.0000 </r>
       <r>    4.5597    1.0000 </r>
       <r>    8.0649    0.0000 </r>
       <r>    9.5070    0.0000 </r>
       <r>    9.5070    0.0000 </r>
       <r>   12.5759    0.0000 </r>
       <r>   13.3427    0.0000 </r>
      </set>
      <set comment="kpoint 90">
       <r>   -7.3585    1.0000 </r>
       <r>    2.1318    1.0000 </r>
       <r>    4.6726    1.0000 </r>
       <r>    4.6726    1.0000 </r>
       <r>    8.1833    0.0000 </r>
       <r>    9.3976    0.0000 </r>
       <r>    9.3976    0.0000 </r>
       <r>   12.0531    0.0000 </r>
       <r>   13.3083    0.0000 </r>
      </set>
      <set comment="kpoint 91">
       <r>   -7.4984    1.0000 </r>
       <r>    2.7090    1.0000 </r>
       <r>    4.7885    1.0000 </r>
       <r>    4.7885    1.0000 </r>
       <r>    8.3028    0.0000 </r>
       <r>    9.2578    0.0000 </r>
       <r>    9.2578    0.0000 </r>
       <r>   11.5229    0.0000 </r>
       <r>   13.3484    0.0000 </r>
      </set>
      <set comment="kpoint 92">
       <r>   -7.6177    1.0000 </r>
       <r>    3.2831    1.0000 </r>
       <r>    4.9035    1.0000 </r>
       <r>    4.9035    1.0000 </r>
       <r>    8.4179    0.0000 </r>
       <r>    9.1009    0.0000 </r>
       <r>    9.1009    0.0000 </r>
       <r>   10.9949    0.0000 </r>
       <r>   13.4486    0.0000 </r>
      </set>
      <set comment="kpoint 93">
       <r>   -7.7159    1.0000 </r>
       <r>    3.8414    1.0000 </r>
       <r>    5.0124    1.0000 </r>
       <r>    5.0124    1.0000 </r>
       <r>    8.5200    0.0000 </r>
       <r>    8.9425    0.0000 </r>
       <r>    8.9425    0.0000 </r>
       <r>   10.4832    0.0000 </r>
       <r>   13.5887    0.0000 </r>
      </set>
      <set comment="kpoint 94">
       <r>   -7.7927    1.0000 </r>
       <r>    4.3630    1.0000 </r>
       <r>    5.1090    1.0000 </r>
       <r>    5.1090    1.0000 </r>
       <r>    8.5962    0.0000 </r>
       <r>    8.7982    0.0000 </r>
       <r>    8.7983    0.0000 </r>
       <r>   10.0135    0.0000 </r>
       <r>   13.7464    0.0000 </r>
      </set>
      <set comment="kpoint 95">
       <r>   -7.8477    1.0000 </r>
       <r>    4.8129    1.0000 </r>
       <r>    5.1860    1.0000 </r>
       <r>    5.1860    1.0000 </r>
       <r>    8.6279    0.0000 </r>
       <r>    8.6825    0.0000 </r>
       <r>    8.6825    0.0000 </r>
       <r>    9.6316    0.0000 </r>
       <r>   13.8961    0.0000 </r>
      </set>
      <set comment="kpoint 96">
       <r>   -7.8807    1.0000 </r>
       <r>    5.1337    1.0000 </r>
       <r>    5.2359    1.0000 </r>
       <r>    5.2359    1.0000 </r>
       <r>    8.6062    0.0000 </r>
       <r>    8.6074    0.0000 </r>
       <r>    8.6074    0.0000 </r>
       <r>    9.3961    0.0000 </r>
       <r>   14.0199    0.0000 </r>
      </set>
      <set comment="kpoint 97">
       <r>   -7.8918    1.0000 </r>
       <r>    5.2533    1.0000 </r>
       <r>    5.2533    1.0000 </r>
       <r>    5.2533    1.0000 </r>
       <r>    8.5814    0.0000 </r>
       <r>    8.5814    0.0000 </r>
       <r>    8.5814    0.0000 </r>
       <r>    9.3233    0.0000 </r>
       <r>   13.9721    0.0000 </r>
      </set>
      <set comment="kpoint 98">
       <r>   -7.8918    1.0000 </r>
       <r>    5.2533    1.0000 </r>
       <r>    5.2533    1.0000 </r>
       <r>    5.2533    1.0000 </r>
       <r>    8.5814    0.0000 </r>
       <r>    8.5814    0.0000 </r>
       <r>    8.5814    0.0000 </r>
       <r>    9.3233    0.0000 </r>
       <r>   13.9721    0.0000 </r>
      </set>
      <set comment="kpoint 99">
       <r>   -7.8816    1.0000 </r>
       <r>    5.1546    1.0000 </r>
       <r>    5.2140    1.0000 </r>
       <r>    5.2488    1.0000 </r>
       <r>    8.5918    0.0000 </r>
       <r>    8.5966    0.0000 </r>
       <r>    8.6281    0.0000 </r>
       <r>    9.3891    0.0000 </r>
       <r>   14.0162    0.0000 </r>
      </set>
      <set comment="kpoint 100">
       <r>   -7.8512    1.0000 </r>
       <r>    4.8884    1.0000 </r>
       <r>    5.0997    1.0000 </r>
       <r>    5.2354    1.0000 </r>
       <r>    8.6231    0.0000 </r>
       <r>    8.6410    0.0000 </r>
       <r>    8.7249    0.0000 </r>
       <r>    9.5983    0.0000 </r>
       <r>   13.8216    0.0000 </r>
      </set>
      <set comment="kpoint 101">
       <r>   -7.8007    1.0000 </r>
       <r>    4.5136    1.0000 </r>
       <r>    4.9197    1.0000 </r>
       <r>    5.2122    1.0000 </r>
       <r>    8.6752    0.0000 </r>
       <r>    8.7120    0.0000 </r>
       <r>    8.8136    0.0000 </r>
       <r>    9.9438    0.0000 </r>
       <r>   13.5970    0.0000 </r>
      </set>
      <set comment="kpoint 102">
       <r>   -7.7300    1.0000 </r>
       <r>    4.0792    1.0000 </r>
       <r>    4.6865    1.0000 </r>
       <r>    5.1782    1.0000 </r>
       <r>    8.7481    0.0000 </r>
       <r>    8.8065    0.0000 </r>
       <r>    8.8841    0.0000 </r>
       <r>   10.3734    0.0000 </r>
       <r>   13.3473    0.0000 </r>
      </set>
      <set comment="kpoint 103">
       <r>   -7.6395    1.0000 </r>
       <r>    3.6159    1.0000 </r>
       <r>    4.4130    1.0000 </r>
       <r>    5.1321    1.0000 </r>
       <r>    8.8416    0.0000 </r>
       <r>    8.9222    0.0000 </r>
       <r>    8.9441    0.0000 </r>
       <r>   10.8239    0.0000 </r>
       <r>   13.0989    0.0000 </r>
      </set>
      <set comment="kpoint 104">
       <r>   -7.5294    1.0000 </r>
       <r>    3.1419    1.0000 </r>
       <r>    4.1110    1.0000 </r>
       <r>    5.0724    1.0000 </r>
       <r>    8.9557    0.0000 </r>
       <r>    8.9974    0.0000 </r>
       <r>    9.0573    0.0000 </r>
       <r>   11.2322    0.0000 </r>
       <r>   12.8689    0.0000 </r>
      </set>
      <set comment="kpoint 105">
       <r>   -7.3999    1.0000 </r>
       <r>    2.6681    1.0000 </r>
       <r>    3.7907    1.0000 </r>
       <r>    4.9980    1.0000 </r>
       <r>    9.0427    0.0000 </r>
       <r>    9.0901    0.0000 </r>
       <r>    9.2113    0.0000 </r>
       <r>   11.5365    0.0000 </r>
       <r>   12.6690    0.0000 </r>
      </set>
      <set comment="kpoint 106">
       <r>   -7.2516    1.0000 </r>
       <r>    2.2012    1.0000 </r>
       <r>    3.4605    1.0000 </r>
       <r>    4.9078    1.0000 </r>
       <r>    9.0753    0.0000 </r>
       <r>    9.2449    0.0000 </r>
       <r>    9.3838    0.0000 </r>
       <r>   11.7080    0.0000 </r>
       <r>   12.5066    0.0000 </r>
      </set>
      <set comment="kpoint 107">
       <r>   -7.0848    1.0000 </r>
       <r>    1.7454    1.0000 </r>
       <r>    3.1274    1.0000 </r>
       <r>    4.8016    1.0000 </r>
       <r>    9.0882    0.0000 </r>
       <r>    9.4197    0.0000 </r>
       <r>    9.5746    0.0000 </r>
       <r>   11.7763    0.0000 </r>
       <r>   12.3864    0.0000 </r>
      </set>
      <set comment="kpoint 108">
       <r>   -6.9003    1.0000 </r>
       <r>    1.3035    1.0000 </r>
       <r>    2.7971    1.0000 </r>
       <r>    4.6797    1.0000 </r>
       <r>    9.0734    0.0000 </r>
       <r>    9.6144    0.0000 </r>
       <r>    9.7838    0.0000 </r>
       <r>   11.7981    0.0000 </r>
       <r>   12.3105    0.0000 </r>
      </set>
      <set comment="kpoint 109">
       <r>   -6.6989    1.0000 </r>
       <r>    0.8776    1.0000 </r>
       <r>    2.4743    1.0000 </r>
       <r>    4.5431    1.0000 </r>
       <r>    9.0244    0.0000 </r>
       <r>    9.8288    0.0000 </r>
       <r>   10.0112    0.0000 </r>
       <r>   11.8197    0.0000 </r>
       <r>   12.2802    0.0000 </r>
      </set>
      <set comment="kpoint 110">
       <r>   -6.4816    1.0000 </r>
       <r>    0.4690    1.0000 </r>
       <r>    2.1633    1.0000 </r>
       <r>    4.3937    1.0000 </r>
       <r>    8.9384    0.0000 </r>
       <r>   10.0626    0.0000 </r>
       <r>   10.2566    0.0000 </r>
       <r>   11.8686    0.0000 </r>
       <r>   12.2950    0.0000 </r>
      </set>
      <set comment="kpoint 111">
       <r>   -6.2498    1.0000 </r>
       <r>    0.0789    1.0000 </r>
       <r>    1.8677    1.0000 </r>
       <r>    4.2338    1.0000 </r>
       <r>    8.8174    0.0000 </r>
       <r>   10.3155    0.0000 </r>
       <r>   10.5198    0.0000 </r>
       <r>   11.9573    0.0000 </r>
       <r>   12.3536    0.0000 </r>
      </set>
      <set comment="kpoint 112">
       <r>   -6.0050    1.0000 </r>
       <r>   -0.2920    1.0000 </r>
       <r>    1.5911    1.0000 </r>
       <r>    4.0662    1.0000 </r>
       <r>    8.6679    0.0000 </r>
       <r>   10.5873    0.0000 </r>
       <r>   10.8002    0.0000 </r>
       <r>   12.0885    0.0000 </r>
       <r>   12.4540    0.0000 </r>
      </set>
      <set comment="kpoint 113">
       <r>   -5.7495    1.0000 </r>
       <r>   -0.6431    1.0000 </r>
       <r>    1.3372    1.0000 </r>
       <r>    3.8937    1.0000 </r>
       <r>    8.4977    0.0000 </r>
       <r>   10.8775    0.0000 </r>
       <r>   11.0969    0.0000 </r>
       <r>   12.2597    0.0000 </r>
       <r>   12.5939    0.0000 </r>
      </set>
      <set comment="kpoint 114">
       <r>   -5.4860    1.0000 </r>
       <r>   -0.9740    1.0000 </r>
       <r>    1.1095    1.0000 </r>
       <r>    3.7193    1.0000 </r>
       <r>    8.3149    0.0000 </r>
       <r>   11.1860    0.0000 </r>
       <r>   11.4078    0.0000 </r>
       <r>   12.4661    0.0000 </r>
       <r>   12.7706    0.0000 </r>
      </set>
      <set comment="kpoint 115">
       <r>   -5.2179    1.0000 </r>
       <r>   -1.2842    1.0000 </r>
       <r>    0.9123    1.0000 </r>
       <r>    3.5456    1.0000 </r>
       <r>    8.1265    0.0000 </r>
       <r>   11.5122    0.0000 </r>
       <r>   11.7285    0.0000 </r>
       <r>   12.7031    0.0000 </r>
       <r>   12.9815    0.0000 </r>
      </set>
      <set comment="kpoint 116">
       <r>   -4.9497    1.0000 </r>
       <r>   -1.5735    1.0000 </r>
       <r>    0.7502    1.0000 </r>
       <r>    3.3753    1.0000 </r>
       <r>    7.9382    0.0000 </r>
       <r>   11.8557    0.0000 </r>
       <r>   12.0446    0.0000 </r>
       <r>   12.9661    0.0000 </r>
       <r>   13.2240    0.0000 </r>
      </set>
      <set comment="kpoint 117">
       <r>   -4.6867    1.0000 </r>
       <r>   -1.8416    1.0000 </r>
       <r>    0.6286    1.0000 </r>
       <r>    3.2106    1.0000 </r>
       <r>    7.7542    0.0000 </r>
       <r>   12.2158    0.0000 </r>
       <r>   12.2920    0.0000 </r>
       <r>   13.2521    0.0000 </r>
       <r>   13.5000    0.0000 </r>
      </set>
      <set comment="kpoint 118">
       <r>   -4.4352    1.0000 </r>
       <r>   -2.0882    1.0000 </r>
       <r>    0.5532    1.0000 </r>
       <r>    3.0536    1.0000 </r>
       <r>    7.5780    0.0000 </r>
       <r>   12.1676    0.0000 </r>
       <r>   12.5919    0.0000 </r>
       <r>   13.2493    0.0000 </r>
       <r>   13.5565    0.0000 </r>
      </set>
      <set comment="kpoint 119">
       <r>   -4.2022    1.0000 </r>
       <r>   -2.3133    1.0000 </r>
       <r>    0.5300    1.0000 </r>
       <r>    2.9059    1.0000 </r>
       <r>    7.4121    0.0000 </r>
       <r>   11.5838    0.0000 </r>
       <r>   12.9832    0.0000 </r>
       <r>   13.4851    0.0000 </r>
       <r>   13.8783    0.0000 </r>
      </set>
      <set comment="kpoint 120">
       <r>   -3.9945    1.0000 </r>
       <r>   -2.5166    1.0000 </r>
       <r>    0.5641    1.0000 </r>
       <r>    2.7691    1.0000 </r>
       <r>    7.2586    0.0000 </r>
       <r>   10.8928    0.0000 </r>
       <r>   13.3884    0.0000 </r>
       <r>   13.8604    0.0000 </r>
       <r>   14.2144    0.0000 </r>
      </set>
      <set comment="kpoint 121">
       <r>   -3.8174    1.0000 </r>
       <r>   -2.6980    1.0000 </r>
       <r>    0.6581    1.0000 </r>
       <r>    2.6445    1.0000 </r>
       <r>    7.1189    0.0000 </r>
       <r>   10.1936    0.0000 </r>
       <r>   13.8059    0.0000 </r>
       <r>   14.2806    0.0000 </r>
       <r>   14.5623    0.0000 </r>
      </set>
      <set comment="kpoint 122">
       <r>   -3.8174    1.0000 </r>
       <r>   -2.6980    1.0000 </r>
       <r>    0.6581    1.0000 </r>
       <r>    2.6445    1.0000 </r>
       <r>    7.1189    0.0000 </r>
       <r>   10.1936    0.0000 </r>
       <r>   13.8059    0.0000 </r>
       <r>   14.2806    0.0000 </r>
       <r>   14.5623    0.0000 </r>
      </set>
      <set comment="kpoint 123">
       <r>   -3.8844    1.0000 </r>
       <r>   -2.6228    1.0000 </r>
       <r>    0.6153    1.0000 </r>
       <r>    2.6493    1.0000 </r>
       <r>    7.2558    0.0000 </r>
       <r>   10.5125    0.0000 </r>
       <r>   13.3941    0.0000 </r>
       <r>   14.0128    0.0000 </r>
       <r>   14.3093    0.0000 </r>
      </set>
      <set comment="kpoint 124">
       <r>   -3.9404    1.0000 </r>
       <r>   -2.5513    1.0000 </r>
       <r>    0.5989    1.0000 </r>
       <r>    2.5688    1.0000 </r>
       <r>    7.5353    0.0000 </r>
       <r>   10.8366    0.0000 </r>
       <r>   12.8551    0.0000 </r>
       <r>   13.3707    0.0000 </r>
       <r>   14.4804    0.0000 </r>
      </set>
      <set comment="kpoint 125">
       <r>   -3.9855    1.0000 </r>
       <r>   -2.4855    1.0000 </r>
       <r>    0.6088    1.0000 </r>
       <r>    2.4297    1.0000 </r>
       <r>    7.9310    0.0000 </r>
       <r>   11.1327    0.0000 </r>
       <r>   12.3466    0.0000 </r>
       <r>   12.7345    0.0000 </r>
       <r>   14.6699    0.0000 </r>
      </set>
      <set comment="kpoint 126">
       <r>   -4.0195    1.0000 </r>
       <r>   -2.4283    1.0000 </r>
       <r>    0.6446    1.0000 </r>
       <r>    2.2618    1.0000 </r>
       <r>    8.4137    0.0000 </r>
       <r>   11.2266    0.0000 </r>
       <r>   12.0594    0.0000 </r>
       <r>   12.1127    0.0000 </r>
       <r>   14.8620    0.0000 </r>
      </set>
      <set comment="kpoint 127">
       <r>   -4.0419    1.0000 </r>
       <r>   -2.3836    1.0000 </r>
       <r>    0.7055    1.0000 </r>
       <r>    2.0903    1.0000 </r>
       <r>    8.9558    0.0000 </r>
       <r>   10.8859    0.0000 </r>
       <r>   11.5138    0.0000 </r>
       <r>   12.2316    0.0000 </r>
       <r>   15.0516    0.0000 </r>
      </set>
      <set comment="kpoint 128">
       <r>   -4.0527    1.0000 </r>
       <r>   -2.3560    1.0000 </r>
       <r>    0.7903    1.0000 </r>
       <r>    1.9348    1.0000 </r>
       <r>    9.5203    0.0000 </r>
       <r>   10.3868    0.0000 </r>
       <r>   10.9610    0.0000 </r>
       <r>   12.5898    0.0000 </r>
       <r>   15.2367    0.0000 </r>
      </set>
      <set comment="kpoint 129">
       <r>   -4.0514    1.0000 </r>
       <r>   -2.3501    1.0000 </r>
       <r>    0.8973    1.0000 </r>
       <r>    1.8098    1.0000 </r>
       <r>    9.8672    0.0000 </r>
       <r>    9.9156    0.0000 </r>
       <r>   10.6363    0.0000 </r>
       <r>   12.9985    0.0000 </r>
       <r>   15.4162    0.0000 </r>
      </set>
      <set comment="kpoint 130">
       <r>   -4.0378    1.0000 </r>
       <r>   -2.3694    1.0000 </r>
       <r>    1.0243    1.0000 </r>
       <r>    1.7245    1.0000 </r>
       <r>    9.3554    0.0000 </r>
       <r>    9.6331    0.0000 </r>
       <r>   11.0426    0.0000 </r>
       <r>   13.4315    0.0000 </r>
       <r>   15.5904    0.0000 </r>
      </set>
      <set comment="kpoint 131">
       <r>   -4.0115    1.0000 </r>
       <r>   -2.4157    1.0000 </r>
       <r>    1.1685    1.0000 </r>
       <r>    1.6838    1.0000 </r>
       <r>    8.8623    0.0000 </r>
       <r>    9.1510    0.0000 </r>
       <r>   11.6980    0.0000 </r>
       <r>   13.8795    0.0000 </r>
       <r>   15.7601    0.0000 </r>
      </set>
      <set comment="kpoint 132">
       <r>   -3.9724    1.0000 </r>
       <r>   -2.4881    1.0000 </r>
       <r>    1.3260    1.0000 </r>
       <r>    1.6873    1.0000 </r>
       <r>    8.3950    0.0000 </r>
       <r>    8.6683    0.0000 </r>
       <r>   12.4016    0.0000 </r>
       <r>   14.3365    0.0000 </r>
       <r>   15.9276    0.0000 </r>
      </set>
      <set comment="kpoint 133">
       <r>   -3.9204    1.0000 </r>
       <r>   -2.5834    1.0000 </r>
       <r>    1.4918    1.0000 </r>
       <r>    1.7305    1.0000 </r>
       <r>    7.9607    0.0000 </r>
       <r>    8.2111    0.0000 </r>
       <r>   13.1263    0.0000 </r>
       <r>   14.7961    0.0000 </r>
       <r>   16.0971    0.0000 </r>
      </set>
      <set comment="kpoint 134">
       <r>   -3.8555    1.0000 </r>
       <r>   -2.6967    1.0000 </r>
       <r>    1.6593    1.0000 </r>
       <r>    1.8049    1.0000 </r>
       <r>    7.5671    0.0000 </r>
       <r>    7.7901    0.0000 </r>
       <r>   13.8607    0.0000 </r>
       <r>   15.2478    0.0000 </r>
       <r>   16.2761    0.0000 </r>
      </set>
      <set comment="kpoint 135">
       <r>   -3.7779    1.0000 </r>
       <r>   -2.8226    1.0000 </r>
       <r>    1.8201    1.0000 </r>
       <r>    1.8989    1.0000 </r>
       <r>    7.2239    0.0000 </r>
       <r>    7.4147    0.0000 </r>
       <r>   14.5938    0.0000 </r>
       <r>   15.6717    0.0000 </r>
       <r>   16.4786    0.0000 </r>
      </set>
      <set comment="kpoint 136">
       <r>   -3.6881    1.0000 </r>
       <r>   -2.9556    1.0000 </r>
       <r>    1.9636    1.0000 </r>
       <r>    1.9988    1.0000 </r>
       <r>    6.9427    0.0000 </r>
       <r>    7.0953    0.0000 </r>
       <r>   15.3065    0.0000 </r>
       <r>   16.0345    0.0000 </r>
       <r>   16.7277    0.0000 </r>
      </set>
      <set comment="kpoint 137">
       <r>   -3.5866    1.0000 </r>
       <r>   -3.0909    1.0000 </r>
       <r>    2.0777    1.0000 </r>
       <r>    2.0887    1.0000 </r>
       <r>    6.7366    0.0000 </r>
       <r>    6.8442    0.0000 </r>
       <r>   15.9553    0.0000 </r>
       <r>   16.3062    0.0000 </r>
       <r>   17.0278    0.0000 </r>
      </set>
      <set comment="kpoint 138">
       <r>   -3.4745    1.0000 </r>
       <r>   -3.2245    1.0000 </r>
       <r>    2.1510    1.0000 </r>
       <r>    2.1524    1.0000 </r>
       <r>    6.6184    0.0000 </r>
       <r>    6.6743    0.0000 </r>
       <r>   16.4255    0.0000 </r>
       <r>   16.4897    0.0000 </r>
       <r>   17.3096    0.0000 </r>
      </set>
      <set comment="kpoint 139">
       <r>   -3.3532    1.0000 </r>
       <r>   -3.3532    1.0000 </r>
       <r>    2.1759    1.0000 </r>
       <r>    2.1759    1.0000 </r>
       <r>    6.5971    0.0000 </r>
       <r>    6.5971    0.0000 </r>
       <r>   16.5703    0.0000 </r>
       <r>   16.5747    0.0000 </r>
       <r>   17.4288    0.0000 </r>
      </set>
     </set>
    </set>
   </array>
  </eigenvalues>
  <separator name="orbital magnetization" >
   <v name="MAGDIPOLOUT">      0.00000000      0.00000000      0.00000000</v>
  </separator>
  <dos>
   <i name="efermi">      5.50408370 </i>
   <total>
    <array>
     <dimension dim="1">gridpoints</dimension>
     <dimension dim="2">spin</dimension>
     <field>energy</field>
     <field>total</field>
     <field>integrated</field>
     <set>
      <set comment="spin 1">
       <r>    -9.1926     0.0000     0.0000 </r>
       <r>    -9.0972     0.0000     0.0000 </r>
       <r>    -9.0018     0.0000     0.0000 </r>
       <r>    -8.9064     0.0000     0.0000 </r>
       <r>    -8.8110     0.0000     0.0000 </r>
       <r>    -8.7156     0.0000     0.0000 </r>
       <r>    -8.6202     0.0000     0.0000 </r>
       <r>    -8.5248     0.0000     0.0000 </r>
       <r>    -8.4294     0.0000     0.0000 </r>
       <r>    -8.3340     0.0000     0.0000 </r>
       <r>    -8.2386     0.0000     0.0000 </r>
       <r>    -8.1432     0.0000     0.0000 </r>
       <r>    -8.0479     0.0000     0.0000 </r>
       <r>    -7.9525     0.0018     0.0002 </r>
       <r>    -7.8571     0.0325     0.0033 </r>
       <r>    -7.7617     0.0082     0.0040 </r>
       <r>    -7.6663     0.1793     0.0211 </r>
       <r>    -7.5709     0.3297     0.0526 </r>
       <r>    -7.4755     0.0627     0.0586 </r>
       <r>    -7.3801     0.0073     0.0593 </r>
       <r>    -7.2847     0.3360     0.0913 </r>
       <r>    -7.1893     0.1492     0.1056 </r>
       <r>    -7.0939     0.3838     0.1422 </r>
       <r>    -6.9985     0.8301     0.2214 </r>
       <r>    -6.9031     0.0952     0.2305 </r>
       <r>    -6.8077     0.0010     0.2305 </r>
       <r>    -6.7123     0.1207     0.2421 </r>
       <r>    -6.6169     0.1296     0.2544 </r>
       <r>    -6.5215     0.5805     0.3098 </r>
       <r>    -6.4262     1.0574     0.4107 </r>
       <r>    -6.3308     0.3214     0.4413 </r>
       <r>    -6.2354     0.1251     0.4533 </r>
       <r>    -6.1400     0.8009     0.5297 </r>
       <r>    -6.0446     0.2312     0.5517 </r>
       <r>    -5.9492     0.5036     0.5998 </r>
       <r>    -5.8538     0.6233     0.6592 </r>
       <r>    -5.7584     0.0113     0.6603 </r>
       <r>    -5.6630     0.2409     0.6833 </r>
       <r>    -5.5676     0.3593     0.7176 </r>
       <r>    -5.4722     1.7900     0.8883 </r>
       <r>    -5.3768     1.0874     0.9920 </r>
       <r>    -5.2814     0.4844     1.0383 </r>
       <r>    -5.1860     0.8476     1.1191 </r>
       <r>    -5.0906     0.2072     1.1389 </r>
       <r>    -4.9952     0.7865     1.2139 </r>
       <r>    -4.8998     0.7634     1.2867 </r>
       <r>    -4.8045     0.3526     1.3204 </r>
       <r>    -4.7091     1.2402     1.4387 </r>
       <r>    -4.6137     0.5972     1.4956 </r>
       <r>    -4.5183     0.2013     1.5148 </r>
       <r>    -4.4229     0.7552     1.5869 </r>
       <r>    -4.3275     0.1890     1.6049 </r>
       <r>    -4.2321     0.7819     1.6795 </r>
       <r>    -4.1367     0.3916     1.7169 </r>
       <r>    -4.0413     1.5419     1.8639 </r>
       <r>    -3.9459     0.0750     1.8711 </r>
       <r>    -3.8505     0.0856     1.8793 </r>
       <r>    -3.7551     0.3865     1.9161 </r>
       <r>    -3.6597     0.0192     1.9180 </r>
       <r>    -3.5643     0.0000     1.9180 </r>
       <r>    -3.4689     0.0001     1.9180 </r>
       <r>    -3.3735     0.0709     1.9247 </r>
       <r>    -3.2781     0.5725     1.9794 </r>
       <r>    -3.1828     0.8008     2.0557 </r>
       <r>    -3.0874     0.2731     2.0818 </r>
       <r>    -2.9920     0.0024     2.0820 </r>
       <r>    -2.8966     0.0000     2.0820 </r>
       <r>    -2.8012     0.0009     2.0821 </r>
       <r>    -2.7058     0.2023     2.1014 </r>
       <r>    -2.6104     0.2850     2.1286 </r>
       <r>    -2.5150     0.0033     2.1289 </r>
       <r>    -2.4196     0.2015     2.1481 </r>
       <r>    -2.3242     1.7959     2.3195 </r>
       <r>    -2.2288     1.0600     2.4206 </r>
       <r>    -2.1334     1.3663     2.5509 </r>
       <r>    -2.0380     1.1025     2.6561 </r>
       <r>    -1.9426     1.3054     2.7806 </r>
       <r>    -1.8472     0.2145     2.8011 </r>
       <r>    -1.7518     0.6512     2.8632 </r>
       <r>    -1.6564     1.2703     2.9844 </r>
       <r>    -1.5610     0.0410     2.9883 </r>
       <r>    -1.4657     0.0000     2.9883 </r>
       <r>    -1.3703     0.0353     2.9917 </r>
       <r>    -1.2749     0.8161     3.0695 </r>
       <r>    -1.1795     0.7953     3.1454 </r>
       <r>    -1.0841     1.6249     3.3004 </r>
       <r>    -0.9887     0.2458     3.3238 </r>
       <r>    -0.8933     0.0042     3.3242 </r>
       <r>    -0.7979     0.0571     3.3297 </r>
       <r>    -0.7025     0.4017     3.3680 </r>
       <r>    -0.6071     0.0366     3.3715 </r>
       <r>    -0.5117     0.5100     3.4201 </r>
       <r>    -0.4163     0.4658     3.4646 </r>
       <r>    -0.3209     0.0029     3.4648 </r>
       <r>    -0.2255     0.0412     3.4688 </r>
       <r>    -0.1301     0.7783     3.5430 </r>
       <r>    -0.0347     0.1630     3.5586 </r>
       <r>     0.0607     0.0001     3.5586 </r>
       <r>     0.1560     0.0485     3.5632 </r>
       <r>     0.2514     0.7892     3.6385 </r>
       <r>     0.3468     0.1450     3.6523 </r>
       <r>     0.4422     0.0004     3.6524 </r>
       <r>     0.5376     0.2213     3.6735 </r>
       <r>     0.6330     0.8545     3.7550 </r>
       <r>     0.7284     0.7709     3.8285 </r>
       <r>     0.8238     0.6095     3.8867 </r>
       <r>     0.9192     1.0284     3.9848 </r>
       <r>     1.0146     1.9294     4.1688 </r>
       <r>     1.1100     0.3841     4.2055 </r>
       <r>     1.2054     0.4318     4.2467 </r>
       <r>     1.3008     0.4296     4.2876 </r>
       <r>     1.3962     0.1397     4.3010 </r>
       <r>     1.4916     0.7298     4.3706 </r>
       <r>     1.5870     1.8876     4.5507 </r>
       <r>     1.6824     2.4093     4.7805 </r>
       <r>     1.7777     2.5831     5.0269 </r>
       <r>     1.8731     0.4132     5.0663 </r>
       <r>     1.9685     0.0010     5.0664 </r>
       <r>     2.0639     0.2469     5.0900 </r>
       <r>     2.1593     1.6781     5.2501 </r>
       <r>     2.2547     0.3228     5.2808 </r>
       <r>     2.3501     1.4961     5.4236 </r>
       <r>     2.4455     2.8399     5.6945 </r>
       <r>     2.5409     1.3222     5.8206 </r>
       <r>     2.6363     0.8291     5.8997 </r>
       <r>     2.7317     0.8464     5.9804 </r>
       <r>     2.8271     1.0571     6.0813 </r>
       <r>     2.9225     2.6735     6.3363 </r>
       <r>     3.0179     1.1284     6.4440 </r>
       <r>     3.1133     0.0619     6.4499 </r>
       <r>     3.2087     1.2867     6.5726 </r>
       <r>     3.3041     2.3684     6.7985 </r>
       <r>     3.3994     0.7432     6.8694 </r>
       <r>     3.4948     0.0660     6.8757 </r>
       <r>     3.5902     1.9115     7.0581 </r>
       <r>     3.6856     0.8644     7.1405 </r>
       <r>     3.7810     0.8415     7.2208 </r>
       <r>     3.8764     1.6432     7.3776 </r>
       <r>     3.9718     1.9285     7.5615 </r>
       <r>     4.0672     0.7240     7.6306 </r>
       <r>     4.1626     0.4626     7.6747 </r>
       <r>     4.2580     0.0113     7.6758 </r>
       <r>     4.3534     0.0317     7.6788 </r>
       <r>     4.4488     1.3621     7.8087 </r>
       <r>     4.5442     0.7317     7.8785 </r>
       <r>     4.6396     0.0038     7.8789 </r>
       <r>     4.7350     0.0000     7.8789 </r>
       <r>     4.8304     0.0006     7.8790 </r>
       <r>     4.9258     0.2833     7.9060 </r>
       <r>     5.0212     0.8316     7.9853 </r>
       <r>     5.1165     0.0311     7.9883 </r>
       <r>     5.2119     0.0149     7.9897 </r>
       <r>     5.3073     0.1002     7.9993 </r>
       <r>     5.4027     0.0077     8.0000 </r>
       <r>     5.4981     0.0000     8.0000 </r>
       <r>     5.5935     0.0000     8.0000 </r>
       <r>     5.6889     0.0000     8.0000 </r>
       <r>     5.7843     0.0000     8.0000 </r>
       <r>     5.8797     0.0000     8.0000 </r>
       <r>     5.9751     0.0000     8.0000 </r>
       <r>     6.0705     0.0000     8.0000 </r>
       <r>     6.1659     0.0000     8.0000 </r>
       <r>     6.2613     0.0000     8.0000 </r>
       <r>     6.3567     0.0000     8.0000 </r>
       <r>     6.4521     0.0397     8.0038 </r>
       <r>     6.5475     0.2150     8.0243 </r>
       <r>     6.6429     0.2127     8.0446 </r>
       <r>     6.7382     0.0993     8.0541 </r>
       <r>     6.8336     0.8072     8.1311 </r>
       <r>     6.9290     0.1007     8.1407 </r>
       <r>     7.0244     0.1108     8.1512 </r>
       <r>     7.1198     0.3839     8.1879 </r>
       <r>     7.2152     0.3697     8.2231 </r>
       <r>     7.3106     0.7990     8.2993 </r>
       <r>     7.4060     0.2164     8.3200 </r>
       <r>     7.5014     1.1025     8.4252 </r>
       <r>     7.5968     0.4065     8.4639 </r>
       <r>     7.6922     0.0521     8.4689 </r>
       <r>     7.7876     0.4097     8.5080 </r>
       <r>     7.8830     1.6461     8.6650 </r>
       <r>     7.9784     2.2127     8.8761 </r>
       <r>     8.0738     0.6093     8.9342 </r>
       <r>     8.1692     1.7362     9.0998 </r>
       <r>     8.2646     0.9386     9.1894 </r>
       <r>     8.3599     2.1153     9.3912 </r>
       <r>     8.4553     2.0700     9.5886 </r>
       <r>     8.5507     0.4929     9.6357 </r>
       <r>     8.6461     0.8240     9.7143 </r>
       <r>     8.7415     1.1526     9.8242 </r>
       <r>     8.8369     0.7561     9.8963 </r>
       <r>     8.9323     2.9835    10.1810 </r>
       <r>     9.0277     0.8348    10.2606 </r>
       <r>     9.1231     1.8489    10.4370 </r>
       <r>     9.2185     1.3084    10.5618 </r>
       <r>     9.3139     0.3363    10.5939 </r>
       <r>     9.4093     0.4674    10.6384 </r>
       <r>     9.5047     0.5114    10.6872 </r>
       <r>     9.6001     3.0957    10.9825 </r>
       <r>     9.6955     2.2978    11.2017 </r>
       <r>     9.7909     2.2683    11.4181 </r>
       <r>     9.8863     1.1680    11.5295 </r>
       <r>     9.9816     1.5875    11.6810 </r>
       <r>    10.0770     0.8830    11.7652 </r>
       <r>    10.1724     0.2713    11.7911 </r>
       <r>    10.2678     1.8136    11.9641 </r>
       <r>    10.3632     2.1990    12.1739 </r>
       <r>    10.4586     0.8754    12.2574 </r>
       <r>    10.5540     1.1521    12.3673 </r>
       <r>    10.6494     2.3338    12.5899 </r>
       <r>    10.7448     0.6466    12.6516 </r>
       <r>    10.8402     0.5165    12.7009 </r>
       <r>    10.9356     0.6450    12.7624 </r>
       <r>    11.0310     0.4102    12.8015 </r>
       <r>    11.1264     0.5527    12.8543 </r>
       <r>    11.2218     2.2206    13.0661 </r>
       <r>    11.3172     0.3402    13.0986 </r>
       <r>    11.4126     1.2335    13.2162 </r>
       <r>    11.5080     1.5832    13.3673 </r>
       <r>    11.6034     1.2866    13.4900 </r>
       <r>    11.6987     2.4403    13.7228 </r>
       <r>    11.7941     0.6935    13.7889 </r>
       <r>    11.8895     0.3998    13.8271 </r>
       <r>    11.9849     1.8727    14.0057 </r>
       <r>    12.0803     0.6252    14.0654 </r>
       <r>    12.1757     3.5419    14.4033 </r>
       <r>    12.2711     0.9571    14.4946 </r>
       <r>    12.3665     0.4105    14.5337 </r>
       <r>    12.4619     0.6264    14.5935 </r>
       <r>    12.5573     1.5829    14.7445 </r>
       <r>    12.6527     0.7224    14.8134 </r>
       <r>    12.7481     1.2198    14.9297 </r>
       <r>    12.8435     0.0813    14.9375 </r>
       <r>    12.9389     0.0000    14.9375 </r>
       <r>    13.0343     0.0356    14.9409 </r>
       <r>    13.1297     0.2796    14.9676 </r>
       <r>    13.2251     0.7353    15.0377 </r>
       <r>    13.3204     1.3414    15.1657 </r>
       <r>    13.4158     0.8888    15.2505 </r>
       <r>    13.5112     0.4488    15.2933 </r>
       <r>    13.6066     0.5450    15.3453 </r>
       <r>    13.7020     2.3026    15.5649 </r>
       <r>    13.7974     2.4371    15.7974 </r>
       <r>    13.8928     0.4559    15.8409 </r>
       <r>    13.9882     0.1145    15.8518 </r>
       <r>    14.0836     1.0831    15.9551 </r>
       <r>    14.1790     2.0192    16.1478 </r>
       <r>    14.2744     1.7400    16.3137 </r>
       <r>    14.3698     2.2702    16.5303 </r>
       <r>    14.4652     1.2217    16.6469 </r>
       <r>    14.5606     0.4293    16.6878 </r>
       <r>    14.6560     1.2652    16.8085 </r>
       <r>    14.7514     2.0811    17.0070 </r>
       <r>    14.8468     0.7077    17.0745 </r>
       <r>    14.9421     0.2298    17.0965 </r>
       <r>    15.0375     0.0943    17.1055 </r>
       <r>    15.1329     0.0084    17.1062 </r>
       <r>    15.2283     0.6009    17.1636 </r>
       <r>    15.3237     0.7398    17.2341 </r>
       <r>    15.4191     1.5302    17.3801 </r>
       <r>    15.5145     0.0824    17.3880 </r>
       <r>    15.6099     0.6609    17.4510 </r>
       <r>    15.7053     0.3080    17.4804 </r>
       <r>    15.8007     0.0007    17.4805 </r>
       <r>    15.8961     0.0000    17.4805 </r>
       <r>    15.9915     0.0000    17.4805 </r>
       <r>    16.0869     0.0000    17.4805 </r>
       <r>    16.1823     0.0000    17.4805 </r>
       <r>    16.2777     0.0002    17.4805 </r>
       <r>    16.3731     0.1982    17.4994 </r>
       <r>    16.4685     0.7569    17.5716 </r>
       <r>    16.5638     0.7872    17.6467 </r>
       <r>    16.6592     1.4154    17.7817 </r>
       <r>    16.7546     0.0361    17.7852 </r>
       <r>    16.8500     0.0644    17.7913 </r>
       <r>    16.9454     0.1870    17.8091 </r>
       <r>    17.0408     0.5713    17.8637 </r>
       <r>    17.1362     0.4091    17.9027 </r>
       <r>    17.2316     0.8097    17.9799 </r>
       <r>    17.3270     0.0879    17.9883 </r>
       <r>    17.4224     0.0524    17.9933 </r>
       <r>    17.5178     0.0695    17.9999 </r>
       <r>    17.6132     0.0007    18.0000 </r>
       <r>    17.7086     0.0000    18.0000 </r>
       <r>    17.8040     0.0000    18.0000 </r>
       <r>    17.8994     0.0000    18.0000 </r>
       <r>    17.9948     0.0000    18.0000 </r>
       <r>    18.0902     0.0000    18.0000 </r>
       <r>    18.1855     0.0000    18.0000 </r>
       <r>    18.2809     0.0000    18.0000 </r>
       <r>    18.3763     0.0000    18.0000 </r>
       <r>    18.4717     0.0000    18.0000 </r>
       <r>    18.5671     0.0000    18.0000 </r>
       <r>    18.6625     0.0000    18.0000 </r>
       <r>    18.7579     0.0000    18.0000 </r>
       <r>    18.8533     0.0000    18.0000 </r>
       <r>    18.9487     0.0000    18.0000 </r>
       <r>    19.0441     0.0000    18.0000 </r>
       <r>    19.1395     0.0000    18.0000 </r>
       <r>    19.2349     0.0000    18.0000 </r>
       <r>    19.3303     0.0000    18.0000 </r>
       <r>    19.4257     0.0000    18.0000 </r>
      </set>
     </set>
    </array>
   </total>
   <partial>
    <array>
     <dimension dim="1">gridpoints</dimension>
     <dimension dim="2">spin</dimension>
     <dimension dim="3">ion</dimension>
     <field>energy</field>
     <field>    s</field>
     <field>   py</field>
     <field>   pz</field>
     <field>   px</field>
     <field>  dxy</field>
     <field>  dyz</field>
     <field>  dz2</field>
     <field>  dxz</field>
     <field>x2-y2</field>
     <set>
      <set comment="ion 1">
       <set comment="spin 1">
        <r>    -9.1926     0.0000     0.0000     0.0000     0.0000     0.0000     0.0000     0.0000     0.0000     0.0000 </r>
        <r>    -9.0972     0.0000     0.0000     0.0000     0.0000     0.0000     0.0000     0.0000     0.0000     0.0000 </r>
        <r>    -9.0018     0.0000     0.0000     0.0000     0.0000     0.0000     0.0000     0.0000     0.0000     0.0000 </r>
        <r>    -8.9064     0.0000     0.0000     0.0000     0.0000     0.0000     0.0000     0.0000     0.0000     0.0000 </r>
        <r>    -8.8110     0.0000     0.0000     0.0000     0.0000     0.0000     0.0000     0.0000     0.0000     0.0000 </r>
        <r>    -8.7156     0.0000     0.0000     0.0000     0.0000     0.0000     0.0000     0.0000     0.0000     0.0000 </r>
        <r>    -8.6202     0.0000     0.0000     0.0000     0.0000     0.0000     0.0000     0.0000     0.0000     0.0000 </r>
        <r>    -8.5248     0.0000     0.0000     0.0000     0.0000     0.0000     0.0000     0.0000     0.0000     0.0000 </r>
        <r>    -8.4294     0.0000     0.0000     0.0000     0.0000     0.0000     0.0000     0.0000     0.0000     0.0000 </r>
        <r>    -8.3340     0.0000     0.0000     0.0000     0.0000     0.0000     0.0000     0.0000     0.0000     0.0000 </r>
        <r>    -8.2386     0.0000     0.0000     0.0000     0.0000     0.0000     0.0000     0.0000     0.0000     0.0000 </r>
        <r>    -8.1432     0.0000     0.0000     0.0000     0.0000     0.0000     0.0000     0.0000     0.0000     0.0000 </r>
        <r>    -8.0479     0.0000     0.0000     0.0000     0.0000     0.0000     0.0000     0.0000     0.0000     0.0000 </r>
        <r>    -7.9525     0.0004     0.0000     0.0000     0.0000     0.0000     0.0000     0.0000     0.0000     0.0000 </r>
        <r>    -7.8571     0.0071     0.0000     0.0000     0.0000     0.0000     0.0000     0.0000     0.0000     0.0000 </r>
        <r>    -7.7617     0.0018     0.0000     0.0000     0.0000     0.0000     0.0000     0.0000     0.0000     0.0000 </r>
        <r>    -7.6663     0.0389     0.0001     0.0001     0.0001     0.0000     0.0000     0.0000     0.0000     0.0000 </r>
        <r>    -7.5709     0.0715     0.0001     0.0006     0.0001     0.0000     0.0000     0.0000     0.0000     0.0000 </r>
        <r>    -7.4755     0.0136     0.0000     0.0002     0.0000     0.0000     0.0000     0.0000     0.0000     0.0000 </r>
        <r>    -7.3801     0.0016     0.0000     0.0000     0.0000     0.0000     0.0000     0.0000     0.0000     0.0000 </r>
        <r>    -7.2847     0.0724     0.0009     0.0000     0.0009     0.0000     0.0000     0.0000     0.0000     0.0000 </r>
        <r>    -7.1893     0.0322     0.0004     0.0000     0.0004     0.0000     0.0000     0.0000     0.0000     0.0000 </r>
        <r>    -7.0939     0.0824     0.0003     0.0024     0.0003     0.0000     0.0000     0.0000     0.0000     0.0000 </r>
        <r>    -6.9985     0.1783     0.0010     0.0045     0.0010     0.0000     0.0000     0.0000     0.0000     0.0000 </r>
        <r>    -6.9031     0.0205     0.0002     0.0003     0.0002     0.0000     0.0000     0.0000     0.0000     0.0000 </r>
        <r>    -6.8077     0.0002     0.0000     0.0000     0.0000     0.0000     0.0000     0.0000     0.0000     0.0000 </r>
        <r>    -6.7123     0.0256     0.0000     0.0014     0.0000     0.0000     0.0000     0.0000     0.0000     0.0000 </r>
        <r>    -6.6169     0.0275     0.0000     0.0015     0.0000     0.0000     0.0000     0.0000     0.0000     0.0000 </r>
        <r>    -6.5215     0.1242     0.0032     0.0007     0.0032     0.0000     0.0000     0.0000     0.0000     0.0000 </r>
        <r>    -6.4262     0.2254     0.0037     0.0076     0.0026     0.0000     0.0000     0.0000     0.0000     0.0000 </r>
        <r>    -6.3308     0.0683     0.0007     0.0035     0.0002     0.0000     0.0000     0.0000     0.0000     0.0000 </r>
        <r>    -6.2354     0.0268     0.0003     0.0013     0.0003     0.0000     0.0000     0.0000     0.0000     0.0000 </r>
        <r>    -6.1400     0.1715     0.0019     0.0080     0.0019     0.0000     0.0000     0.0000     0.0000     0.0000 </r>
        <r>    -6.0446     0.0500     0.0010     0.0014     0.0010     0.0000     0.0000     0.0000     0.0000     0.0000 </r>
        <r>    -5.9492     0.1069     0.0010     0.0068     0.0010     0.0000     0.0000     0.0000     0.0000     0.0000 </r>
        <r>    -5.8538     0.1310     0.0004     0.0109     0.0004     0.0000     0.0000     0.0000     0.0000     0.0000 </r>
        <r>    -5.7584     0.0024     0.0000     0.0002     0.0000     0.0000     0.0000     0.0000     0.0000     0.0000 </r>
        <r>    -5.6630     0.0514     0.0020     0.0006     0.0020     0.0000     0.0000     0.0000     0.0000     0.0000 </r>
        <r>    -5.5676     0.0773     0.0028     0.0010     0.0028     0.0000     0.0000     0.0000     0.0000     0.0000 </r>
        <r>    -5.4722     0.3871     0.0093     0.0169     0.0080     0.0000     0.0000     0.0000     0.0000     0.0000 </r>
        <r>    -5.3768     0.2334     0.0043     0.0145     0.0031     0.0000     0.0000     0.0000     0.0000     0.0000 </r>
        <r>    -5.2814     0.1071     0.0016     0.0058     0.0016     0.0000     0.0000     0.0000     0.0000     0.0000 </r>
        <r>    -5.1860     0.1874     0.0028     0.0101     0.0028     0.0000     0.0000     0.0000     0.0000     0.0000 </r>
        <r>    -5.0906     0.0435     0.0003     0.0046     0.0004     0.0000     0.0000     0.0000     0.0000     0.0000 </r>
        <r>    -4.9952     0.1639     0.0010     0.0186     0.0012     0.0000     0.0000     0.0000     0.0000     0.0000 </r>
        <r>    -4.8998     0.1631     0.0017     0.0155     0.0018     0.0000     0.0000     0.0000     0.0000     0.0000 </r>
        <r>    -4.8045     0.0766     0.0009     0.0058     0.0017     0.0000     0.0000     0.0000     0.0000     0.0000 </r>
        <r>    -4.7091     0.2751     0.0058     0.0114     0.0107     0.0000     0.0000     0.0000     0.0000     0.0000 </r>
        <r>    -4.6137     0.1314     0.0042     0.0054     0.0046     0.0000     0.0000     0.0000     0.0000     0.0000 </r>
        <r>    -4.5183     0.0433     0.0008     0.0016     0.0032     0.0000     0.0000     0.0000     0.0000     0.0000 </r>
        <r>    -4.4229     0.1622     0.0028     0.0061     0.0123     0.0000     0.0000     0.0000     0.0000     0.0000 </r>
        <r>    -4.3275     0.0389     0.0002     0.0055     0.0006     0.0000     0.0000     0.0000     0.0000     0.0000 </r>
        <r>    -4.2321     0.1595     0.0006     0.0258     0.0006     0.0000     0.0000     0.0000     0.0000     0.0000 </r>
        <r>    -4.1367     0.0832     0.0005     0.0095     0.0026     0.0000     0.0000     0.0000     0.0000     0.0000 </r>
        <r>    -4.0413     0.3294     0.0021     0.0356     0.0113     0.0000     0.0000     0.0000     0.0000     0.0000 </r>
        <r>    -3.9459     0.0160     0.0001     0.0017     0.0006     0.0000     0.0000     0.0000     0.0000     0.0000 </r>
        <r>    -3.8505     0.0185     0.0004     0.0020     0.0004     0.0000     0.0000     0.0000     0.0000     0.0000 </r>
        <r>    -3.7551     0.0836     0.0019     0.0090     0.0019     0.0000     0.0000     0.0000     0.0000     0.0000 </r>
        <r>    -3.6597     0.0042     0.0001     0.0004     0.0001     0.0000     0.0000     0.0000     0.0000     0.0000 </r>
        <r>    -3.5643     0.0000     0.0000     0.0000     0.0000     0.0000     0.0000     0.0000     0.0000     0.0000 </r>
        <r>    -3.4689     0.0000     0.0000     0.0000     0.0000     0.0000     0.0000     0.0000     0.0000     0.0000 </r>
        <r>    -3.3735     0.0140     0.0000     0.0032     0.0000     0.0000     0.0000     0.0000     0.0000     0.0000 </r>
        <r>    -3.2781     0.1145     0.0000     0.0235     0.0020     0.0000     0.0000     0.0000     0.0000     0.0000 </r>
        <r>    -3.1828     0.1626     0.0000     0.0274     0.0075     0.0000     0.0000     0.0000     0.0000     0.0000 </r>
        <r>    -3.0874     0.0566     0.0000     0.0059     0.0057     0.0000     0.0000     0.0000     0.0000     0.0000 </r>
        <r>    -2.9920     0.0005     0.0000     0.0001     0.0001     0.0000     0.0000     0.0000     0.0000     0.0000 </r>
        <r>    -2.8966     0.0000     0.0000     0.0000     0.0000     0.0000     0.0000     0.0000     0.0000     0.0000 </r>
        <r>    -2.8012     0.0002     0.0000     0.0000     0.0000     0.0000     0.0000     0.0000     0.0000     0.0000 </r>
        <r>    -2.7058     0.0377     0.0012     0.0089     0.0012     0.0000     0.0000     0.0000     0.0000     0.0000 </r>
        <r>    -2.6104     0.0531     0.0017     0.0125     0.0017     0.0000     0.0000     0.0000     0.0000     0.0000 </r>
        <r>    -2.5150     0.0006     0.0000     0.0001     0.0000     0.0000     0.0000     0.0000     0.0000     0.0000 </r>
        <r>    -2.4196     0.0369     0.0012     0.0071     0.0038     0.0000     0.0000     0.0000     0.0000     0.0000 </r>
        <r>    -2.3242     0.3243     0.0117     0.0635     0.0339     0.0000     0.0000     0.0000     0.0000     0.0000 </r>
        <r>    -2.2288     0.1955     0.0053     0.0497     0.0083     0.0000     0.0000     0.0000     0.0000     0.0000 </r>
        <r>    -2.1334     0.1858     0.0294     0.0442     0.0369     0.0000     0.0000     0.0000     0.0000     0.0000 </r>
        <r>    -2.0380     0.1461     0.0266     0.0369     0.0279     0.0000     0.0000     0.0000     0.0000     0.0000 </r>
        <r>    -1.9426     0.2210     0.0147     0.0481     0.0266     0.0000     0.0000     0.0000     0.0000     0.0000 </r>
        <r>    -1.8472     0.0387     0.0014     0.0077     0.0047     0.0000     0.0000     0.0000     0.0000     0.0000 </r>
        <r>    -1.7518     0.0961     0.0140     0.0238     0.0140     0.0000     0.0000     0.0000     0.0000     0.0000 </r>
        <r>    -1.6564     0.1698     0.0311     0.0458     0.0311     0.0000     0.0000     0.0000     0.0000     0.0000 </r>
        <r>    -1.5610     0.0050     0.0011     0.0015     0.0011     0.0000     0.0000     0.0000     0.0000     0.0000 </r>
        <r>    -1.4657     0.0000     0.0000     0.0000     0.0000     0.0000     0.0000     0.0000     0.0000     0.0000 </r>
        <r>    -1.3703     0.0065     0.0001     0.0018     0.0005     0.0000     0.0000     0.0000     0.0000     0.0000 </r>
        <r>    -1.2749     0.1460     0.0037     0.0412     0.0124     0.0000     0.0000     0.0000     0.0000     0.0000 </r>
        <r>    -1.1795     0.1135     0.0157     0.0293     0.0228     0.0000     0.0000     0.0000     0.0000     0.0000 </r>
        <r>    -1.0841     0.2410     0.0295     0.0552     0.0517     0.0000     0.0000     0.0000     0.0000     0.0000 </r>
        <r>    -0.9887     0.0422     0.0014     0.0144     0.0025     0.0000     0.0000     0.0000     0.0000     0.0000 </r>
        <r>    -0.8933     0.0008     0.0000     0.0003     0.0000     0.0000     0.0000     0.0000     0.0000     0.0000 </r>
        <r>    -0.7979     0.0089     0.0013     0.0022     0.0013     0.0000     0.0000     0.0000     0.0000     0.0000 </r>
        <r>    -0.7025     0.0625     0.0091     0.0157     0.0091     0.0000     0.0000     0.0000     0.0000     0.0000 </r>
        <r>    -0.6071     0.0055     0.0009     0.0014     0.0009     0.0000     0.0000     0.0000     0.0000     0.0000 </r>
        <r>    -0.5117     0.0607     0.0165     0.0180     0.0165     0.0000     0.0000     0.0000     0.0000     0.0000 </r>
        <r>    -0.4163     0.0554     0.0151     0.0164     0.0151     0.0000     0.0000     0.0000     0.0000     0.0000 </r>
        <r>    -0.3209     0.0003     0.0001     0.0001     0.0001     0.0000     0.0000     0.0000     0.0000     0.0000 </r>
        <r>    -0.2255     0.0067     0.0005     0.0026     0.0005     0.0000     0.0000     0.0000     0.0000     0.0000 </r>
        <r>    -0.1301     0.1267     0.0088     0.0495     0.0088     0.0000     0.0000     0.0000     0.0000     0.0000 </r>
        <r>    -0.0347     0.0265     0.0018     0.0104     0.0018     0.0000     0.0000     0.0000     0.0000     0.0000 </r>
        <r>     0.0607     0.0000     0.0000     0.0000     0.0000     0.0000     0.0000     0.0000     0.0000     0.0000 </r>
        <r>     0.1560     0.0057     0.0017     0.0019     0.0017     0.0000     0.0000     0.0000     0.0000     0.0000 </r>
        <r>     0.2514     0.0922     0.0271     0.0302     0.0271     0.0000     0.0000     0.0000     0.0000     0.0000 </r>
        <r>     0.3468     0.0169     0.0050     0.0055     0.0050     0.0000     0.0000     0.0000     0.0000     0.0000 </r>
        <r>     0.4422     0.0000     0.0000     0.0000     0.0000     0.0000     0.0000     0.0000     0.0000     0.0000 </r>
        <r>     0.5376     0.0317     0.0043     0.0120     0.0060     0.0000     0.0000     0.0000     0.0000     0.0000 </r>
        <r>     0.6330     0.1055     0.0209     0.0450     0.0266     0.0000     0.0000     0.0000     0.0000     0.0000 </r>
        <r>     0.7284     0.0059     0.0415     0.0430     0.0345     0.0000     0.0000     0.0000     0.0000     0.0000 </r>
        <r>     0.8238     0.0035     0.0323     0.0410     0.0212     0.0000     0.0000     0.0000     0.0000     0.0000 </r>
        <r>     0.9192     0.0076     0.0592     0.0460     0.0564     0.0000     0.0000     0.0000     0.0000     0.0000 </r>
        <r>     1.0146     0.0431     0.0942     0.1052     0.0916     0.0000     0.0000     0.0000     0.0000     0.0000 </r>
        <r>     1.1100     0.0150     0.0174     0.0223     0.0157     0.0000     0.0000     0.0000     0.0000     0.0000 </r>
        <r>     1.2054     0.0004     0.0297     0.0211     0.0195     0.0000     0.0000     0.0000     0.0000     0.0000 </r>
        <r>     1.3008     0.0050     0.0165     0.0351     0.0158     0.0000     0.0000     0.0000     0.0000     0.0000 </r>
        <r>     1.3962     0.0129     0.0023     0.0130     0.0023     0.0000     0.0000     0.0000     0.0000     0.0000 </r>
        <r>     1.4916     0.0385     0.0265     0.0515     0.0270     0.0000     0.0000     0.0000     0.0000     0.0000 </r>
        <r>     1.5870     0.0360     0.1028     0.0807     0.1223     0.0000     0.0000     0.0000     0.0000     0.0000 </r>
        <r>     1.6824     0.0281     0.1538     0.0595     0.1906     0.0000     0.0000     0.0000     0.0000     0.0000 </r>
        <r>     1.7777     0.1120     0.1051     0.1026     0.1831     0.0000     0.0000     0.0000     0.0000     0.0000 </r>
        <r>     1.8731     0.0376     0.0136     0.0233     0.0172     0.0000     0.0000     0.0000     0.0000     0.0000 </r>
        <r>     1.9685     0.0001     0.0000     0.0001     0.0000     0.0000     0.0000     0.0000     0.0000     0.0000 </r>
        <r>     2.0639     0.0004     0.0219     0.0053     0.0171     0.0000     0.0000     0.0000     0.0000     0.0000 </r>
        <r>     2.1593     0.0024     0.1496     0.0346     0.1183     0.0000     0.0000     0.0000     0.0000     0.0000 </r>
        <r>     2.2547     0.0003     0.0305     0.0037     0.0266     0.0000     0.0000     0.0000     0.0000     0.0000 </r>
        <r>     2.3501     0.0236     0.1298     0.0314     0.1058     0.0000     0.0000     0.0000     0.0000     0.0000 </r>
        <r>     2.4455     0.0448     0.2066     0.0533     0.2438     0.0000     0.0000     0.0000     0.0000     0.0000 </r>
        <r>     2.5409     0.0063     0.1146     0.0236     0.1052     0.0000     0.0000     0.0000     0.0000     0.0000 </r>
        <r>     2.6363     0.0139     0.0527     0.0471     0.0494     0.0000     0.0000     0.0000     0.0000     0.0000 </r>
        <r>     2.7317     0.0174     0.0474     0.0570     0.0474     0.0000     0.0000     0.0000     0.0000     0.0000 </r>
        <r>     2.8271     0.0263     0.0411     0.1013     0.0411     0.0000     0.0000     0.0000     0.0000     0.0000 </r>
        <r>     2.9225     0.0294     0.2024     0.1084     0.1938     0.0000     0.0000     0.0000     0.0000     0.0000 </r>
        <r>     3.0179     0.0009     0.1187     0.0349     0.0665     0.0000     0.0000     0.0000     0.0000     0.0000 </r>
        <r>     3.1133     0.0001     0.0067     0.0027     0.0026     0.0000     0.0000     0.0000     0.0000     0.0000 </r>
        <r>     3.2087     0.0035     0.1352     0.0580     0.0600     0.0000     0.0000     0.0000     0.0000     0.0000 </r>
        <r>     3.3041     0.0126     0.2272     0.0888     0.1483     0.0000     0.0000     0.0000     0.0000     0.0000 </r>
        <r>     3.3994     0.0231     0.0298     0.0724     0.0292     0.0000     0.0000     0.0000     0.0000     0.0000 </r>
        <r>     3.4948     0.0011     0.0047     0.0032     0.0047     0.0000     0.0000     0.0000     0.0000     0.0000 </r>
        <r>     3.5902     0.0167     0.1597     0.0573     0.1597     0.0000     0.0000     0.0000     0.0000     0.0000 </r>
        <r>     3.6856     0.0060     0.0750     0.0258     0.0714     0.0000     0.0000     0.0000     0.0000     0.0000 </r>
        <r>     3.7810     0.0079     0.0908     0.0516     0.0245     0.0000     0.0000     0.0000     0.0000     0.0000 </r>
        <r>     3.8764     0.0201     0.1504     0.0412     0.1367     0.0000     0.0000     0.0000     0.0000     0.0000 </r>
        <r>     3.9718     0.0158     0.1630     0.0653     0.1630     0.0000     0.0000     0.0000     0.0000     0.0000 </r>
        <r>     4.0672     0.0095     0.0447     0.0551     0.0447     0.0000     0.0000     0.0000     0.0000     0.0000 </r>
        <r>     4.1626     0.0000     0.0332     0.0333     0.0332     0.0000     0.0000     0.0000     0.0000     0.0000 </r>
        <r>     4.2580     0.0000     0.0008     0.0008     0.0008     0.0000     0.0000     0.0000     0.0000     0.0000 </r>
        <r>     4.3534     0.0000     0.0033     0.0001     0.0033     0.0000     0.0000     0.0000     0.0000     0.0000 </r>
        <r>     4.4488     0.0000     0.1346     0.0211     0.1346     0.0000     0.0000     0.0000     0.0000     0.0000 </r>
        <r>     4.5442     0.0000     0.0655     0.0251     0.0655     0.0000     0.0000     0.0000     0.0000     0.0000 </r>
        <r>     4.6396     0.0000     0.0003     0.0002     0.0003     0.0000     0.0000     0.0000     0.0000     0.0000 </r>
        <r>     4.7350     0.0000     0.0000     0.0000     0.0000     0.0000     0.0000     0.0000     0.0000     0.0000 </r>
        <r>     4.8304     0.0000     0.0001     0.0000     0.0001     0.0000     0.0000     0.0000     0.0000     0.0000 </r>
        <r>     4.9258     0.0000     0.0267     0.0080     0.0267     0.0000     0.0000     0.0000     0.0000     0.0000 </r>
        <r>     5.0212     0.0000     0.0713     0.0366     0.0713     0.0000     0.0000     0.0000     0.0000     0.0000 </r>
        <r>     5.1165     0.0000     0.0024     0.0018     0.0024     0.0000     0.0000     0.0000     0.0000     0.0000 </r>
        <r>     5.2119     0.0000     0.0011     0.0011     0.0011     0.0000     0.0000     0.0000     0.0000     0.0000 </r>
        <r>     5.3073     0.0000     0.0072     0.0072     0.0072     0.0000     0.0000     0.0000     0.0000     0.0000 </r>
        <r>     5.4027     0.0000     0.0006     0.0006     0.0006     0.0000     0.0000     0.0000     0.0000     0.0000 </r>
        <r>     5.4981     0.0000     0.0000     0.0000     0.0000     0.0000     0.0000     0.0000     0.0000     0.0000 </r>
        <r>     5.5935     0.0000     0.0000     0.0000     0.0000     0.0000     0.0000     0.0000     0.0000     0.0000 </r>
        <r>     5.6889     0.0000     0.0000     0.0000     0.0000     0.0000     0.0000     0.0000     0.0000     0.0000 </r>
        <r>     5.7843     0.0000     0.0000     0.0000     0.0000     0.0000     0.0000     0.0000     0.0000     0.0000 </r>
        <r>     5.8797     0.0000     0.0000     0.0000     0.0000     0.0000     0.0000     0.0000     0.0000     0.0000 </r>
        <r>     5.9751     0.0000     0.0000     0.0000     0.0000     0.0000     0.0000     0.0000     0.0000     0.0000 </r>
        <r>     6.0705     0.0000     0.0000     0.0000     0.0000     0.0000     0.0000     0.0000     0.0000     0.0000 </r>
        <r>     6.1659     0.0000     0.0000     0.0000     0.0000     0.0000     0.0000     0.0000     0.0000     0.0000 </r>
        <r>     6.2613     0.0000     0.0000     0.0000     0.0000     0.0000     0.0000     0.0000     0.0000     0.0000 </r>
        <r>     6.3567     0.0000     0.0000     0.0000     0.0000     0.0000     0.0000     0.0000     0.0000     0.0000 </r>
        <r>     6.4521     0.0021     0.0000     0.0019     0.0000     0.0000     0.0000     0.0000     0.0000     0.0000 </r>
        <r>     6.5475     0.0114     0.0000     0.0102     0.0000     0.0000     0.0000     0.0000     0.0000     0.0000 </r>
        <r>     6.6429     0.0111     0.0000     0.0074     0.0000     0.0000     0.0000     0.0000     0.0000     0.0000 </r>
        <r>     6.7382     0.0051     0.0001     0.0036     0.0001     0.0000     0.0000     0.0000     0.0000     0.0000 </r>
        <r>     6.8336     0.0414     0.0011     0.0303     0.0011     0.0000     0.0000     0.0000     0.0000     0.0000 </r>
        <r>     6.9290     0.0052     0.0001     0.0038     0.0001     0.0000     0.0000     0.0000     0.0000     0.0000 </r>
        <r>     7.0244     0.0048     0.0000     0.0082     0.0000     0.0000     0.0000     0.0000     0.0000     0.0000 </r>
        <r>     7.1198     0.0191     0.0002     0.0196     0.0002     0.0000     0.0000     0.0000     0.0000     0.0000 </r>
        <r>     7.2152     0.0185     0.0011     0.0162     0.0011     0.0000     0.0000     0.0000     0.0000     0.0000 </r>
        <r>     7.3106     0.0356     0.0056     0.0434     0.0056     0.0000     0.0000     0.0000     0.0000     0.0000 </r>
        <r>     7.4060     0.0176     0.0010     0.0083     0.0010     0.0000     0.0000     0.0000     0.0000     0.0000 </r>
        <r>     7.5014     0.0728     0.0026     0.0420     0.0026     0.0000     0.0000     0.0000     0.0000     0.0000 </r>
        <r>     7.5968     0.0545     0.0024     0.0076     0.0024     0.0000     0.0000     0.0000     0.0000     0.0000 </r>
        <r>     7.6922     0.0091     0.0004     0.0005     0.0004     0.0000     0.0000     0.0000     0.0000     0.0000 </r>
        <r>     7.7876     0.0233     0.0008     0.0190     0.0007     0.0000     0.0000     0.0000     0.0000     0.0000 </r>
        <r>     7.8830     0.0760     0.0238     0.0604     0.0197     0.0000     0.0000     0.0000     0.0000     0.0000 </r>
        <r>     7.9784     0.1149     0.0418     0.0690     0.0338     0.0000     0.0000     0.0000     0.0000     0.0000 </r>
        <r>     8.0738     0.0316     0.0057     0.0453     0.0055     0.0000     0.0000     0.0000     0.0000     0.0000 </r>
        <r>     8.1692     0.1240     0.0113     0.1122     0.0113     0.0000     0.0000     0.0000     0.0000     0.0000 </r>
        <r>     8.2646     0.0770     0.0059     0.0538     0.0056     0.0000     0.0000     0.0000     0.0000     0.0000 </r>
        <r>     8.3599     0.1459     0.0362     0.0868     0.0161     0.0000     0.0000     0.0000     0.0000     0.0000 </r>
        <r>     8.4553     0.0950     0.0399     0.0961     0.0332     0.0000     0.0000     0.0000     0.0000     0.0000 </r>
        <r>     8.5507     0.0355     0.0098     0.0221     0.0103     0.0000     0.0000     0.0000     0.0000     0.0000 </r>
        <r>     8.6461     0.0357     0.0181     0.0243     0.0104     0.0000     0.0000     0.0000     0.0000     0.0000 </r>
        <r>     8.7415     0.1089     0.0081     0.0650     0.0040     0.0000     0.0000     0.0000     0.0000     0.0000 </r>
        <r>     8.8369     0.0376     0.0176     0.0304     0.0101     0.0000     0.0000     0.0000     0.0000     0.0000 </r>
        <r>     8.9323     0.1246     0.0630     0.1055     0.0465     0.0000     0.0000     0.0000     0.0000     0.0000 </r>
        <r>     9.0277     0.0285     0.0246     0.0378     0.0265     0.0000     0.0000     0.0000     0.0000     0.0000 </r>
        <r>     9.1231     0.1147     0.0386     0.0865     0.0469     0.0000     0.0000     0.0000     0.0000     0.0000 </r>
        <r>     9.2185     0.0236     0.0550     0.0242     0.0418     0.0000     0.0000     0.0000     0.0000     0.0000 </r>
        <r>     9.3139     0.0117     0.0126     0.0158     0.0124     0.0000     0.0000     0.0000     0.0000     0.0000 </r>
        <r>     9.4093     0.0170     0.0110     0.0283     0.0110     0.0000     0.0000     0.0000     0.0000     0.0000 </r>
        <r>     9.5047     0.0069     0.0161     0.0166     0.0162     0.0000     0.0000     0.0000     0.0000     0.0000 </r>
        <r>     9.6001     0.0899     0.1074     0.0780     0.1143     0.0000     0.0000     0.0000     0.0000     0.0000 </r>
        <r>     9.6955     0.0860     0.0743     0.0686     0.0779     0.0000     0.0000     0.0000     0.0000     0.0000 </r>
        <r>     9.7909     0.1013     0.1217     0.0377     0.1218     0.0000     0.0000     0.0000     0.0000     0.0000 </r>
        <r>     9.8863     0.0254     0.0511     0.0406     0.0513     0.0000     0.0000     0.0000     0.0000     0.0000 </r>
        <r>     9.9816     0.0630     0.0362     0.0569     0.0632     0.0000     0.0000     0.0000     0.0000     0.0000 </r>
        <r>    10.0770     0.0436     0.0235     0.0142     0.0452     0.0000     0.0000     0.0000     0.0000     0.0000 </r>
        <r>    10.1724     0.0034     0.0114     0.0018     0.0113     0.0000     0.0000     0.0000     0.0000     0.0000 </r>
        <r>    10.2678     0.0093     0.0876     0.0054     0.0637     0.0000     0.0000     0.0000     0.0000     0.0000 </r>
        <r>    10.3632     0.0244     0.1300     0.0130     0.0323     0.0000     0.0000     0.0000     0.0000     0.0000 </r>
        <r>    10.4586     0.0561     0.0382     0.0196     0.0108     0.0000     0.0000     0.0000     0.0000     0.0000 </r>
        <r>    10.5540     0.0210     0.0507     0.0105     0.0504     0.0000     0.0000     0.0000     0.0000     0.0000 </r>
        <r>    10.6494     0.0156     0.1409     0.0186     0.1246     0.0000     0.0000     0.0000     0.0000     0.0000 </r>
        <r>    10.7448     0.0487     0.0301     0.0163     0.0196     0.0000     0.0000     0.0000     0.0000     0.0000 </r>
        <r>    10.8402     0.0368     0.0110     0.0122     0.0110     0.0000     0.0000     0.0000     0.0000     0.0000 </r>
        <r>    10.9356     0.0139     0.0148     0.0127     0.0148     0.0000     0.0000     0.0000     0.0000     0.0000 </r>
        <r>    11.0310     0.0002     0.0299     0.0002     0.0299     0.0000     0.0000     0.0000     0.0000     0.0000 </r>
        <r>    11.1264     0.0215     0.0167     0.0149     0.0180     0.0000     0.0000     0.0000     0.0000     0.0000 </r>
        <r>    11.2218     0.0933     0.0468     0.0910     0.0612     0.0000     0.0000     0.0000     0.0000     0.0000 </r>
        <r>    11.3172     0.0141     0.0059     0.0190     0.0057     0.0000     0.0000     0.0000     0.0000     0.0000 </r>
        <r>    11.4126     0.0582     0.0373     0.0361     0.0356     0.0000     0.0000     0.0000     0.0000     0.0000 </r>
        <r>    11.5080     0.0761     0.0429     0.0534     0.0679     0.0000     0.0000     0.0000     0.0000     0.0000 </r>
        <r>    11.6034     0.0498     0.0318     0.0495     0.0330     0.0000     0.0000     0.0000     0.0000     0.0000 </r>
        <r>    11.6987     0.0671     0.1210     0.0274     0.1287     0.0000     0.0000     0.0000     0.0000     0.0000 </r>
        <r>    11.7941     0.0106     0.0411     0.0028     0.0435     0.0000     0.0000     0.0000     0.0000     0.0000 </r>
        <r>    11.8895     0.0233     0.0173     0.0168     0.0160     0.0000     0.0000     0.0000     0.0000     0.0000 </r>
        <r>    11.9849     0.0778     0.0996     0.0528     0.0898     0.0000     0.0000     0.0000     0.0000     0.0000 </r>
        <r>    12.0803     0.0112     0.0314     0.0140     0.0320     0.0000     0.0000     0.0000     0.0000     0.0000 </r>
        <r>    12.1757     0.0576     0.1662     0.0704     0.1854     0.0000     0.0000     0.0000     0.0000     0.0000 </r>
        <r>    12.2711     0.0303     0.0510     0.0191     0.0534     0.0000     0.0000     0.0000     0.0000     0.0000 </r>
        <r>    12.3665     0.0318     0.0188     0.0102     0.0189     0.0000     0.0000     0.0000     0.0000     0.0000 </r>
        <r>    12.4619     0.0311     0.0262     0.0174     0.0262     0.0000     0.0000     0.0000     0.0000     0.0000 </r>
        <r>    12.5573     0.0314     0.0735     0.0189     0.0735     0.0000     0.0000     0.0000     0.0000     0.0000 </r>
        <r>    12.6527     0.0010     0.0065     0.0002     0.0065     0.0000     0.0000     0.0000     0.0000     0.0000 </r>
        <r>    12.7481     0.0082     0.0075     0.0005     0.0075     0.0000     0.0000     0.0000     0.0000     0.0000 </r>
        <r>    12.8435     0.0011     0.0004     0.0001     0.0004     0.0000     0.0000     0.0000     0.0000     0.0000 </r>
        <r>    12.9389     0.0000     0.0000     0.0000     0.0000     0.0000     0.0000     0.0000     0.0000     0.0000 </r>
        <r>    13.0343     0.0041     0.0017     0.0017     0.0017     0.0000     0.0000     0.0000     0.0000     0.0000 </r>
        <r>    13.1297     0.0316     0.0136     0.0133     0.0135     0.0000     0.0000     0.0000     0.0000     0.0000 </r>
        <r>    13.2251     0.0228     0.0311     0.0167     0.0348     0.0000     0.0000     0.0000     0.0000     0.0000 </r>
        <r>    13.3204     0.0281     0.0417     0.0194     0.0717     0.0000     0.0000     0.0000     0.0000     0.0000 </r>
        <r>    13.4158     0.0153     0.0495     0.0081     0.0141     0.0000     0.0000     0.0000     0.0000     0.0000 </r>
        <r>    13.5112     0.0005     0.0023     0.0018     0.0032     0.0000     0.0000     0.0000     0.0000     0.0000 </r>
        <r>    13.6066     0.0042     0.0134     0.0098     0.0145     0.0000     0.0000     0.0000     0.0000     0.0000 </r>
        <r>    13.7020     0.0735     0.0705     0.1001     0.0914     0.0000     0.0000     0.0000     0.0000     0.0000 </r>
        <r>    13.7974     0.1105     0.0903     0.1027     0.0827     0.0000     0.0000     0.0000     0.0000     0.0000 </r>
        <r>    13.8928     0.0029     0.0260     0.0037     0.0257     0.0000     0.0000     0.0000     0.0000     0.0000 </r>
        <r>    13.9882     0.0044     0.0017     0.0023     0.0014     0.0000     0.0000     0.0000     0.0000     0.0000 </r>
        <r>    14.0836     0.0388     0.0168     0.0393     0.0090     0.0000     0.0000     0.0000     0.0000     0.0000 </r>
        <r>    14.1790     0.0432     0.0824     0.1143     0.0466     0.0000     0.0000     0.0000     0.0000     0.0000 </r>
        <r>    14.2744     0.0548     0.0648     0.1372     0.0354     0.0000     0.0000     0.0000     0.0000     0.0000 </r>
        <r>    14.3698     0.0614     0.0868     0.1139     0.1163     0.0000     0.0000     0.0000     0.0000     0.0000 </r>
        <r>    14.4652     0.0018     0.0487     0.0037     0.0521     0.0000     0.0000     0.0000     0.0000     0.0000 </r>
        <r>    14.5606     0.0167     0.0272     0.0116     0.0272     0.0000     0.0000     0.0000     0.0000     0.0000 </r>
        <r>    14.6560     0.0181     0.0813     0.0174     0.0817     0.0000     0.0000     0.0000     0.0000     0.0000 </r>
        <r>    14.7514     0.0381     0.0886     0.0773     0.1116     0.0000     0.0000     0.0000     0.0000     0.0000 </r>
        <r>    14.8468     0.0096     0.0235     0.0290     0.0361     0.0000     0.0000     0.0000     0.0000     0.0000 </r>
        <r>    14.9421     0.0000     0.0033     0.0038     0.0026     0.0000     0.0000     0.0000     0.0000     0.0000 </r>
        <r>    15.0375     0.0000     0.0014     0.0015     0.0010     0.0000     0.0000     0.0000     0.0000     0.0000 </r>
        <r>    15.1329     0.0001     0.0001     0.0002     0.0001     0.0000     0.0000     0.0000     0.0000     0.0000 </r>
        <r>    15.2283     0.0061     0.0064     0.0154     0.0064     0.0000     0.0000     0.0000     0.0000     0.0000 </r>
        <r>    15.3237     0.0126     0.0083     0.0244     0.0130     0.0000     0.0000     0.0000     0.0000     0.0000 </r>
        <r>    15.4191     0.0369     0.0182     0.0619     0.0375     0.0000     0.0000     0.0000     0.0000     0.0000 </r>
        <r>    15.5145     0.0017     0.0011     0.0031     0.0019     0.0000     0.0000     0.0000     0.0000     0.0000 </r>
        <r>    15.6099     0.0027     0.0123     0.0161     0.0119     0.0000     0.0000     0.0000     0.0000     0.0000 </r>
        <r>    15.7053     0.0013     0.0057     0.0075     0.0055     0.0000     0.0000     0.0000     0.0000     0.0000 </r>
        <r>    15.8007     0.0000     0.0000     0.0000     0.0000     0.0000     0.0000     0.0000     0.0000     0.0000 </r>
        <r>    15.8961     0.0000     0.0000     0.0000     0.0000     0.0000     0.0000     0.0000     0.0000     0.0000 </r>
        <r>    15.9915     0.0000     0.0000     0.0000     0.0000     0.0000     0.0000     0.0000     0.0000     0.0000 </r>
        <r>    16.0869     0.0000     0.0000     0.0000     0.0000     0.0000     0.0000     0.0000     0.0000     0.0000 </r>
        <r>    16.1823     0.0000     0.0000     0.0000     0.0000     0.0000     0.0000     0.0000     0.0000     0.0000 </r>
        <r>    16.2777     0.0000     0.0000     0.0000     0.0000     0.0000     0.0000     0.0000     0.0000     0.0000 </r>
        <r>    16.3731     0.0000     0.0024     0.0000     0.0020     0.0000     0.0000     0.0000     0.0000     0.0000 </r>
        <r>    16.4685     0.0001     0.0092     0.0003     0.0078     0.0000     0.0000     0.0000     0.0000     0.0000 </r>
        <r>    16.5638     0.0058     0.0308     0.0617     0.0271     0.0000     0.0000     0.0000     0.0000     0.0000 </r>
        <r>    16.6592     0.0124     0.0551     0.1282     0.0413     0.0000     0.0000     0.0000     0.0000     0.0000 </r>
        <r>    16.7546     0.0004     0.0013     0.0037     0.0008     0.0000     0.0000     0.0000     0.0000     0.0000 </r>
        <r>    16.8500     0.0000     0.0000     0.0000     0.0000     0.0000     0.0000     0.0000     0.0000     0.0000 </r>
        <r>    16.9454     0.0000     0.0002     0.0001     0.0003     0.0000     0.0000     0.0000     0.0000     0.0000 </r>
        <r>    17.0408     0.0002     0.0165     0.0140     0.0240     0.0000     0.0000     0.0000     0.0000     0.0000 </r>
        <r>    17.1362     0.0014     0.0135     0.0166     0.0198     0.0000     0.0000     0.0000     0.0000     0.0000 </r>
        <r>    17.2316     0.0122     0.0343     0.0522     0.0301     0.0000     0.0000     0.0000     0.0000     0.0000 </r>
        <r>    17.3270     0.0013     0.0037     0.0056     0.0033     0.0000     0.0000     0.0000     0.0000     0.0000 </r>
        <r>    17.4224     0.0000     0.0001     0.0000     0.0005     0.0000     0.0000     0.0000     0.0000     0.0000 </r>
        <r>    17.5178     0.0000     0.0001     0.0000     0.0007     0.0000     0.0000     0.0000     0.0000     0.0000 </r>
        <r>    17.6132     0.0000     0.0000     0.0000     0.0000     0.0000     0.0000     0.0000     0.0000     0.0000 </r>
        <r>    17.7086     0.0000     0.0000     0.0000     0.0000     0.0000     0.0000     0.0000     0.0000     0.0000 </r>
        <r>    17.8040     0.0000     0.0000     0.0000     0.0000     0.0000     0.0000     0.0000     0.0000     0.0000 </r>
        <r>    17.8994     0.0000     0.0000     0.0000     0.0000     0.0000     0.0000     0.0000     0.0000     0.0000 </r>
        <r>    17.9948     0.0000     0.0000     0.0000     0.0000     0.0000     0.0000     0.0000     0.0000     0.0000 </r>
        <r>    18.0902     0.0000     0.0000     0.0000     0.0000     0.0000     0.0000     0.0000     0.0000     0.0000 </r>
        <r>    18.1855     0.0000     0.0000     0.0000     0.0000     0.0000     0.0000     0.0000     0.0000     0.0000 </r>
        <r>    18.2809     0.0000     0.0000     0.0000     0.0000     0.0000     0.0000     0.0000     0.0000     0.0000 </r>
        <r>    18.3763     0.0000     0.0000     0.0000     0.0000     0.0000     0.0000     0.0000     0.0000     0.0000 </r>
        <r>    18.4717     0.0000     0.0000     0.0000     0.0000     0.0000     0.0000     0.0000     0.0000     0.0000 </r>
        <r>    18.5671     0.0000     0.0000     0.0000     0.0000     0.0000     0.0000     0.0000     0.0000     0.0000 </r>
        <r>    18.6625     0.0000     0.0000     0.0000     0.0000     0.0000     0.0000     0.0000     0.0000     0.0000 </r>
        <r>    18.7579     0.0000     0.0000     0.0000     0.0000     0.0000     0.0000     0.0000     0.0000     0.0000 </r>
        <r>    18.8533     0.0000     0.0000     0.0000     0.0000     0.0000     0.0000     0.0000     0.0000     0.0000 </r>
        <r>    18.9487     0.0000     0.0000     0.0000     0.0000     0.0000     0.0000     0.0000     0.0000     0.0000 </r>
        <r>    19.0441     0.0000     0.0000     0.0000     0.0000     0.0000     0.0000     0.0000     0.0000     0.0000 </r>
        <r>    19.1395     0.0000     0.0000     0.0000     0.0000     0.0000     0.0000     0.0000     0.0000     0.0000 </r>
        <r>    19.2349     0.0000     0.0000     0.0000     0.0000     0.0000     0.0000     0.0000     0.0000     0.0000 </r>
        <r>    19.3303     0.0000     0.0000     0.0000     0.0000     0.0000     0.0000     0.0000     0.0000     0.0000 </r>
        <r>    19.4257     0.0000     0.0000     0.0000     0.0000     0.0000     0.0000     0.0000     0.0000     0.0000 </r>
       </set>
      </set>
      <set comment="ion 2">
       <set comment="spin 1">
        <r>    -9.1926     0.0000     0.0000     0.0000     0.0000     0.0000     0.0000     0.0000     0.0000     0.0000 </r>
        <r>    -9.0972     0.0000     0.0000     0.0000     0.0000     0.0000     0.0000     0.0000     0.0000     0.0000 </r>
        <r>    -9.0018     0.0000     0.0000     0.0000     0.0000     0.0000     0.0000     0.0000     0.0000     0.0000 </r>
        <r>    -8.9064     0.0000     0.0000     0.0000     0.0000     0.0000     0.0000     0.0000     0.0000     0.0000 </r>
        <r>    -8.8110     0.0000     0.0000     0.0000     0.0000     0.0000     0.0000     0.0000     0.0000     0.0000 </r>
        <r>    -8.7156     0.0000     0.0000     0.0000     0.0000     0.0000     0.0000     0.0000     0.0000     0.0000 </r>
        <r>    -8.6202     0.0000     0.0000     0.0000     0.0000     0.0000     0.0000     0.0000     0.0000     0.0000 </r>
        <r>    -8.5248     0.0000     0.0000     0.0000     0.0000     0.0000     0.0000     0.0000     0.0000     0.0000 </r>
        <r>    -8.4294     0.0000     0.0000     0.0000     0.0000     0.0000     0.0000     0.0000     0.0000     0.0000 </r>
        <r>    -8.3340     0.0000     0.0000     0.0000     0.0000     0.0000     0.0000     0.0000     0.0000     0.0000 </r>
        <r>    -8.2386     0.0000     0.0000     0.0000     0.0000     0.0000     0.0000     0.0000     0.0000     0.0000 </r>
        <r>    -8.1432     0.0000     0.0000     0.0000     0.0000     0.0000     0.0000     0.0000     0.0000     0.0000 </r>
        <r>    -8.0479     0.0000     0.0000     0.0000     0.0000     0.0000     0.0000     0.0000     0.0000     0.0000 </r>
        <r>    -7.9525     0.0004     0.0000     0.0000     0.0000     0.0000     0.0000     0.0000     0.0000     0.0000 </r>
        <r>    -7.8571     0.0071     0.0000     0.0000     0.0000     0.0000     0.0000     0.0000     0.0000     0.0000 </r>
        <r>    -7.7617     0.0018     0.0000     0.0000     0.0000     0.0000     0.0000     0.0000     0.0000     0.0000 </r>
        <r>    -7.6663     0.0389     0.0001     0.0001     0.0001     0.0000     0.0000     0.0000     0.0000     0.0000 </r>
        <r>    -7.5709     0.0715     0.0001     0.0006     0.0001     0.0000     0.0000     0.0000     0.0000     0.0000 </r>
        <r>    -7.4755     0.0136     0.0000     0.0002     0.0000     0.0000     0.0000     0.0000     0.0000     0.0000 </r>
        <r>    -7.3801     0.0016     0.0000     0.0000     0.0000     0.0000     0.0000     0.0000     0.0000     0.0000 </r>
        <r>    -7.2847     0.0724     0.0009     0.0000     0.0009     0.0000     0.0000     0.0000     0.0000     0.0000 </r>
        <r>    -7.1893     0.0322     0.0004     0.0000     0.0004     0.0000     0.0000     0.0000     0.0000     0.0000 </r>
        <r>    -7.0939     0.0824     0.0003     0.0024     0.0003     0.0000     0.0000     0.0000     0.0000     0.0000 </r>
        <r>    -6.9985     0.1783     0.0010     0.0045     0.0010     0.0000     0.0000     0.0000     0.0000     0.0000 </r>
        <r>    -6.9031     0.0205     0.0002     0.0003     0.0002     0.0000     0.0000     0.0000     0.0000     0.0000 </r>
        <r>    -6.8077     0.0002     0.0000     0.0000     0.0000     0.0000     0.0000     0.0000     0.0000     0.0000 </r>
        <r>    -6.7123     0.0256     0.0000     0.0014     0.0000     0.0000     0.0000     0.0000     0.0000     0.0000 </r>
        <r>    -6.6169     0.0275     0.0000     0.0015     0.0000     0.0000     0.0000     0.0000     0.0000     0.0000 </r>
        <r>    -6.5215     0.1242     0.0032     0.0007     0.0032     0.0000     0.0000     0.0000     0.0000     0.0000 </r>
        <r>    -6.4262     0.2254     0.0037     0.0076     0.0026     0.0000     0.0000     0.0000     0.0000     0.0000 </r>
        <r>    -6.3308     0.0683     0.0007     0.0035     0.0002     0.0000     0.0000     0.0000     0.0000     0.0000 </r>
        <r>    -6.2354     0.0268     0.0003     0.0013     0.0003     0.0000     0.0000     0.0000     0.0000     0.0000 </r>
        <r>    -6.1400     0.1715     0.0019     0.0080     0.0019     0.0000     0.0000     0.0000     0.0000     0.0000 </r>
        <r>    -6.0446     0.0500     0.0010     0.0014     0.0010     0.0000     0.0000     0.0000     0.0000     0.0000 </r>
        <r>    -5.9492     0.1069     0.0010     0.0068     0.0010     0.0000     0.0000     0.0000     0.0000     0.0000 </r>
        <r>    -5.8538     0.1309     0.0004     0.0109     0.0004     0.0000     0.0000     0.0000     0.0000     0.0000 </r>
        <r>    -5.7584     0.0024     0.0000     0.0002     0.0000     0.0000     0.0000     0.0000     0.0000     0.0000 </r>
        <r>    -5.6630     0.0514     0.0020     0.0006     0.0020     0.0000     0.0000     0.0000     0.0000     0.0000 </r>
        <r>    -5.5676     0.0773     0.0028     0.0010     0.0028     0.0000     0.0000     0.0000     0.0000     0.0000 </r>
        <r>    -5.4722     0.3870     0.0093     0.0169     0.0080     0.0000     0.0000     0.0000     0.0000     0.0000 </r>
        <r>    -5.3768     0.2334     0.0043     0.0145     0.0031     0.0000     0.0000     0.0000     0.0000     0.0000 </r>
        <r>    -5.2814     0.1071     0.0016     0.0058     0.0016     0.0000     0.0000     0.0000     0.0000     0.0000 </r>
        <r>    -5.1860     0.1874     0.0028     0.0101     0.0028     0.0000     0.0000     0.0000     0.0000     0.0000 </r>
        <r>    -5.0906     0.0435     0.0003     0.0046     0.0004     0.0000     0.0000     0.0000     0.0000     0.0000 </r>
        <r>    -4.9952     0.1639     0.0010     0.0186     0.0012     0.0000     0.0000     0.0000     0.0000     0.0000 </r>
        <r>    -4.8998     0.1631     0.0017     0.0155     0.0018     0.0000     0.0000     0.0000     0.0000     0.0000 </r>
        <r>    -4.8045     0.0766     0.0009     0.0058     0.0017     0.0000     0.0000     0.0000     0.0000     0.0000 </r>
        <r>    -4.7091     0.2751     0.0058     0.0114     0.0107     0.0000     0.0000     0.0000     0.0000     0.0000 </r>
        <r>    -4.6137     0.1314     0.0042     0.0054     0.0046     0.0000     0.0000     0.0000     0.0000     0.0000 </r>
        <r>    -4.5183     0.0433     0.0008     0.0016     0.0032     0.0000     0.0000     0.0000     0.0000     0.0000 </r>
        <r>    -4.4229     0.1622     0.0028     0.0061     0.0123     0.0000     0.0000     0.0000     0.0000     0.0000 </r>
        <r>    -4.3275     0.0389     0.0002     0.0055     0.0006     0.0000     0.0000     0.0000     0.0000     0.0000 </r>
        <r>    -4.2321     0.1595     0.0006     0.0258     0.0006     0.0000     0.0000     0.0000     0.0000     0.0000 </r>
        <r>    -4.1367     0.0832     0.0005     0.0095     0.0026     0.0000     0.0000     0.0000     0.0000     0.0000 </r>
        <r>    -4.0413     0.3293     0.0021     0.0356     0.0113     0.0000     0.0000     0.0000     0.0000     0.0000 </r>
        <r>    -3.9459     0.0160     0.0001     0.0017     0.0006     0.0000     0.0000     0.0000     0.0000     0.0000 </r>
        <r>    -3.8505     0.0185     0.0004     0.0020     0.0004     0.0000     0.0000     0.0000     0.0000     0.0000 </r>
        <r>    -3.7551     0.0836     0.0019     0.0090     0.0019     0.0000     0.0000     0.0000     0.0000     0.0000 </r>
        <r>    -3.6597     0.0042     0.0001     0.0004     0.0001     0.0000     0.0000     0.0000     0.0000     0.0000 </r>
        <r>    -3.5643     0.0000     0.0000     0.0000     0.0000     0.0000     0.0000     0.0000     0.0000     0.0000 </r>
        <r>    -3.4689     0.0000     0.0000     0.0000     0.0000     0.0000     0.0000     0.0000     0.0000     0.0000 </r>
        <r>    -3.3735     0.0139     0.0000     0.0032     0.0000     0.0000     0.0000     0.0000     0.0000     0.0000 </r>
        <r>    -3.2781     0.1145     0.0000     0.0235     0.0020     0.0000     0.0000     0.0000     0.0000     0.0000 </r>
        <r>    -3.1828     0.1626     0.0000     0.0274     0.0075     0.0000     0.0000     0.0000     0.0000     0.0000 </r>
        <r>    -3.0874     0.0566     0.0000     0.0059     0.0057     0.0000     0.0000     0.0000     0.0000     0.0000 </r>
        <r>    -2.9920     0.0005     0.0000     0.0001     0.0001     0.0000     0.0000     0.0000     0.0000     0.0000 </r>
        <r>    -2.8966     0.0000     0.0000     0.0000     0.0000     0.0000     0.0000     0.0000     0.0000     0.0000 </r>
        <r>    -2.8012     0.0002     0.0000     0.0000     0.0000     0.0000     0.0000     0.0000     0.0000     0.0000 </r>
        <r>    -2.7058     0.0377     0.0012     0.0089     0.0012     0.0000     0.0000     0.0000     0.0000     0.0000 </r>
        <r>    -2.6104     0.0531     0.0017     0.0125     0.0017     0.0000     0.0000     0.0000     0.0000     0.0000 </r>
        <r>    -2.5150     0.0006     0.0000     0.0001     0.0000     0.0000     0.0000     0.0000     0.0000     0.0000 </r>
        <r>    -2.4196     0.0369     0.0012     0.0071     0.0038     0.0000     0.0000     0.0000     0.0000     0.0000 </r>
        <r>    -2.3242     0.3243     0.0117     0.0635     0.0339     0.0000     0.0000     0.0000     0.0000     0.0000 </r>
        <r>    -2.2288     0.1955     0.0053     0.0496     0.0083     0.0000     0.0000     0.0000     0.0000     0.0000 </r>
        <r>    -2.1334     0.1858     0.0294     0.0442     0.0369     0.0000     0.0000     0.0000     0.0000     0.0000 </r>
        <r>    -2.0380     0.1461     0.0266     0.0369     0.0279     0.0000     0.0000     0.0000     0.0000     0.0000 </r>
        <r>    -1.9426     0.2210     0.0147     0.0481     0.0266     0.0000     0.0000     0.0000     0.0000     0.0000 </r>
        <r>    -1.8472     0.0387     0.0014     0.0077     0.0047     0.0000     0.0000     0.0000     0.0000     0.0000 </r>
        <r>    -1.7518     0.0961     0.0140     0.0238     0.0140     0.0000     0.0000     0.0000     0.0000     0.0000 </r>
        <r>    -1.6564     0.1698     0.0311     0.0458     0.0311     0.0000     0.0000     0.0000     0.0000     0.0000 </r>
        <r>    -1.5610     0.0050     0.0011     0.0015     0.0011     0.0000     0.0000     0.0000     0.0000     0.0000 </r>
        <r>    -1.4657     0.0000     0.0000     0.0000     0.0000     0.0000     0.0000     0.0000     0.0000     0.0000 </r>
        <r>    -1.3703     0.0065     0.0001     0.0018     0.0005     0.0000     0.0000     0.0000     0.0000     0.0000 </r>
        <r>    -1.2749     0.1460     0.0037     0.0412     0.0124     0.0000     0.0000     0.0000     0.0000     0.0000 </r>
        <r>    -1.1795     0.1135     0.0157     0.0293     0.0228     0.0000     0.0000     0.0000     0.0000     0.0000 </r>
        <r>    -1.0841     0.2410     0.0295     0.0552     0.0517     0.0000     0.0000     0.0000     0.0000     0.0000 </r>
        <r>    -0.9887     0.0422     0.0014     0.0144     0.0025     0.0000     0.0000     0.0000     0.0000     0.0000 </r>
        <r>    -0.8933     0.0008     0.0000     0.0003     0.0000     0.0000     0.0000     0.0000     0.0000     0.0000 </r>
        <r>    -0.7979     0.0089     0.0013     0.0022     0.0013     0.0000     0.0000     0.0000     0.0000     0.0000 </r>
        <r>    -0.7025     0.0625     0.0091     0.0157     0.0091     0.0000     0.0000     0.0000     0.0000     0.0000 </r>
        <r>    -0.6071     0.0055     0.0009     0.0014     0.0009     0.0000     0.0000     0.0000     0.0000     0.0000 </r>
        <r>    -0.5117     0.0607     0.0165     0.0180     0.0165     0.0000     0.0000     0.0000     0.0000     0.0000 </r>
        <r>    -0.4163     0.0554     0.0151     0.0164     0.0151     0.0000     0.0000     0.0000     0.0000     0.0000 </r>
        <r>    -0.3209     0.0003     0.0001     0.0001     0.0001     0.0000     0.0000     0.0000     0.0000     0.0000 </r>
        <r>    -0.2255     0.0067     0.0005     0.0026     0.0005     0.0000     0.0000     0.0000     0.0000     0.0000 </r>
        <r>    -0.1301     0.1267     0.0088     0.0495     0.0088     0.0000     0.0000     0.0000     0.0000     0.0000 </r>
        <r>    -0.0347     0.0265     0.0018     0.0104     0.0018     0.0000     0.0000     0.0000     0.0000     0.0000 </r>
        <r>     0.0607     0.0000     0.0000     0.0000     0.0000     0.0000     0.0000     0.0000     0.0000     0.0000 </r>
        <r>     0.1560     0.0057     0.0017     0.0019     0.0017     0.0000     0.0000     0.0000     0.0000     0.0000 </r>
        <r>     0.2514     0.0922     0.0271     0.0302     0.0271     0.0000     0.0000     0.0000     0.0000     0.0000 </r>
        <r>     0.3468     0.0169     0.0050     0.0055     0.0050     0.0000     0.0000     0.0000     0.0000     0.0000 </r>
        <r>     0.4422     0.0000     0.0000     0.0000     0.0000     0.0000     0.0000     0.0000     0.0000     0.0000 </r>
        <r>     0.5376     0.0317     0.0043     0.0120     0.0060     0.0000     0.0000     0.0000     0.0000     0.0000 </r>
        <r>     0.6330     0.1055     0.0209     0.0450     0.0266     0.0000     0.0000     0.0000     0.0000     0.0000 </r>
        <r>     0.7284     0.0059     0.0415     0.0430     0.0345     0.0000     0.0000     0.0000     0.0000     0.0000 </r>
        <r>     0.8238     0.0035     0.0323     0.0410     0.0212     0.0000     0.0000     0.0000     0.0000     0.0000 </r>
        <r>     0.9192     0.0076     0.0592     0.0460     0.0564     0.0000     0.0000     0.0000     0.0000     0.0000 </r>
        <r>     1.0146     0.0431     0.0942     0.1052     0.0916     0.0000     0.0000     0.0000     0.0000     0.0000 </r>
        <r>     1.1100     0.0150     0.0174     0.0223     0.0157     0.0000     0.0000     0.0000     0.0000     0.0000 </r>
        <r>     1.2054     0.0004     0.0297     0.0211     0.0195     0.0000     0.0000     0.0000     0.0000     0.0000 </r>
        <r>     1.3008     0.0050     0.0165     0.0351     0.0158     0.0000     0.0000     0.0000     0.0000     0.0000 </r>
        <r>     1.3962     0.0129     0.0023     0.0130     0.0023     0.0000     0.0000     0.0000     0.0000     0.0000 </r>
        <r>     1.4916     0.0385     0.0265     0.0515     0.0270     0.0000     0.0000     0.0000     0.0000     0.0000 </r>
        <r>     1.5870     0.0360     0.1028     0.0807     0.1223     0.0000     0.0000     0.0000     0.0000     0.0000 </r>
        <r>     1.6824     0.0281     0.1538     0.0595     0.1906     0.0000     0.0000     0.0000     0.0000     0.0000 </r>
        <r>     1.7777     0.1120     0.1051     0.1026     0.1831     0.0000     0.0000     0.0000     0.0000     0.0000 </r>
        <r>     1.8731     0.0376     0.0136     0.0233     0.0172     0.0000     0.0000     0.0000     0.0000     0.0000 </r>
        <r>     1.9685     0.0001     0.0000     0.0001     0.0000     0.0000     0.0000     0.0000     0.0000     0.0000 </r>
        <r>     2.0639     0.0004     0.0219     0.0053     0.0171     0.0000     0.0000     0.0000     0.0000     0.0000 </r>
        <r>     2.1593     0.0024     0.1496     0.0346     0.1183     0.0000     0.0000     0.0000     0.0000     0.0000 </r>
        <r>     2.2547     0.0003     0.0305     0.0037     0.0266     0.0000     0.0000     0.0000     0.0000     0.0000 </r>
        <r>     2.3501     0.0236     0.1298     0.0314     0.1058     0.0000     0.0000     0.0000     0.0000     0.0000 </r>
        <r>     2.4455     0.0448     0.2066     0.0533     0.2438     0.0000     0.0000     0.0000     0.0000     0.0000 </r>
        <r>     2.5409     0.0063     0.1146     0.0236     0.1052     0.0000     0.0000     0.0000     0.0000     0.0000 </r>
        <r>     2.6363     0.0139     0.0527     0.0471     0.0494     0.0000     0.0000     0.0000     0.0000     0.0000 </r>
        <r>     2.7317     0.0174     0.0474     0.0570     0.0474     0.0000     0.0000     0.0000     0.0000     0.0000 </r>
        <r>     2.8271     0.0263     0.0411     0.1013     0.0411     0.0000     0.0000     0.0000     0.0000     0.0000 </r>
        <r>     2.9225     0.0294     0.2024     0.1084     0.1938     0.0000     0.0000     0.0000     0.0000     0.0000 </r>
        <r>     3.0179     0.0009     0.1187     0.0349     0.0665     0.0000     0.0000     0.0000     0.0000     0.0000 </r>
        <r>     3.1133     0.0001     0.0067     0.0027     0.0026     0.0000     0.0000     0.0000     0.0000     0.0000 </r>
        <r>     3.2087     0.0035     0.1352     0.0580     0.0600     0.0000     0.0000     0.0000     0.0000     0.0000 </r>
        <r>     3.3041     0.0126     0.2272     0.0888     0.1483     0.0000     0.0000     0.0000     0.0000     0.0000 </r>
        <r>     3.3994     0.0231     0.0298     0.0724     0.0292     0.0000     0.0000     0.0000     0.0000     0.0000 </r>
        <r>     3.4948     0.0011     0.0047     0.0032     0.0047     0.0000     0.0000     0.0000     0.0000     0.0000 </r>
        <r>     3.5902     0.0167     0.1597     0.0573     0.1597     0.0000     0.0000     0.0000     0.0000     0.0000 </r>
        <r>     3.6856     0.0060     0.0750     0.0258     0.0714     0.0000     0.0000     0.0000     0.0000     0.0000 </r>
        <r>     3.7810     0.0079     0.0908     0.0516     0.0245     0.0000     0.0000     0.0000     0.0000     0.0000 </r>
        <r>     3.8764     0.0201     0.1504     0.0412     0.1367     0.0000     0.0000     0.0000     0.0000     0.0000 </r>
        <r>     3.9718     0.0158     0.1630     0.0653     0.1630     0.0000     0.0000     0.0000     0.0000     0.0000 </r>
        <r>     4.0672     0.0095     0.0447     0.0551     0.0447     0.0000     0.0000     0.0000     0.0000     0.0000 </r>
        <r>     4.1626     0.0000     0.0332     0.0333     0.0332     0.0000     0.0000     0.0000     0.0000     0.0000 </r>
        <r>     4.2580     0.0000     0.0008     0.0008     0.0008     0.0000     0.0000     0.0000     0.0000     0.0000 </r>
        <r>     4.3534     0.0000     0.0033     0.0001     0.0033     0.0000     0.0000     0.0000     0.0000     0.0000 </r>
        <r>     4.4488     0.0000     0.1346     0.0211     0.1346     0.0000     0.0000     0.0000     0.0000     0.0000 </r>
        <r>     4.5442     0.0000     0.0655     0.0251     0.0655     0.0000     0.0000     0.0000     0.0000     0.0000 </r>
        <r>     4.6396     0.0000     0.0003     0.0002     0.0003     0.0000     0.0000     0.0000     0.0000     0.0000 </r>
        <r>     4.7350     0.0000     0.0000     0.0000     0.0000     0.0000     0.0000     0.0000     0.0000     0.0000 </r>
        <r>     4.8304     0.0000     0.0001     0.0000     0.0001     0.0000     0.0000     0.0000     0.0000     0.0000 </r>
        <r>     4.9258     0.0000     0.0267     0.0080     0.0267     0.0000     0.0000     0.0000     0.0000     0.0000 </r>
        <r>     5.0212     0.0000     0.0713     0.0366     0.0713     0.0000     0.0000     0.0000     0.0000     0.0000 </r>
        <r>     5.1165     0.0000     0.0024     0.0018     0.0024     0.0000     0.0000     0.0000     0.0000     0.0000 </r>
        <r>     5.2119     0.0000     0.0011     0.0011     0.0011     0.0000     0.0000     0.0000     0.0000     0.0000 </r>
        <r>     5.3073     0.0000     0.0072     0.0072     0.0072     0.0000     0.0000     0.0000     0.0000     0.0000 </r>
        <r>     5.4027     0.0000     0.0006     0.0006     0.0006     0.0000     0.0000     0.0000     0.0000     0.0000 </r>
        <r>     5.4981     0.0000     0.0000     0.0000     0.0000     0.0000     0.0000     0.0000     0.0000     0.0000 </r>
        <r>     5.5935     0.0000     0.0000     0.0000     0.0000     0.0000     0.0000     0.0000     0.0000     0.0000 </r>
        <r>     5.6889     0.0000     0.0000     0.0000     0.0000     0.0000     0.0000     0.0000     0.0000     0.0000 </r>
        <r>     5.7843     0.0000     0.0000     0.0000     0.0000     0.0000     0.0000     0.0000     0.0000     0.0000 </r>
        <r>     5.8797     0.0000     0.0000     0.0000     0.0000     0.0000     0.0000     0.0000     0.0000     0.0000 </r>
        <r>     5.9751     0.0000     0.0000     0.0000     0.0000     0.0000     0.0000     0.0000     0.0000     0.0000 </r>
        <r>     6.0705     0.0000     0.0000     0.0000     0.0000     0.0000     0.0000     0.0000     0.0000     0.0000 </r>
        <r>     6.1659     0.0000     0.0000     0.0000     0.0000     0.0000     0.0000     0.0000     0.0000     0.0000 </r>
        <r>     6.2613     0.0000     0.0000     0.0000     0.0000     0.0000     0.0000     0.0000     0.0000     0.0000 </r>
        <r>     6.3567     0.0000     0.0000     0.0000     0.0000     0.0000     0.0000     0.0000     0.0000     0.0000 </r>
        <r>     6.4521     0.0021     0.0000     0.0019     0.0000     0.0000     0.0000     0.0000     0.0000     0.0000 </r>
        <r>     6.5475     0.0114     0.0000     0.0102     0.0000     0.0000     0.0000     0.0000     0.0000     0.0000 </r>
        <r>     6.6429     0.0111     0.0000     0.0074     0.0000     0.0000     0.0000     0.0000     0.0000     0.0000 </r>
        <r>     6.7382     0.0051     0.0001     0.0036     0.0001     0.0000     0.0000     0.0000     0.0000     0.0000 </r>
        <r>     6.8336     0.0414     0.0011     0.0303     0.0011     0.0000     0.0000     0.0000     0.0000     0.0000 </r>
        <r>     6.9290     0.0052     0.0001     0.0038     0.0001     0.0000     0.0000     0.0000     0.0000     0.0000 </r>
        <r>     7.0244     0.0048     0.0000     0.0082     0.0000     0.0000     0.0000     0.0000     0.0000     0.0000 </r>
        <r>     7.1198     0.0191     0.0002     0.0196     0.0002     0.0000     0.0000     0.0000     0.0000     0.0000 </r>
        <r>     7.2152     0.0185     0.0011     0.0162     0.0011     0.0000     0.0000     0.0000     0.0000     0.0000 </r>
        <r>     7.3106     0.0356     0.0056     0.0434     0.0056     0.0000     0.0000     0.0000     0.0000     0.0000 </r>
        <r>     7.4060     0.0176     0.0010     0.0083     0.0010     0.0000     0.0000     0.0000     0.0000     0.0000 </r>
        <r>     7.5014     0.0728     0.0026     0.0420     0.0026     0.0000     0.0000     0.0000     0.0000     0.0000 </r>
        <r>     7.5968     0.0545     0.0024     0.0076     0.0024     0.0000     0.0000     0.0000     0.0000     0.0000 </r>
        <r>     7.6922     0.0091     0.0004     0.0005     0.0004     0.0000     0.0000     0.0000     0.0000     0.0000 </r>
        <r>     7.7876     0.0233     0.0008     0.0190     0.0007     0.0000     0.0000     0.0000     0.0000     0.0000 </r>
        <r>     7.8830     0.0760     0.0238     0.0604     0.0197     0.0000     0.0000     0.0000     0.0000     0.0000 </r>
        <r>     7.9784     0.1149     0.0418     0.0690     0.0338     0.0000     0.0000     0.0000     0.0000     0.0000 </r>
        <r>     8.0738     0.0316     0.0057     0.0453     0.0055     0.0000     0.0000     0.0000     0.0000     0.0000 </r>
        <r>     8.1692     0.1240     0.0113     0.1122     0.0113     0.0000     0.0000     0.0000     0.0000     0.0000 </r>
        <r>     8.2646     0.0770     0.0059     0.0538     0.0056     0.0000     0.0000     0.0000     0.0000     0.0000 </r>
        <r>     8.3599     0.1459     0.0362     0.0868     0.0161     0.0000     0.0000     0.0000     0.0000     0.0000 </r>
        <r>     8.4553     0.0950     0.0399     0.0961     0.0332     0.0000     0.0000     0.0000     0.0000     0.0000 </r>
        <r>     8.5507     0.0355     0.0098     0.0221     0.0103     0.0000     0.0000     0.0000     0.0000     0.0000 </r>
        <r>     8.6461     0.0357     0.0181     0.0243     0.0104     0.0000     0.0000     0.0000     0.0000     0.0000 </r>
        <r>     8.7415     0.1089     0.0081     0.0650     0.0040     0.0000     0.0000     0.0000     0.0000     0.0000 </r>
        <r>     8.8369     0.0376     0.0176     0.0304     0.0101     0.0000     0.0000     0.0000     0.0000     0.0000 </r>
        <r>     8.9323     0.1246     0.0630     0.1055     0.0465     0.0000     0.0000     0.0000     0.0000     0.0000 </r>
        <r>     9.0277     0.0285     0.0246     0.0378     0.0265     0.0000     0.0000     0.0000     0.0000     0.0000 </r>
        <r>     9.1231     0.1147     0.0386     0.0865     0.0469     0.0000     0.0000     0.0000     0.0000     0.0000 </r>
        <r>     9.2185     0.0236     0.0550     0.0242     0.0418     0.0000     0.0000     0.0000     0.0000     0.0000 </r>
        <r>     9.3139     0.0117     0.0126     0.0158     0.0124     0.0000     0.0000     0.0000     0.0000     0.0000 </r>
        <r>     9.4093     0.0170     0.0110     0.0283     0.0110     0.0000     0.0000     0.0000     0.0000     0.0000 </r>
        <r>     9.5047     0.0069     0.0161     0.0166     0.0162     0.0000     0.0000     0.0000     0.0000     0.0000 </r>
        <r>     9.6001     0.0899     0.1074     0.0780     0.1143     0.0000     0.0000     0.0000     0.0000     0.0000 </r>
        <r>     9.6955     0.0860     0.0743     0.0686     0.0779     0.0000     0.0000     0.0000     0.0000     0.0000 </r>
        <r>     9.7909     0.1013     0.1217     0.0377     0.1218     0.0000     0.0000     0.0000     0.0000     0.0000 </r>
        <r>     9.8863     0.0254     0.0511     0.0406     0.0513     0.0000     0.0000     0.0000     0.0000     0.0000 </r>
        <r>     9.9816     0.0630     0.0362     0.0569     0.0632     0.0000     0.0000     0.0000     0.0000     0.0000 </r>
        <r>    10.0770     0.0436     0.0235     0.0142     0.0452     0.0000     0.0000     0.0000     0.0000     0.0000 </r>
        <r>    10.1724     0.0034     0.0114     0.0018     0.0113     0.0000     0.0000     0.0000     0.0000     0.0000 </r>
        <r>    10.2678     0.0093     0.0876     0.0054     0.0637     0.0000     0.0000     0.0000     0.0000     0.0000 </r>
        <r>    10.3632     0.0244     0.1300     0.0130     0.0323     0.0000     0.0000     0.0000     0.0000     0.0000 </r>
        <r>    10.4586     0.0561     0.0382     0.0196     0.0108     0.0000     0.0000     0.0000     0.0000     0.0000 </r>
        <r>    10.5540     0.0210     0.0507     0.0105     0.0504     0.0000     0.0000     0.0000     0.0000     0.0000 </r>
        <r>    10.6494     0.0156     0.1409     0.0186     0.1246     0.0000     0.0000     0.0000     0.0000     0.0000 </r>
        <r>    10.7448     0.0487     0.0301     0.0163     0.0196     0.0000     0.0000     0.0000     0.0000     0.0000 </r>
        <r>    10.8402     0.0368     0.0110     0.0122     0.0110     0.0000     0.0000     0.0000     0.0000     0.0000 </r>
        <r>    10.9356     0.0139     0.0148     0.0127     0.0148     0.0000     0.0000     0.0000     0.0000     0.0000 </r>
        <r>    11.0310     0.0002     0.0299     0.0002     0.0299     0.0000     0.0000     0.0000     0.0000     0.0000 </r>
        <r>    11.1264     0.0215     0.0167     0.0149     0.0180     0.0000     0.0000     0.0000     0.0000     0.0000 </r>
        <r>    11.2218     0.0933     0.0468     0.0910     0.0612     0.0000     0.0000     0.0000     0.0000     0.0000 </r>
        <r>    11.3172     0.0141     0.0059     0.0190     0.0057     0.0000     0.0000     0.0000     0.0000     0.0000 </r>
        <r>    11.4126     0.0582     0.0373     0.0361     0.0356     0.0000     0.0000     0.0000     0.0000     0.0000 </r>
        <r>    11.5080     0.0761     0.0429     0.0534     0.0679     0.0000     0.0000     0.0000     0.0000     0.0000 </r>
        <r>    11.6034     0.0498     0.0318     0.0495     0.0330     0.0000     0.0000     0.0000     0.0000     0.0000 </r>
        <r>    11.6987     0.0671     0.1210     0.0274     0.1287     0.0000     0.0000     0.0000     0.0000     0.0000 </r>
        <r>    11.7941     0.0106     0.0411     0.0028     0.0435     0.0000     0.0000     0.0000     0.0000     0.0000 </r>
        <r>    11.8895     0.0233     0.0173     0.0168     0.0160     0.0000     0.0000     0.0000     0.0000     0.0000 </r>
        <r>    11.9849     0.0778     0.0996     0.0528     0.0898     0.0000     0.0000     0.0000     0.0000     0.0000 </r>
        <r>    12.0803     0.0112     0.0314     0.0140     0.0320     0.0000     0.0000     0.0000     0.0000     0.0000 </r>
        <r>    12.1757     0.0576     0.1662     0.0704     0.1854     0.0000     0.0000     0.0000     0.0000     0.0000 </r>
        <r>    12.2711     0.0303     0.0510     0.0191     0.0534     0.0000     0.0000     0.0000     0.0000     0.0000 </r>
        <r>    12.3665     0.0318     0.0188     0.0102     0.0189     0.0000     0.0000     0.0000     0.0000     0.0000 </r>
        <r>    12.4619     0.0311     0.0262     0.0174     0.0262     0.0000     0.0000     0.0000     0.0000     0.0000 </r>
        <r>    12.5573     0.0314     0.0735     0.0189     0.0735     0.0000     0.0000     0.0000     0.0000     0.0000 </r>
        <r>    12.6527     0.0010     0.0065     0.0002     0.0065     0.0000     0.0000     0.0000     0.0000     0.0000 </r>
        <r>    12.7481     0.0082     0.0075     0.0005     0.0075     0.0000     0.0000     0.0000     0.0000     0.0000 </r>
        <r>    12.8435     0.0011     0.0004     0.0001     0.0004     0.0000     0.0000     0.0000     0.0000     0.0000 </r>
        <r>    12.9389     0.0000     0.0000     0.0000     0.0000     0.0000     0.0000     0.0000     0.0000     0.0000 </r>
        <r>    13.0343     0.0041     0.0017     0.0017     0.0017     0.0000     0.0000     0.0000     0.0000     0.0000 </r>
        <r>    13.1297     0.0316     0.0135     0.0133     0.0135     0.0000     0.0000     0.0000     0.0000     0.0000 </r>
        <r>    13.2251     0.0228     0.0311     0.0167     0.0348     0.0000     0.0000     0.0000     0.0000     0.0000 </r>
        <r>    13.3204     0.0281     0.0417     0.0194     0.0717     0.0000     0.0000     0.0000     0.0000     0.0000 </r>
        <r>    13.4158     0.0153     0.0495     0.0081     0.0141     0.0000     0.0000     0.0000     0.0000     0.0000 </r>
        <r>    13.5112     0.0005     0.0023     0.0018     0.0032     0.0000     0.0000     0.0000     0.0000     0.0000 </r>
        <r>    13.6066     0.0042     0.0134     0.0098     0.0145     0.0000     0.0000     0.0000     0.0000     0.0000 </r>
        <r>    13.7020     0.0735     0.0705     0.1001     0.0914     0.0000     0.0000     0.0000     0.0000     0.0000 </r>
        <r>    13.7974     0.1105     0.0903     0.1027     0.0827     0.0000     0.0000     0.0000     0.0000     0.0000 </r>
        <r>    13.8928     0.0029     0.0260     0.0037     0.0257     0.0000     0.0000     0.0000     0.0000     0.0000 </r>
        <r>    13.9882     0.0044     0.0017     0.0023     0.0014     0.0000     0.0000     0.0000     0.0000     0.0000 </r>
        <r>    14.0836     0.0388     0.0168     0.0393     0.0090     0.0000     0.0000     0.0000     0.0000     0.0000 </r>
        <r>    14.1790     0.0432     0.0824     0.1142     0.0466     0.0000     0.0000     0.0000     0.0000     0.0000 </r>
        <r>    14.2744     0.0548     0.0643     0.1372     0.0359     0.0000     0.0000     0.0000     0.0000     0.0000 </r>
        <r>    14.3698     0.0614     0.0854     0.1139     0.1178     0.0000     0.0000     0.0000     0.0000     0.0000 </r>
        <r>    14.4652     0.0018     0.0487     0.0037     0.0522     0.0000     0.0000     0.0000     0.0000     0.0000 </r>
        <r>    14.5606     0.0167     0.0272     0.0116     0.0272     0.0000     0.0000     0.0000     0.0000     0.0000 </r>
        <r>    14.6560     0.0181     0.0813     0.0174     0.0817     0.0000     0.0000     0.0000     0.0000     0.0000 </r>
        <r>    14.7514     0.0381     0.0886     0.0773     0.1116     0.0000     0.0000     0.0000     0.0000     0.0000 </r>
        <r>    14.8468     0.0096     0.0235     0.0290     0.0361     0.0000     0.0000     0.0000     0.0000     0.0000 </r>
        <r>    14.9421     0.0000     0.0033     0.0038     0.0026     0.0000     0.0000     0.0000     0.0000     0.0000 </r>
        <r>    15.0375     0.0000     0.0014     0.0015     0.0010     0.0000     0.0000     0.0000     0.0000     0.0000 </r>
        <r>    15.1329     0.0001     0.0001     0.0002     0.0001     0.0000     0.0000     0.0000     0.0000     0.0000 </r>
        <r>    15.2283     0.0061     0.0064     0.0154     0.0064     0.0000     0.0000     0.0000     0.0000     0.0000 </r>
        <r>    15.3237     0.0126     0.0084     0.0244     0.0130     0.0000     0.0000     0.0000     0.0000     0.0000 </r>
        <r>    15.4191     0.0369     0.0182     0.0620     0.0375     0.0000     0.0000     0.0000     0.0000     0.0000 </r>
        <r>    15.5145     0.0017     0.0011     0.0031     0.0019     0.0000     0.0000     0.0000     0.0000     0.0000 </r>
        <r>    15.6099     0.0028     0.0119     0.0161     0.0123     0.0000     0.0000     0.0000     0.0000     0.0000 </r>
        <r>    15.7053     0.0013     0.0055     0.0075     0.0057     0.0000     0.0000     0.0000     0.0000     0.0000 </r>
        <r>    15.8007     0.0000     0.0000     0.0000     0.0000     0.0000     0.0000     0.0000     0.0000     0.0000 </r>
        <r>    15.8961     0.0000     0.0000     0.0000     0.0000     0.0000     0.0000     0.0000     0.0000     0.0000 </r>
        <r>    15.9915     0.0000     0.0000     0.0000     0.0000     0.0000     0.0000     0.0000     0.0000     0.0000 </r>
        <r>    16.0869     0.0000     0.0000     0.0000     0.0000     0.0000     0.0000     0.0000     0.0000     0.0000 </r>
        <r>    16.1823     0.0000     0.0000     0.0000     0.0000     0.0000     0.0000     0.0000     0.0000     0.0000 </r>
        <r>    16.2777     0.0000     0.0000     0.0000     0.0000     0.0000     0.0000     0.0000     0.0000     0.0000 </r>
        <r>    16.3731     0.0000     0.0020     0.0000     0.0024     0.0000     0.0000     0.0000     0.0000     0.0000 </r>
        <r>    16.4685     0.0001     0.0078     0.0003     0.0092     0.0000     0.0000     0.0000     0.0000     0.0000 </r>
        <r>    16.5638     0.0112     0.0265     0.0427     0.0255     0.0000     0.0000     0.0000     0.0000     0.0000 </r>
        <r>    16.6592     0.0326     0.0390     0.0569     0.0352     0.0000     0.0000     0.0000     0.0000     0.0000 </r>
        <r>    16.7546     0.0012     0.0007     0.0008     0.0005     0.0000     0.0000     0.0000     0.0000     0.0000 </r>
        <r>    16.8500     0.0000     0.0000     0.0000     0.0000     0.0000     0.0000     0.0000     0.0000     0.0000 </r>
        <r>    16.9454     0.0000     0.0002     0.0002     0.0005     0.0000     0.0000     0.0000     0.0000     0.0000 </r>
        <r>    17.0408     0.0001     0.0145     0.0111     0.0344     0.0000     0.0000     0.0000     0.0000     0.0000 </r>
        <r>    17.1362     0.0014     0.0143     0.0125     0.0232     0.0000     0.0000     0.0000     0.0000     0.0000 </r>
        <r>    17.2316     0.0123     0.0340     0.0519     0.0304     0.0000     0.0000     0.0000     0.0000     0.0000 </r>
        <r>    17.3270     0.0013     0.0037     0.0056     0.0033     0.0000     0.0000     0.0000     0.0000     0.0000 </r>
        <r>    17.4224     0.0000     0.0005     0.0000     0.0001     0.0000     0.0000     0.0000     0.0000     0.0000 </r>
        <r>    17.5178     0.0000     0.0007     0.0000     0.0001     0.0000     0.0000     0.0000     0.0000     0.0000 </r>
        <r>    17.6132     0.0000     0.0000     0.0000     0.0000     0.0000     0.0000     0.0000     0.0000     0.0000 </r>
        <r>    17.7086     0.0000     0.0000     0.0000     0.0000     0.0000     0.0000     0.0000     0.0000     0.0000 </r>
        <r>    17.8040     0.0000     0.0000     0.0000     0.0000     0.0000     0.0000     0.0000     0.0000     0.0000 </r>
        <r>    17.8994     0.0000     0.0000     0.0000     0.0000     0.0000     0.0000     0.0000     0.0000     0.0000 </r>
        <r>    17.9948     0.0000     0.0000     0.0000     0.0000     0.0000     0.0000     0.0000     0.0000     0.0000 </r>
        <r>    18.0902     0.0000     0.0000     0.0000     0.0000     0.0000     0.0000     0.0000     0.0000     0.0000 </r>
        <r>    18.1855     0.0000     0.0000     0.0000     0.0000     0.0000     0.0000     0.0000     0.0000     0.0000 </r>
        <r>    18.2809     0.0000     0.0000     0.0000     0.0000     0.0000     0.0000     0.0000     0.0000     0.0000 </r>
        <r>    18.3763     0.0000     0.0000     0.0000     0.0000     0.0000     0.0000     0.0000     0.0000     0.0000 </r>
        <r>    18.4717     0.0000     0.0000     0.0000     0.0000     0.0000     0.0000     0.0000     0.0000     0.0000 </r>
        <r>    18.5671     0.0000     0.0000     0.0000     0.0000     0.0000     0.0000     0.0000     0.0000     0.0000 </r>
        <r>    18.6625     0.0000     0.0000     0.0000     0.0000     0.0000     0.0000     0.0000     0.0000     0.0000 </r>
        <r>    18.7579     0.0000     0.0000     0.0000     0.0000     0.0000     0.0000     0.0000     0.0000     0.0000 </r>
        <r>    18.8533     0.0000     0.0000     0.0000     0.0000     0.0000     0.0000     0.0000     0.0000     0.0000 </r>
        <r>    18.9487     0.0000     0.0000     0.0000     0.0000     0.0000     0.0000     0.0000     0.0000     0.0000 </r>
        <r>    19.0441     0.0000     0.0000     0.0000     0.0000     0.0000     0.0000     0.0000     0.0000     0.0000 </r>
        <r>    19.1395     0.0000     0.0000     0.0000     0.0000     0.0000     0.0000     0.0000     0.0000     0.0000 </r>
        <r>    19.2349     0.0000     0.0000     0.0000     0.0000     0.0000     0.0000     0.0000     0.0000     0.0000 </r>
        <r>    19.3303     0.0000     0.0000     0.0000     0.0000     0.0000     0.0000     0.0000     0.0000     0.0000 </r>
        <r>    19.4257     0.0000     0.0000     0.0000     0.0000     0.0000     0.0000     0.0000     0.0000     0.0000 </r>
       </set>
      </set>
     </set>
    </array>
   </partial>
  </dos>
  <projected>
   <eigenvalues>
    <array>
     <dimension dim="1">band</dimension>
     <dimension dim="2">kpoint</dimension>
     <dimension dim="3">spin</dimension>
     <field>eigene</field>
     <field>occ</field>
     <set>
      <set comment="spin 1">
       <set comment="kpoint 1">
        <r>   -7.8918    1.0000 </r>
        <r>    5.2533    1.0000 </r>
        <r>    5.2533    1.0000 </r>
        <r>    5.2533    1.0000 </r>
        <r>    8.5814    0.0000 </r>
        <r>    8.5814    0.0000 </r>
        <r>    8.5814    0.0000 </r>
        <r>    9.3233    0.0000 </r>
        <r>   13.9720    0.0000 </r>
       </set>
       <set comment="kpoint 2">
        <r>   -7.6695    1.0000 </r>
        <r>    3.5652    1.0000 </r>
        <r>    4.9591    1.0000 </r>
        <r>    4.9591    1.0000 </r>
        <r>    8.4712    0.0000 </r>
        <r>    9.0209    0.0000 </r>
        <r>    9.0209    0.0000 </r>
        <r>   10.7357    0.0000 </r>
        <r>   13.5149    0.0000 </r>
       </set>
       <set comment="kpoint 3">
        <r>   -7.0205    1.0000 </r>
        <r>    1.0000    1.0000 </r>
        <r>    4.4527    1.0000 </r>
        <r>    4.4527    1.0000 </r>
        <r>    7.9515    0.0000 </r>
        <r>    9.5781    0.0000 </r>
        <r>    9.5781    0.0000 </r>
        <r>   13.0779    0.0000 </r>
        <r>   13.4607    0.0000 </r>
       </set>
       <set comment="kpoint 4">
        <r>   -6.0470    1.0000 </r>
        <r>   -1.2385    1.0000 </r>
        <r>    4.0878    1.0000 </r>
        <r>    4.0878    1.0000 </r>
        <r>    7.5607    0.0000 </r>
        <r>    9.5294    0.0000 </r>
        <r>    9.5294    0.0000 </r>
        <r>   14.0368    0.0000 </r>
        <r>   14.9224    0.0000 </r>
       </set>
       <set comment="kpoint 5">
        <r>   -5.3558    1.0000 </r>
        <r>   -2.3634    1.0000 </r>
        <r>    3.9611    1.0000 </r>
        <r>    3.9611    1.0000 </r>
        <r>    7.4238    0.0000 </r>
        <r>    9.4144    0.0000 </r>
        <r>    9.4144    0.0000 </r>
        <r>   13.8585    0.0000 </r>
        <r>   17.0130    0.0000 </r>
       </set>
       <set comment="kpoint 6">
        <r>   -7.5945    1.0000 </r>
        <r>    3.8289    1.0000 </r>
        <r>    4.4243    1.0000 </r>
        <r>    4.4243    1.0000 </r>
        <r>    7.9766    0.0000 </r>
        <r>    9.7604    0.0000 </r>
        <r>    9.7604    0.0000 </r>
        <r>   10.4170    0.0000 </r>
        <r>   12.7050    0.0000 </r>
       </set>
       <set comment="kpoint 7">
        <r>   -7.0836    1.0000 </r>
        <r>    1.7629    1.0000 </r>
        <r>    3.8667    1.0000 </r>
        <r>    3.9636    1.0000 </r>
        <r>    8.0885    0.0000 </r>
        <r>    9.7591    0.0000 </r>
        <r>   10.5812    0.0000 </r>
        <r>   10.8498    0.0000 </r>
        <r>   13.7179    0.0000 </r>
       </set>
       <set comment="kpoint 8">
        <r>   -6.1950    1.0000 </r>
        <r>   -0.5138    1.0000 </r>
        <r>    3.3251    1.0000 </r>
        <r>    3.5636    1.0000 </r>
        <r>    8.1856    0.0000 </r>
        <r>    9.6917    0.0000 </r>
        <r>   10.5889    0.0000 </r>
        <r>   11.6126    0.0000 </r>
        <r>   15.5928    0.0000 </r>
       </set>
       <set comment="kpoint 9">
        <r>   -5.2587    1.0000 </r>
        <r>   -2.1260    1.0000 </r>
        <r>    2.8370    1.0000 </r>
        <r>    3.5800    1.0000 </r>
        <r>    8.1342    0.0000 </r>
        <r>    9.5436    0.0000 </r>
        <r>   10.2129    0.0000 </r>
        <r>   13.6221    0.0000 </r>
        <r>   15.2176    0.0000 </r>
       </set>
       <set comment="kpoint 10">
        <r>   -5.5237    1.0000 </r>
        <r>   -1.7192    1.0000 </r>
        <r>    2.6422    1.0000 </r>
        <r>    3.8965    1.0000 </r>
        <r>    8.3099    0.0000 </r>
        <r>    9.6527    0.0000 </r>
        <r>    9.9777    0.0000 </r>
        <r>   14.1591    0.0000 </r>
        <r>   14.4101    0.0000 </r>
       </set>
       <set comment="kpoint 11">
        <r>   -6.5290    1.0000 </r>
        <r>    0.2144    1.0000 </r>
        <r>    2.8181    1.0000 </r>
        <r>    4.4265    1.0000 </r>
        <r>    8.6926    0.0000 </r>
        <r>    9.7842    0.0000 </r>
        <r>    9.8886    0.0000 </r>
        <r>   12.4657    0.0000 </r>
        <r>   12.6911    0.0000 </r>
       </set>
       <set comment="kpoint 12">
        <r>   -7.3031    1.0000 </r>
        <r>    2.3558    1.0000 </r>
        <r>    3.5712    1.0000 </r>
        <r>    4.9397    1.0000 </r>
        <r>    9.0663    0.0000 </r>
        <r>    9.1911    0.0000 </r>
        <r>    9.3243    0.0000 </r>
        <r>   11.6648    0.0000 </r>
        <r>   12.5562    0.0000 </r>
       </set>
       <set comment="kpoint 13">
        <r>   -6.7119    1.0000 </r>
        <r>    1.4128    1.0000 </r>
        <r>    3.2436    1.0000 </r>
        <r>    3.2436    1.0000 </r>
        <r>    7.0293    0.0000 </r>
        <r>    9.1595    0.0000 </r>
        <r>   11.9550    0.0000 </r>
        <r>   11.9550    0.0000 </r>
        <r>   14.2730    0.0000 </r>
       </set>
       <set comment="kpoint 14">
        <r>   -5.9362    1.0000 </r>
        <r>   -0.1644    1.0000 </r>
        <r>    2.4208    1.0000 </r>
        <r>    2.8890    1.0000 </r>
        <r>    7.2548    0.0000 </r>
        <r>    8.9015    0.0000 </r>
        <r>   12.1838    0.0000 </r>
        <r>   12.5032    0.0000 </r>
        <r>   16.4026    0.0000 </r>
       </set>
       <set comment="kpoint 15">
        <r>   -4.9256    1.0000 </r>
        <r>   -1.7507    1.0000 </r>
        <r>    1.4860    1.0000 </r>
        <r>    2.8869    1.0000 </r>
        <r>    7.4497    0.0000 </r>
        <r>   10.5271    0.0000 </r>
        <r>   11.9098    0.0000 </r>
        <r>   12.1385    0.0000 </r>
        <r>   16.5673    0.0000 </r>
       </set>
       <set comment="kpoint 16">
        <r>   -4.7045    1.0000 </r>
        <r>   -2.0321    1.0000 </r>
        <r>    0.9854    1.0000 </r>
        <r>    3.2315    1.0000 </r>
        <r>    7.7955    0.0000 </r>
        <r>   11.5654    0.0000 </r>
        <r>   11.6889    0.0000 </r>
        <r>   13.2103    0.0000 </r>
        <r>   14.3019    0.0000 </r>
       </set>
       <set comment="kpoint 17">
        <r>   -5.6624    1.0000 </r>
        <r>   -0.7557    1.0000 </r>
        <r>    1.2582    1.0000 </r>
        <r>    3.8356    1.0000 </r>
        <r>    8.4378    0.0000 </r>
        <r>   10.9783    0.0000 </r>
        <r>   11.1991    0.0000 </r>
        <r>   12.3248    0.0000 </r>
        <r>   12.6488    0.0000 </r>
       </set>
       <set comment="kpoint 18">
        <r>   -5.2759    1.0000 </r>
        <r>   -1.0638    1.0000 </r>
        <r>    2.4491    1.0000 </r>
        <r>    2.4491    1.0000 </r>
        <r>    6.4870    0.0000 </r>
        <r>    7.4820    0.0000 </r>
        <r>   14.3801    0.0000 </r>
        <r>   14.3801    0.0000 </r>
        <r>   16.8725    0.0000 </r>
       </set>
       <set comment="kpoint 19">
        <r>   -4.2924    1.0000 </r>
        <r>   -2.2654    1.0000 </r>
        <r>    1.5859    1.0000 </r>
        <r>    2.3628    1.0000 </r>
        <r>    6.7887    0.0000 </r>
        <r>    7.9067    0.0000 </r>
        <r>   14.6174    0.0000 </r>
        <r>   14.6762    0.0000 </r>
        <r>   17.1840    0.0000 </r>
       </set>
       <set comment="kpoint 20">
        <r>   -3.8174    1.0000 </r>
        <r>   -2.6980    1.0000 </r>
        <r>    0.6581    1.0000 </r>
        <r>    2.6445    1.0000 </r>
        <r>    7.1189    0.0000 </r>
        <r>   10.1936    0.0000 </r>
        <r>   13.8059    0.0000 </r>
        <r>   14.2806    0.0000 </r>
        <r>   14.5472    0.0000 </r>
       </set>
       <set comment="kpoint 21">
        <r>   -3.3532    1.0000 </r>
        <r>   -3.3532    1.0000 </r>
        <r>    2.1759    1.0000 </r>
        <r>    2.1759    1.0000 </r>
        <r>    6.5971    0.0000 </r>
        <r>    6.5971    0.0000 </r>
        <r>   16.5703    0.0000 </r>
        <r>   16.5703    0.0000 </r>
        <r>   17.4288    0.0000 </r>
       </set>
       <set comment="kpoint 22">
        <r>   -6.4421    1.0000 </r>
        <r>    0.5643    1.0000 </r>
        <r>    2.3892    1.0000 </r>
        <r>    3.7464    1.0000 </r>
        <r>    8.4078    0.0000 </r>
        <r>    9.9766    0.0000 </r>
        <r>   10.2576    0.0000 </r>
        <r>   11.6720    0.0000 </r>
        <r>   14.0549    0.0000 </r>
       </set>
       <set comment="kpoint 23">
        <r>   -5.4725    1.0000 </r>
        <r>   -1.1470    1.0000 </r>
        <r>    1.7164    1.0000 </r>
        <r>    3.2097    1.0000 </r>
        <r>    8.8694    0.0000 </r>
        <r>    9.5854    0.0000 </r>
        <r>   11.1527    0.0000 </r>
        <r>   12.1291    0.0000 </r>
        <r>   15.3552    0.0000 </r>
       </set>
       <set comment="kpoint 24">
        <r>   -4.7635    1.0000 </r>
        <r>   -2.1820    1.0000 </r>
        <r>    1.5693    1.0000 </r>
        <r>    2.9617    1.0000 </r>
        <r>    9.0697    0.0000 </r>
        <r>    9.1389    0.0000 </r>
        <r>   12.1067    0.0000 </r>
        <r>   13.3493    0.0000 </r>
        <r>   13.6811    0.0000 </r>
       </set>
       <set comment="kpoint 25">
        <r>   -5.0596    1.0000 </r>
        <r>   -1.3066    1.0000 </r>
        <r>    1.6712    1.0000 </r>
        <r>    2.3173    1.0000 </r>
        <r>    7.8750    0.0000 </r>
        <r>    8.6322    0.0000 </r>
        <r>   11.9336    0.0000 </r>
        <r>   14.3224    0.0000 </r>
        <r>   16.5930    0.0000 </r>
       </set>
       <set comment="kpoint 26">
        <r>   -4.1040    1.0000 </r>
        <r>   -2.3739    1.0000 </r>
        <r>    0.9187    1.0000 </r>
        <r>    2.1045    1.0000 </r>
        <r>    8.3492    0.0000 </r>
        <r>   10.3455    0.0000 </r>
        <r>   11.4395    0.0000 </r>
        <r>   13.7179    0.0000 </r>
        <r>   14.7377    0.0000 </r>
       </set>
       <set comment="kpoint 27">
        <r>   -4.4885    1.0000 </r>
        <r>   -1.9712    1.0000 </r>
        <r>    0.7382    1.0000 </r>
        <r>    2.5118    1.0000 </r>
        <r>    8.8560    0.0000 </r>
        <r>   10.6395    0.0000 </r>
        <r>   11.3563    0.0000 </r>
        <r>   13.2762    0.0000 </r>
        <r>   14.1937    0.0000 </r>
       </set>
       <set comment="kpoint 28">
        <r>   -3.2699    1.0000 </r>
        <r>   -3.2699    1.0000 </r>
        <r>    1.6067    1.0000 </r>
        <r>    1.6067    1.0000 </r>
        <r>    7.9067    0.0000 </r>
        <r>    7.9067    0.0000 </r>
        <r>   14.1474    0.0000 </r>
        <r>   14.1474    0.0000 </r>
        <r>   17.0276    0.0000 </r>
       </set>
       <set comment="kpoint 29">
        <r>   -3.1786    1.0000 </r>
        <r>   -3.1786    1.0000 </r>
        <r>    1.1491    1.0000 </r>
        <r>    1.1491    1.0000 </r>
        <r>   10.3156    0.0000 </r>
        <r>   10.3156    0.0000 </r>
        <r>   11.1673    0.0000 </r>
        <r>   11.1673    0.0000 </r>
        <r>   17.0377    0.0000 </r>
       </set>
       <set comment="kpoint 30">
        <r>   -7.8918    1.0000 </r>
        <r>    5.2533    1.0000 </r>
        <r>    5.2533    1.0000 </r>
        <r>    5.2533    1.0000 </r>
        <r>    8.5814    0.0000 </r>
        <r>    8.5814    0.0000 </r>
        <r>    8.5814    0.0000 </r>
        <r>    9.3233    0.0000 </r>
        <r>   13.9721    0.0000 </r>
       </set>
       <set comment="kpoint 31">
        <r>   -7.8810    1.0000 </r>
        <r>    5.1836    1.0000 </r>
        <r>    5.2118    1.0000 </r>
        <r>    5.2118    1.0000 </r>
        <r>    8.5540    0.0000 </r>
        <r>    8.6357    0.0000 </r>
        <r>    8.6357    0.0000 </r>
        <r>    9.3902    0.0000 </r>
        <r>   14.0191    0.0000 </r>
       </set>
       <set comment="kpoint 32">
        <r>   -7.8485    1.0000 </r>
        <r>    4.9878    1.0000 </r>
        <r>    5.0952    1.0000 </r>
        <r>    5.0952    1.0000 </r>
        <r>    8.4752    0.0000 </r>
        <r>    8.7906    0.0000 </r>
        <r>    8.7906    0.0000 </r>
        <r>    9.5752    0.0000 </r>
        <r>   13.7256    0.0000 </r>
       </set>
       <set comment="kpoint 33">
        <r>   -7.7945    1.0000 </r>
        <r>    4.6955    1.0000 </r>
        <r>    4.9222    1.0000 </r>
        <r>    4.9222    1.0000 </r>
        <r>    8.3531    0.0000 </r>
        <r>    9.0275    0.0000 </r>
        <r>    9.0275    0.0000 </r>
        <r>    9.8391    0.0000 </r>
        <r>   13.3861    0.0000 </r>
       </set>
       <set comment="kpoint 34">
        <r>   -7.7190    1.0000 </r>
        <r>    4.3367    1.0000 </r>
        <r>    4.7128    1.0000 </r>
        <r>    4.7128    1.0000 </r>
        <r>    8.1986    0.0000 </r>
        <r>    9.3260    0.0000 </r>
        <r>    9.3260    0.0000 </r>
        <r>   10.1296    0.0000 </r>
        <r>   13.0364    0.0000 </r>
       </set>
       <set comment="kpoint 35">
        <r>   -7.6221    1.0000 </r>
        <r>    3.9343    1.0000 </r>
        <r>    4.4833    1.0000 </r>
        <r>    4.4833    1.0000 </r>
        <r>    8.0227    0.0000 </r>
        <r>    9.6691    0.0000 </r>
        <r>    9.6691    0.0000 </r>
        <r>   10.3744    0.0000 </r>
        <r>   12.7534    0.0000 </r>
       </set>
       <set comment="kpoint 36">
        <r>   -7.5038    1.0000 </r>
        <r>    3.5036    1.0000 </r>
        <r>    4.2457    1.0000 </r>
        <r>    4.2457    1.0000 </r>
        <r>    7.8354    0.0000 </r>
        <r>   10.0446    0.0000 </r>
        <r>   10.0446    0.0000 </r>
        <r>   10.4731    0.0000 </r>
        <r>   12.6416    0.0000 </r>
       </set>
       <set comment="kpoint 37">
        <r>   -7.3643    1.0000 </r>
        <r>    3.0544    1.0000 </r>
        <r>    4.0081    1.0000 </r>
        <r>    4.0081    1.0000 </r>
        <r>    7.6445    0.0000 </r>
        <r>   10.3590    0.0000 </r>
        <r>   10.4441    0.0000 </r>
        <r>   10.4441    0.0000 </r>
        <r>   12.7720    0.0000 </r>
       </set>
       <set comment="kpoint 38">
        <r>   -7.2038    1.0000 </r>
        <r>    2.5931    1.0000 </r>
        <r>    3.7760    1.0000 </r>
        <r>    3.7760    1.0000 </r>
        <r>    7.4566    0.0000 </r>
        <r>   10.0816    0.0000 </r>
        <r>   10.8610    0.0000 </r>
        <r>   10.8610    0.0000 </r>
        <r>   13.0963    0.0000 </r>
       </set>
       <set comment="kpoint 39">
        <r>   -7.0224    1.0000 </r>
        <r>    2.1242    1.0000 </r>
        <r>    3.5536    1.0000 </r>
        <r>    3.5536    1.0000 </r>
        <r>    7.2765    0.0000 </r>
        <r>    9.7273    0.0000 </r>
        <r>   11.2912    0.0000 </r>
        <r>   11.2912    0.0000 </r>
        <r>   13.5290    0.0000 </r>
       </set>
       <set comment="kpoint 40">
        <r>   -6.8205    1.0000 </r>
        <r>    1.6506    1.0000 </r>
        <r>    3.3434    1.0000 </r>
        <r>    3.3434    1.0000 </r>
        <r>    7.1081    0.0000 </r>
        <r>    9.3489    0.0000 </r>
        <r>   11.7317    0.0000 </r>
        <r>   11.7318    0.0000 </r>
        <r>   14.0174    0.0000 </r>
       </set>
       <set comment="kpoint 41">
        <r>   -6.5982    1.0000 </r>
        <r>    1.1746    1.0000 </r>
        <r>    3.1476    1.0000 </r>
        <r>    3.1476    1.0000 </r>
        <r>    6.9544    0.0000 </r>
        <r>    8.9726    0.0000 </r>
        <r>   12.1800    0.0000 </r>
        <r>   12.1800    0.0000 </r>
        <r>   14.5339    0.0000 </r>
       </set>
       <set comment="kpoint 42">
        <r>   -6.3559    1.0000 </r>
        <r>    0.6983    1.0000 </r>
        <r>    2.9676    1.0000 </r>
        <r>    2.9676    1.0000 </r>
        <r>    6.8178    0.0000 </r>
        <r>    8.6116    0.0000 </r>
        <r>   12.6346    0.0000 </r>
        <r>   12.6346    0.0000 </r>
        <r>   15.0646    0.0000 </r>
       </set>
       <set comment="kpoint 43">
        <r>   -6.0940    1.0000 </r>
        <r>    0.2233    1.0000 </r>
        <r>    2.8044    1.0000 </r>
        <r>    2.8044    1.0000 </r>
        <r>    6.7002    0.0000 </r>
        <r>    8.2727    0.0000 </r>
        <r>   13.0943    0.0000 </r>
        <r>   13.0945    0.0000 </r>
        <r>   15.5999    0.0000 </r>
       </set>
       <set comment="kpoint 44">
        <r>   -5.8128    1.0000 </r>
        <r>   -0.2489    1.0000 </r>
        <r>    2.6590    1.0000 </r>
        <r>    2.6590    1.0000 </r>
        <r>    6.6031    0.0000 </r>
        <r>    7.9598    0.0000 </r>
        <r>   13.5586    0.0000 </r>
        <r>   13.5588    0.0000 </r>
        <r>   16.1334    0.0000 </r>
       </set>
       <set comment="kpoint 45">
        <r>   -5.5128    1.0000 </r>
        <r>   -0.7167    1.0000 </r>
        <r>    2.5320    1.0000 </r>
        <r>    2.5320    1.0000 </r>
        <r>    6.5281    0.0000 </r>
        <r>    7.6757    0.0000 </r>
        <r>   14.0268    0.0000 </r>
        <r>   14.0268    0.0000 </r>
        <r>   16.6595    0.0000 </r>
       </set>
       <set comment="kpoint 46">
        <r>   -5.1946    1.0000 </r>
        <r>   -1.1787    1.0000 </r>
        <r>    2.4238    1.0000 </r>
        <r>    2.4238    1.0000 </r>
        <r>    6.4762    0.0000 </r>
        <r>    7.4211    0.0000 </r>
        <r>   14.4983    0.0000 </r>
        <r>   14.4983    0.0000 </r>
        <r>   17.1362    0.0000 </r>
       </set>
       <set comment="kpoint 47">
        <r>   -4.8587    1.0000 </r>
        <r>   -1.6334    1.0000 </r>
        <r>    2.3349    1.0000 </r>
        <r>    2.3349    1.0000 </r>
        <r>    6.4485    0.0000 </r>
        <r>    7.1966    0.0000 </r>
        <r>   14.9719    0.0000 </r>
        <r>   14.9720    0.0000 </r>
        <r>   17.3339    0.0000 </r>
       </set>
       <set comment="kpoint 48">
        <r>   -4.5059    1.0000 </r>
        <r>   -2.0796    1.0000 </r>
        <r>    2.2655    1.0000 </r>
        <r>    2.2655    1.0000 </r>
        <r>    6.4459    0.0000 </r>
        <r>    7.0023    0.0000 </r>
        <r>   15.4453    0.0000 </r>
        <r>   15.4453    0.0000 </r>
        <r>   17.7303    0.0000 </r>
       </set>
       <set comment="kpoint 49">
        <r>   -4.1367    1.0000 </r>
        <r>   -2.5157    1.0000 </r>
        <r>    2.2158    1.0000 </r>
        <r>    2.2158    1.0000 </r>
        <r>    6.4692    0.0000 </r>
        <r>    6.8379    0.0000 </r>
        <r>   15.9108    0.0000 </r>
        <r>   15.9108    0.0000 </r>
        <r>   18.1248    0.0000 </r>
       </set>
       <set comment="kpoint 50">
        <r>   -3.7522    1.0000 </r>
        <r>   -2.9406    1.0000 </r>
        <r>    2.1859    1.0000 </r>
        <r>    2.1859    1.0000 </r>
        <r>    6.5194    0.0000 </r>
        <r>    6.7030    0.0000 </r>
        <r>   16.3389    0.0000 </r>
        <r>   16.3394    0.0000 </r>
        <r>   17.6672    0.0000 </r>
       </set>
       <set comment="kpoint 51">
        <r>   -3.3532    1.0000 </r>
        <r>   -3.3532    1.0000 </r>
        <r>    2.1759    1.0000 </r>
        <r>    2.1759    1.0000 </r>
        <r>    6.5971    0.0000 </r>
        <r>    6.5971    0.0000 </r>
        <r>   16.5703    0.0000 </r>
        <r>   16.5747    0.0000 </r>
        <r>   17.4288    0.0000 </r>
       </set>
       <set comment="kpoint 52">
        <r>   -3.3532    1.0000 </r>
        <r>   -3.3532    1.0000 </r>
        <r>    2.1759    1.0000 </r>
        <r>    2.1759    1.0000 </r>
        <r>    6.5971    0.0000 </r>
        <r>    6.5971    0.0000 </r>
        <r>   16.5703    0.0000 </r>
        <r>   16.5747    0.0000 </r>
        <r>   17.4288    0.0000 </r>
       </set>
       <set comment="kpoint 53">
        <r>   -3.3493    1.0000 </r>
        <r>   -3.3492    1.0000 </r>
        <r>    2.1437    1.0000 </r>
        <r>    2.1437    1.0000 </r>
        <r>    6.6585    0.0000 </r>
        <r>    6.6586    0.0000 </r>
        <r>   16.4572    0.0000 </r>
        <r>   16.4581    0.0000 </r>
        <r>   17.2932    0.0000 </r>
       </set>
       <set comment="kpoint 54">
        <r>   -3.3378    1.0000 </r>
        <r>   -3.3378    1.0000 </r>
        <r>    2.0535    1.0000 </r>
        <r>    2.0535    1.0000 </r>
        <r>    6.8368    0.0000 </r>
        <r>    6.8368    0.0000 </r>
        <r>   16.0747    0.0000 </r>
        <r>   16.0752    0.0000 </r>
        <r>   17.1271    0.0000 </r>
       </set>
       <set comment="kpoint 55">
        <r>   -3.3197    1.0000 </r>
        <r>   -3.3197    1.0000 </r>
        <r>    1.9213    1.0000 </r>
        <r>    1.9213    1.0000 </r>
        <r>    7.1164    0.0000 </r>
        <r>    7.1164    0.0000 </r>
        <r>   15.4930    0.0000 </r>
        <r>   15.4933    0.0000 </r>
        <r>   17.0579    0.0000 </r>
       </set>
       <set comment="kpoint 56">
        <r>   -3.2964    1.0000 </r>
        <r>   -3.2964    1.0000 </r>
        <r>    1.7664    1.0000 </r>
        <r>    1.7664    1.0000 </r>
        <r>    7.4787    0.0000 </r>
        <r>    7.4787    0.0000 </r>
        <r>   14.8327    0.0000 </r>
        <r>   14.8327    0.0000 </r>
        <r>   17.0342    0.0000 </r>
       </set>
       <set comment="kpoint 57">
        <r>   -3.2699    1.0000 </r>
        <r>   -3.2699    1.0000 </r>
        <r>    1.6067    1.0000 </r>
        <r>    1.6067    1.0000 </r>
        <r>    7.9067    0.0000 </r>
        <r>    7.9067    0.0000 </r>
        <r>   14.1474    0.0000 </r>
        <r>   14.1474    0.0000 </r>
        <r>   17.0277    0.0000 </r>
       </set>
       <set comment="kpoint 58">
        <r>   -3.2426    1.0000 </r>
        <r>   -3.2426    1.0000 </r>
        <r>    1.4570    1.0000 </r>
        <r>    1.4570    1.0000 </r>
        <r>    8.3864    0.0000 </r>
        <r>    8.3864    0.0000 </r>
        <r>   13.4591    0.0000 </r>
        <r>   13.4591    0.0000 </r>
        <r>   17.0280    0.0000 </r>
       </set>
       <set comment="kpoint 59">
        <r>   -3.2173    1.0000 </r>
        <r>   -3.2173    1.0000 </r>
        <r>    1.3289    1.0000 </r>
        <r>    1.3289    1.0000 </r>
        <r>    8.9055    0.0000 </r>
        <r>    8.9055    0.0000 </r>
        <r>   12.7799    0.0000 </r>
        <r>   12.7799    0.0000 </r>
        <r>   17.0311    0.0000 </r>
       </set>
       <set comment="kpoint 60">
        <r>   -3.1967    1.0000 </r>
        <r>   -3.1967    1.0000 </r>
        <r>    1.2311    1.0000 </r>
        <r>    1.2311    1.0000 </r>
        <r>    9.4502    0.0000 </r>
        <r>    9.4502    0.0000 </r>
        <r>   12.1223    0.0000 </r>
        <r>   12.1223    0.0000 </r>
        <r>   17.0344    0.0000 </r>
       </set>
       <set comment="kpoint 61">
        <r>   -3.1833    1.0000 </r>
        <r>   -3.1832    1.0000 </r>
        <r>    1.1699    1.0000 </r>
        <r>    1.1699    1.0000 </r>
        <r>    9.9880    0.0000 </r>
        <r>    9.9880    0.0000 </r>
        <r>   11.5173    0.0000 </r>
        <r>   11.5173    0.0000 </r>
        <r>   17.0368    0.0000 </r>
       </set>
       <set comment="kpoint 62">
        <r>   -3.1786    1.0000 </r>
        <r>   -3.1786    1.0000 </r>
        <r>    1.1491    1.0000 </r>
        <r>    1.1491    1.0000 </r>
        <r>   10.3156    0.0000 </r>
        <r>   10.3156    0.0000 </r>
        <r>   11.1673    0.0000 </r>
        <r>   11.1673    0.0000 </r>
        <r>   17.0377    0.0000 </r>
       </set>
       <set comment="kpoint 63">
        <r>   -3.1786    1.0000 </r>
        <r>   -3.1786    1.0000 </r>
        <r>    1.1491    1.0000 </r>
        <r>    1.1491    1.0000 </r>
        <r>   10.3156    0.0000 </r>
        <r>   10.3156    0.0000 </r>
        <r>   11.1673    0.0000 </r>
        <r>   11.1673    0.0000 </r>
        <r>   17.0377    0.0000 </r>
       </set>
       <set comment="kpoint 64">
        <r>   -3.4197    1.0000 </r>
        <r>   -2.9429    1.0000 </r>
        <r>    0.9921    1.0000 </r>
        <r>    1.3432    1.0000 </r>
        <r>   10.1111    0.0000 </r>
        <r>   10.4014    0.0000 </r>
        <r>   11.0808    0.0000 </r>
        <r>   11.4147    0.0000 </r>
        <r>   16.5514    0.0000 </r>
       </set>
       <set comment="kpoint 65">
        <r>   -3.6589    1.0000 </r>
        <r>   -2.7225    1.0000 </r>
        <r>    0.8836    1.0000 </r>
        <r>    1.5653    1.0000 </r>
        <r>    9.8920    0.0000 </r>
        <r>   10.2753    0.0000 </r>
        <r>   11.2472    0.0000 </r>
        <r>   11.7191    0.0000 </r>
        <r>   15.9456    0.0000 </r>
       </set>
       <set comment="kpoint 66">
        <r>   -3.8909    1.0000 </r>
        <r>   -2.5289    1.0000 </r>
        <r>    0.8361    1.0000 </r>
        <r>    1.8074    1.0000 </r>
        <r>    9.6881    0.0000 </r>
        <r>   10.0591    0.0000 </r>
        <r>   11.5438    0.0000 </r>
        <r>   12.0514    0.0000 </r>
        <r>   15.2720    0.0000 </r>
       </set>
       <set comment="kpoint 67">
        <r>   -4.1119    1.0000 </r>
        <r>   -2.3737    1.0000 </r>
        <r>    0.8616    1.0000 </r>
        <r>    2.0624    1.0000 </r>
        <r>    9.5093    0.0000 </r>
        <r>    9.8282    0.0000 </r>
        <r>   11.8942    0.0000 </r>
        <r>   12.4017    0.0000 </r>
        <r>   14.5654    0.0000 </r>
       </set>
       <set comment="kpoint 68">
        <r>   -4.3189    1.0000 </r>
        <r>   -2.2648    1.0000 </r>
        <r>    0.9681    1.0000 </r>
        <r>    2.3237    1.0000 </r>
        <r>    9.3605    0.0000 </r>
        <r>    9.6014    0.0000 </r>
        <r>   12.2777    0.0000 </r>
        <r>   12.7645    0.0000 </r>
        <r>   13.8491    0.0000 </r>
       </set>
       <set comment="kpoint 69">
        <r>   -4.5099    1.0000 </r>
        <r>   -2.2028    1.0000 </r>
        <r>    1.1556    1.0000 </r>
        <r>    2.5848    1.0000 </r>
        <r>    9.2450    0.0000 </r>
        <r>    9.3831    0.0000 </r>
        <r>   12.6859    0.0000 </r>
        <r>   13.1340    0.0000 </r>
        <r>   13.1402    0.0000 </r>
       </set>
       <set comment="kpoint 70">
        <r>   -4.6836    1.0000 </r>
        <r>   -2.1811    1.0000 </r>
        <r>    1.4159    1.0000 </r>
        <r>    2.8391    1.0000 </r>
        <r>    9.1649    0.0000 </r>
        <r>    9.1728    0.0000 </r>
        <r>   12.4418    0.0000 </r>
        <r>   13.1303    0.0000 </r>
        <r>   13.5030    0.0000 </r>
       </set>
       <set comment="kpoint 71">
        <r>   -4.8387    1.0000 </r>
        <r>   -2.1888    1.0000 </r>
        <r>    1.7357    1.0000 </r>
        <r>    3.0800    1.0000 </r>
        <r>    8.9668    0.0000 </r>
        <r>    9.1221    0.0000 </r>
        <r>   11.7803    0.0000 </r>
        <r>   13.5804    0.0000 </r>
        <r>   13.8536    0.0000 </r>
       </set>
       <set comment="kpoint 72">
        <r>   -4.9744    1.0000 </r>
        <r>   -2.2145    1.0000 </r>
        <r>    2.0997    1.0000 </r>
        <r>    3.3011    1.0000 </r>
        <r>    8.7577    0.0000 </r>
        <r>    9.1160    0.0000 </r>
        <r>   11.1640    0.0000 </r>
        <r>   14.0556    0.0000 </r>
        <r>   14.1569    0.0000 </r>
       </set>
       <set comment="kpoint 73">
        <r>   -5.0901    1.0000 </r>
        <r>   -2.2489    1.0000 </r>
        <r>    2.4917    1.0000 </r>
        <r>    3.4963    1.0000 </r>
        <r>    8.5341    0.0000 </r>
        <r>    9.1438    0.0000 </r>
        <r>   10.6140    0.0000 </r>
        <r>   14.3507    0.0000 </r>
        <r>   14.5512    0.0000 </r>
       </set>
       <set comment="kpoint 74">
        <r>   -5.1853    1.0000 </r>
        <r>   -2.2847    1.0000 </r>
        <r>    2.8939    1.0000 </r>
        <r>    3.6609    1.0000 </r>
        <r>    8.2834    0.0000 </r>
        <r>    9.1990    0.0000 </r>
        <r>   10.1562    0.0000 </r>
        <r>   14.3643    0.0000 </r>
        <r>   15.0700    0.0000 </r>
       </set>
       <set comment="kpoint 75">
        <r>   -5.2597    1.0000 </r>
        <r>   -2.3169    1.0000 </r>
        <r>    3.2829    1.0000 </r>
        <r>    3.7914    1.0000 </r>
        <r>    8.0042    0.0000 </r>
        <r>    9.2702    0.0000 </r>
        <r>    9.8111    0.0000 </r>
        <r>   14.2258    0.0000 </r>
        <r>   15.6026    0.0000 </r>
       </set>
       <set comment="kpoint 76">
        <r>   -5.3130    1.0000 </r>
        <r>   -2.3421    1.0000 </r>
        <r>    3.6248    1.0000 </r>
        <r>    3.8855    1.0000 </r>
        <r>    7.7250    0.0000 </r>
        <r>    9.3415    0.0000 </r>
        <r>    9.5820    0.0000 </r>
        <r>   14.0457    0.0000 </r>
        <r>   16.2417    0.0000 </r>
       </set>
       <set comment="kpoint 77">
        <r>   -5.3451    1.0000 </r>
        <r>   -2.3580    1.0000 </r>
        <r>    3.8699    1.0000 </r>
        <r>    3.9421    1.0000 </r>
        <r>    7.5076    0.0000 </r>
        <r>    9.3946    0.0000 </r>
        <r>    9.4549    0.0000 </r>
        <r>   13.9087    0.0000 </r>
        <r>   16.8319    0.0000 </r>
       </set>
       <set comment="kpoint 78">
        <r>   -5.3558    1.0000 </r>
        <r>   -2.3634    1.0000 </r>
        <r>    3.9611    1.0000 </r>
        <r>    3.9611    1.0000 </r>
        <r>    7.4238    0.0000 </r>
        <r>    9.4144    0.0000 </r>
        <r>    9.4144    0.0000 </r>
        <r>   13.8585    0.0000 </r>
        <r>   17.0137    0.0000 </r>
       </set>
       <set comment="kpoint 79">
        <r>   -5.3558    1.0000 </r>
        <r>   -2.3634    1.0000 </r>
        <r>    3.9611    1.0000 </r>
        <r>    3.9611    1.0000 </r>
        <r>    7.4238    0.0000 </r>
        <r>    9.4144    0.0000 </r>
        <r>    9.4144    0.0000 </r>
        <r>   13.8585    0.0000 </r>
        <r>   17.0137    0.0000 </r>
       </set>
       <set comment="kpoint 80">
        <r>   -5.4027    1.0000 </r>
        <r>   -2.2949    1.0000 </r>
        <r>    3.9674    1.0000 </r>
        <r>    3.9674    1.0000 </r>
        <r>    7.4306    0.0000 </r>
        <r>    9.4211    0.0000 </r>
        <r>    9.4211    0.0000 </r>
        <r>   13.8692    0.0000 </r>
        <r>   16.6855    0.0000 </r>
       </set>
       <set comment="kpoint 81">
        <r>   -5.5317    1.0000 </r>
        <r>   -2.1014    1.0000 </r>
        <r>    3.9862    1.0000 </r>
        <r>    3.9862    1.0000 </r>
        <r>    7.4510    0.0000 </r>
        <r>    9.4405    0.0000 </r>
        <r>    9.4405    0.0000 </r>
        <r>   13.9007    0.0000 </r>
        <r>   16.1664    0.0000 </r>
       </set>
       <set comment="kpoint 82">
        <r>   -5.7170    1.0000 </r>
        <r>   -1.8088    1.0000 </r>
        <r>    4.0176    1.0000 </r>
        <r>    4.0176    1.0000 </r>
        <r>    7.4849    0.0000 </r>
        <r>    9.4708    0.0000 </r>
        <r>    9.4708    0.0000 </r>
        <r>   13.9497    0.0000 </r>
        <r>   15.6473    0.0000 </r>
       </set>
       <set comment="kpoint 83">
        <r>   -5.9332    1.0000 </r>
        <r>   -1.4428    1.0000 </r>
        <r>    4.0614    1.0000 </r>
        <r>    4.0614    1.0000 </r>
        <r>    7.5321    0.0000 </r>
        <r>    9.5090    0.0000 </r>
        <r>    9.5090    0.0000 </r>
        <r>   14.0090    0.0000 </r>
        <r>   15.1549    0.0000 </r>
       </set>
       <set comment="kpoint 84">
        <r>   -6.1621    1.0000 </r>
        <r>   -1.0224    1.0000 </r>
        <r>    4.1173    1.0000 </r>
        <r>    4.1173    1.0000 </r>
        <r>    7.5924    0.0000 </r>
        <r>    9.5497    0.0000 </r>
        <r>    9.5497    0.0000 </r>
        <r>   14.0611    0.0000 </r>
        <r>   14.7006    0.0000 </r>
       </set>
       <set comment="kpoint 85">
        <r>   -6.3917    1.0000 </r>
        <r>   -0.5603    1.0000 </r>
        <r>    4.1850    1.0000 </r>
        <r>    4.1850    1.0000 </r>
        <r>    7.6652    0.0000 </r>
        <r>    9.5862    0.0000 </r>
        <r>    9.5863    0.0000 </r>
        <r>   14.0612    0.0000 </r>
        <r>   14.2937    0.0000 </r>
       </set>
       <set comment="kpoint 86">
        <r>   -6.6142    1.0000 </r>
        <r>   -0.0651    1.0000 </r>
        <r>    4.2640    1.0000 </r>
        <r>    4.2640    1.0000 </r>
        <r>    7.7501    0.0000 </r>
        <r>    9.6099    0.0000 </r>
        <r>    9.6099    0.0000 </r>
        <r>   13.9033    0.0000 </r>
        <r>   13.9443    0.0000 </r>
       </set>
       <set comment="kpoint 87">
        <r>   -6.8249    1.0000 </r>
        <r>    0.4566    1.0000 </r>
        <r>    4.3536    1.0000 </r>
        <r>    4.3536    1.0000 </r>
        <r>    7.8459    0.0000 </r>
        <r>    9.6104    0.0000 </r>
        <r>    9.6104    0.0000 </r>
        <r>   13.5495    0.0000 </r>
        <r>   13.6632    0.0000 </r>
       </set>
       <set comment="kpoint 88">
        <r>   -7.0205    1.0000 </r>
        <r>    1.0000    1.0000 </r>
        <r>    4.4527    1.0000 </r>
        <r>    4.4527    1.0000 </r>
        <r>    7.9515    0.0000 </r>
        <r>    9.5781    0.0000 </r>
        <r>    9.5781    0.0000 </r>
        <r>   13.0807    0.0000 </r>
        <r>   13.4607    0.0000 </r>
       </set>
       <set comment="kpoint 89">
        <r>   -7.1989    1.0000 </r>
        <r>    1.5601    1.0000 </r>
        <r>    4.5597    1.0000 </r>
        <r>    4.5597    1.0000 </r>
        <r>    8.0649    0.0000 </r>
        <r>    9.5070    0.0000 </r>
        <r>    9.5070    0.0000 </r>
        <r>   12.5759    0.0000 </r>
        <r>   13.3427    0.0000 </r>
       </set>
       <set comment="kpoint 90">
        <r>   -7.3585    1.0000 </r>
        <r>    2.1318    1.0000 </r>
        <r>    4.6726    1.0000 </r>
        <r>    4.6726    1.0000 </r>
        <r>    8.1833    0.0000 </r>
        <r>    9.3976    0.0000 </r>
        <r>    9.3976    0.0000 </r>
        <r>   12.0531    0.0000 </r>
        <r>   13.3083    0.0000 </r>
       </set>
       <set comment="kpoint 91">
        <r>   -7.4984    1.0000 </r>
        <r>    2.7090    1.0000 </r>
        <r>    4.7885    1.0000 </r>
        <r>    4.7885    1.0000 </r>
        <r>    8.3028    0.0000 </r>
        <r>    9.2578    0.0000 </r>
        <r>    9.2578    0.0000 </r>
        <r>   11.5229    0.0000 </r>
        <r>   13.3484    0.0000 </r>
       </set>
       <set comment="kpoint 92">
        <r>   -7.6177    1.0000 </r>
        <r>    3.2831    1.0000 </r>
        <r>    4.9035    1.0000 </r>
        <r>    4.9035    1.0000 </r>
        <r>    8.4179    0.0000 </r>
        <r>    9.1009    0.0000 </r>
        <r>    9.1009    0.0000 </r>
        <r>   10.9949    0.0000 </r>
        <r>   13.4486    0.0000 </r>
       </set>
       <set comment="kpoint 93">
        <r>   -7.7159    1.0000 </r>
        <r>    3.8414    1.0000 </r>
        <r>    5.0124    1.0000 </r>
        <r>    5.0124    1.0000 </r>
        <r>    8.5200    0.0000 </r>
        <r>    8.9425    0.0000 </r>
        <r>    8.9425    0.0000 </r>
        <r>   10.4832    0.0000 </r>
        <r>   13.5887    0.0000 </r>
       </set>
       <set comment="kpoint 94">
        <r>   -7.7927    1.0000 </r>
        <r>    4.3630    1.0000 </r>
        <r>    5.1090    1.0000 </r>
        <r>    5.1090    1.0000 </r>
        <r>    8.5962    0.0000 </r>
        <r>    8.7982    0.0000 </r>
        <r>    8.7983    0.0000 </r>
        <r>   10.0135    0.0000 </r>
        <r>   13.7464    0.0000 </r>
       </set>
       <set comment="kpoint 95">
        <r>   -7.8477    1.0000 </r>
        <r>    4.8129    1.0000 </r>
        <r>    5.1860    1.0000 </r>
        <r>    5.1860    1.0000 </r>
        <r>    8.6279    0.0000 </r>
        <r>    8.6825    0.0000 </r>
        <r>    8.6825    0.0000 </r>
        <r>    9.6316    0.0000 </r>
        <r>   13.8961    0.0000 </r>
       </set>
       <set comment="kpoint 96">
        <r>   -7.8807    1.0000 </r>
        <r>    5.1337    1.0000 </r>
        <r>    5.2359    1.0000 </r>
        <r>    5.2359    1.0000 </r>
        <r>    8.6062    0.0000 </r>
        <r>    8.6074    0.0000 </r>
        <r>    8.6074    0.0000 </r>
        <r>    9.3961    0.0000 </r>
        <r>   14.0199    0.0000 </r>
       </set>
       <set comment="kpoint 97">
        <r>   -7.8918    1.0000 </r>
        <r>    5.2533    1.0000 </r>
        <r>    5.2533    1.0000 </r>
        <r>    5.2533    1.0000 </r>
        <r>    8.5814    0.0000 </r>
        <r>    8.5814    0.0000 </r>
        <r>    8.5814    0.0000 </r>
        <r>    9.3233    0.0000 </r>
        <r>   13.9721    0.0000 </r>
       </set>
       <set comment="kpoint 98">
        <r>   -7.8918    1.0000 </r>
        <r>    5.2533    1.0000 </r>
        <r>    5.2533    1.0000 </r>
        <r>    5.2533    1.0000 </r>
        <r>    8.5814    0.0000 </r>
        <r>    8.5814    0.0000 </r>
        <r>    8.5814    0.0000 </r>
        <r>    9.3233    0.0000 </r>
        <r>   13.9721    0.0000 </r>
       </set>
       <set comment="kpoint 99">
        <r>   -7.8816    1.0000 </r>
        <r>    5.1546    1.0000 </r>
        <r>    5.2140    1.0000 </r>
        <r>    5.2488    1.0000 </r>
        <r>    8.5918    0.0000 </r>
        <r>    8.5966    0.0000 </r>
        <r>    8.6281    0.0000 </r>
        <r>    9.3891    0.0000 </r>
        <r>   14.0162    0.0000 </r>
       </set>
       <set comment="kpoint 100">
        <r>   -7.8512    1.0000 </r>
        <r>    4.8884    1.0000 </r>
        <r>    5.0997    1.0000 </r>
        <r>    5.2354    1.0000 </r>
        <r>    8.6231    0.0000 </r>
        <r>    8.6410    0.0000 </r>
        <r>    8.7249    0.0000 </r>
        <r>    9.5983    0.0000 </r>
        <r>   13.8216    0.0000 </r>
       </set>
       <set comment="kpoint 101">
        <r>   -7.8007    1.0000 </r>
        <r>    4.5136    1.0000 </r>
        <r>    4.9197    1.0000 </r>
        <r>    5.2122    1.0000 </r>
        <r>    8.6752    0.0000 </r>
        <r>    8.7120    0.0000 </r>
        <r>    8.8136    0.0000 </r>
        <r>    9.9438    0.0000 </r>
        <r>   13.5970    0.0000 </r>
       </set>
       <set comment="kpoint 102">
        <r>   -7.7300    1.0000 </r>
        <r>    4.0792    1.0000 </r>
        <r>    4.6865    1.0000 </r>
        <r>    5.1782    1.0000 </r>
        <r>    8.7481    0.0000 </r>
        <r>    8.8065    0.0000 </r>
        <r>    8.8841    0.0000 </r>
        <r>   10.3734    0.0000 </r>
        <r>   13.3473    0.0000 </r>
       </set>
       <set comment="kpoint 103">
        <r>   -7.6395    1.0000 </r>
        <r>    3.6159    1.0000 </r>
        <r>    4.4130    1.0000 </r>
        <r>    5.1321    1.0000 </r>
        <r>    8.8416    0.0000 </r>
        <r>    8.9222    0.0000 </r>
        <r>    8.9441    0.0000 </r>
        <r>   10.8239    0.0000 </r>
        <r>   13.0989    0.0000 </r>
       </set>
       <set comment="kpoint 104">
        <r>   -7.5294    1.0000 </r>
        <r>    3.1419    1.0000 </r>
        <r>    4.1110    1.0000 </r>
        <r>    5.0724    1.0000 </r>
        <r>    8.9557    0.0000 </r>
        <r>    8.9974    0.0000 </r>
        <r>    9.0573    0.0000 </r>
        <r>   11.2322    0.0000 </r>
        <r>   12.8689    0.0000 </r>
       </set>
       <set comment="kpoint 105">
        <r>   -7.3999    1.0000 </r>
        <r>    2.6681    1.0000 </r>
        <r>    3.7907    1.0000 </r>
        <r>    4.9980    1.0000 </r>
        <r>    9.0427    0.0000 </r>
        <r>    9.0901    0.0000 </r>
        <r>    9.2113    0.0000 </r>
        <r>   11.5365    0.0000 </r>
        <r>   12.6690    0.0000 </r>
       </set>
       <set comment="kpoint 106">
        <r>   -7.2516    1.0000 </r>
        <r>    2.2012    1.0000 </r>
        <r>    3.4605    1.0000 </r>
        <r>    4.9078    1.0000 </r>
        <r>    9.0753    0.0000 </r>
        <r>    9.2449    0.0000 </r>
        <r>    9.3838    0.0000 </r>
        <r>   11.7080    0.0000 </r>
        <r>   12.5066    0.0000 </r>
       </set>
       <set comment="kpoint 107">
        <r>   -7.0848    1.0000 </r>
        <r>    1.7454    1.0000 </r>
        <r>    3.1274    1.0000 </r>
        <r>    4.8016    1.0000 </r>
        <r>    9.0882    0.0000 </r>
        <r>    9.4197    0.0000 </r>
        <r>    9.5746    0.0000 </r>
        <r>   11.7763    0.0000 </r>
        <r>   12.3864    0.0000 </r>
       </set>
       <set comment="kpoint 108">
        <r>   -6.9003    1.0000 </r>
        <r>    1.3035    1.0000 </r>
        <r>    2.7971    1.0000 </r>
        <r>    4.6797    1.0000 </r>
        <r>    9.0734    0.0000 </r>
        <r>    9.6144    0.0000 </r>
        <r>    9.7838    0.0000 </r>
        <r>   11.7981    0.0000 </r>
        <r>   12.3105    0.0000 </r>
       </set>
       <set comment="kpoint 109">
        <r>   -6.6989    1.0000 </r>
        <r>    0.8776    1.0000 </r>
        <r>    2.4743    1.0000 </r>
        <r>    4.5431    1.0000 </r>
        <r>    9.0244    0.0000 </r>
        <r>    9.8288    0.0000 </r>
        <r>   10.0112    0.0000 </r>
        <r>   11.8197    0.0000 </r>
        <r>   12.2802    0.0000 </r>
       </set>
       <set comment="kpoint 110">
        <r>   -6.4816    1.0000 </r>
        <r>    0.4690    1.0000 </r>
        <r>    2.1633    1.0000 </r>
        <r>    4.3937    1.0000 </r>
        <r>    8.9384    0.0000 </r>
        <r>   10.0626    0.0000 </r>
        <r>   10.2566    0.0000 </r>
        <r>   11.8686    0.0000 </r>
        <r>   12.2950    0.0000 </r>
       </set>
       <set comment="kpoint 111">
        <r>   -6.2498    1.0000 </r>
        <r>    0.0789    1.0000 </r>
        <r>    1.8677    1.0000 </r>
        <r>    4.2338    1.0000 </r>
        <r>    8.8174    0.0000 </r>
        <r>   10.3155    0.0000 </r>
        <r>   10.5198    0.0000 </r>
        <r>   11.9573    0.0000 </r>
        <r>   12.3536    0.0000 </r>
       </set>
       <set comment="kpoint 112">
        <r>   -6.0050    1.0000 </r>
        <r>   -0.2920    1.0000 </r>
        <r>    1.5911    1.0000 </r>
        <r>    4.0662    1.0000 </r>
        <r>    8.6679    0.0000 </r>
        <r>   10.5873    0.0000 </r>
        <r>   10.8002    0.0000 </r>
        <r>   12.0885    0.0000 </r>
        <r>   12.4540    0.0000 </r>
       </set>
       <set comment="kpoint 113">
        <r>   -5.7495    1.0000 </r>
        <r>   -0.6431    1.0000 </r>
        <r>    1.3372    1.0000 </r>
        <r>    3.8937    1.0000 </r>
        <r>    8.4977    0.0000 </r>
        <r>   10.8775    0.0000 </r>
        <r>   11.0969    0.0000 </r>
        <r>   12.2597    0.0000 </r>
        <r>   12.5939    0.0000 </r>
       </set>
       <set comment="kpoint 114">
        <r>   -5.4860    1.0000 </r>
        <r>   -0.9740    1.0000 </r>
        <r>    1.1095    1.0000 </r>
        <r>    3.7193    1.0000 </r>
        <r>    8.3149    0.0000 </r>
        <r>   11.1860    0.0000 </r>
        <r>   11.4078    0.0000 </r>
        <r>   12.4661    0.0000 </r>
        <r>   12.7706    0.0000 </r>
       </set>
       <set comment="kpoint 115">
        <r>   -5.2179    1.0000 </r>
        <r>   -1.2842    1.0000 </r>
        <r>    0.9123    1.0000 </r>
        <r>    3.5456    1.0000 </r>
        <r>    8.1265    0.0000 </r>
        <r>   11.5122    0.0000 </r>
        <r>   11.7285    0.0000 </r>
        <r>   12.7031    0.0000 </r>
        <r>   12.9815    0.0000 </r>
       </set>
       <set comment="kpoint 116">
        <r>   -4.9497    1.0000 </r>
        <r>   -1.5735    1.0000 </r>
        <r>    0.7502    1.0000 </r>
        <r>    3.3753    1.0000 </r>
        <r>    7.9382    0.0000 </r>
        <r>   11.8557    0.0000 </r>
        <r>   12.0446    0.0000 </r>
        <r>   12.9661    0.0000 </r>
        <r>   13.2240    0.0000 </r>
       </set>
       <set comment="kpoint 117">
        <r>   -4.6867    1.0000 </r>
        <r>   -1.8416    1.0000 </r>
        <r>    0.6286    1.0000 </r>
        <r>    3.2106    1.0000 </r>
        <r>    7.7542    0.0000 </r>
        <r>   12.2158    0.0000 </r>
        <r>   12.2920    0.0000 </r>
        <r>   13.2521    0.0000 </r>
        <r>   13.5000    0.0000 </r>
       </set>
       <set comment="kpoint 118">
        <r>   -4.4352    1.0000 </r>
        <r>   -2.0882    1.0000 </r>
        <r>    0.5532    1.0000 </r>
        <r>    3.0536    1.0000 </r>
        <r>    7.5780    0.0000 </r>
        <r>   12.1676    0.0000 </r>
        <r>   12.5919    0.0000 </r>
        <r>   13.2493    0.0000 </r>
        <r>   13.5565    0.0000 </r>
       </set>
       <set comment="kpoint 119">
        <r>   -4.2022    1.0000 </r>
        <r>   -2.3133    1.0000 </r>
        <r>    0.5300    1.0000 </r>
        <r>    2.9059    1.0000 </r>
        <r>    7.4121    0.0000 </r>
        <r>   11.5838    0.0000 </r>
        <r>   12.9832    0.0000 </r>
        <r>   13.4851    0.0000 </r>
        <r>   13.8783    0.0000 </r>
       </set>
       <set comment="kpoint 120">
        <r>   -3.9945    1.0000 </r>
        <r>   -2.5166    1.0000 </r>
        <r>    0.5641    1.0000 </r>
        <r>    2.7691    1.0000 </r>
        <r>    7.2586    0.0000 </r>
        <r>   10.8928    0.0000 </r>
        <r>   13.3884    0.0000 </r>
        <r>   13.8604    0.0000 </r>
        <r>   14.2144    0.0000 </r>
       </set>
       <set comment="kpoint 121">
        <r>   -3.8174    1.0000 </r>
        <r>   -2.6980    1.0000 </r>
        <r>    0.6581    1.0000 </r>
        <r>    2.6445    1.0000 </r>
        <r>    7.1189    0.0000 </r>
        <r>   10.1936    0.0000 </r>
        <r>   13.8059    0.0000 </r>
        <r>   14.2806    0.0000 </r>
        <r>   14.5623    0.0000 </r>
       </set>
       <set comment="kpoint 122">
        <r>   -3.8174    1.0000 </r>
        <r>   -2.6980    1.0000 </r>
        <r>    0.6581    1.0000 </r>
        <r>    2.6445    1.0000 </r>
        <r>    7.1189    0.0000 </r>
        <r>   10.1936    0.0000 </r>
        <r>   13.8059    0.0000 </r>
        <r>   14.2806    0.0000 </r>
        <r>   14.5623    0.0000 </r>
       </set>
       <set comment="kpoint 123">
        <r>   -3.8844    1.0000 </r>
        <r>   -2.6228    1.0000 </r>
        <r>    0.6153    1.0000 </r>
        <r>    2.6493    1.0000 </r>
        <r>    7.2558    0.0000 </r>
        <r>   10.5125    0.0000 </r>
        <r>   13.3941    0.0000 </r>
        <r>   14.0128    0.0000 </r>
        <r>   14.3093    0.0000 </r>
       </set>
       <set comment="kpoint 124">
        <r>   -3.9404    1.0000 </r>
        <r>   -2.5513    1.0000 </r>
        <r>    0.5989    1.0000 </r>
        <r>    2.5688    1.0000 </r>
        <r>    7.5353    0.0000 </r>
        <r>   10.8366    0.0000 </r>
        <r>   12.8551    0.0000 </r>
        <r>   13.3707    0.0000 </r>
        <r>   14.4804    0.0000 </r>
       </set>
       <set comment="kpoint 125">
        <r>   -3.9855    1.0000 </r>
        <r>   -2.4855    1.0000 </r>
        <r>    0.6088    1.0000 </r>
        <r>    2.4297    1.0000 </r>
        <r>    7.9310    0.0000 </r>
        <r>   11.1327    0.0000 </r>
        <r>   12.3466    0.0000 </r>
        <r>   12.7345    0.0000 </r>
        <r>   14.6699    0.0000 </r>
       </set>
       <set comment="kpoint 126">
        <r>   -4.0195    1.0000 </r>
        <r>   -2.4283    1.0000 </r>
        <r>    0.6446    1.0000 </r>
        <r>    2.2618    1.0000 </r>
        <r>    8.4137    0.0000 </r>
        <r>   11.2266    0.0000 </r>
        <r>   12.0594    0.0000 </r>
        <r>   12.1127    0.0000 </r>
        <r>   14.8620    0.0000 </r>
       </set>
       <set comment="kpoint 127">
        <r>   -4.0419    1.0000 </r>
        <r>   -2.3836    1.0000 </r>
        <r>    0.7055    1.0000 </r>
        <r>    2.0903    1.0000 </r>
        <r>    8.9558    0.0000 </r>
        <r>   10.8859    0.0000 </r>
        <r>   11.5138    0.0000 </r>
        <r>   12.2316    0.0000 </r>
        <r>   15.0516    0.0000 </r>
       </set>
       <set comment="kpoint 128">
        <r>   -4.0527    1.0000 </r>
        <r>   -2.3560    1.0000 </r>
        <r>    0.7903    1.0000 </r>
        <r>    1.9348    1.0000 </r>
        <r>    9.5203    0.0000 </r>
        <r>   10.3868    0.0000 </r>
        <r>   10.9610    0.0000 </r>
        <r>   12.5898    0.0000 </r>
        <r>   15.2367    0.0000 </r>
       </set>
       <set comment="kpoint 129">
        <r>   -4.0514    1.0000 </r>
        <r>   -2.3501    1.0000 </r>
        <r>    0.8973    1.0000 </r>
        <r>    1.8098    1.0000 </r>
        <r>    9.8672    0.0000 </r>
        <r>    9.9156    0.0000 </r>
        <r>   10.6363    0.0000 </r>
        <r>   12.9985    0.0000 </r>
        <r>   15.4162    0.0000 </r>
       </set>
       <set comment="kpoint 130">
        <r>   -4.0378    1.0000 </r>
        <r>   -2.3694    1.0000 </r>
        <r>    1.0243    1.0000 </r>
        <r>    1.7245    1.0000 </r>
        <r>    9.3554    0.0000 </r>
        <r>    9.6331    0.0000 </r>
        <r>   11.0426    0.0000 </r>
        <r>   13.4315    0.0000 </r>
        <r>   15.5904    0.0000 </r>
       </set>
       <set comment="kpoint 131">
        <r>   -4.0115    1.0000 </r>
        <r>   -2.4157    1.0000 </r>
        <r>    1.1685    1.0000 </r>
        <r>    1.6838    1.0000 </r>
        <r>    8.8623    0.0000 </r>
        <r>    9.1510    0.0000 </r>
        <r>   11.6980    0.0000 </r>
        <r>   13.8795    0.0000 </r>
        <r>   15.7601    0.0000 </r>
       </set>
       <set comment="kpoint 132">
        <r>   -3.9724    1.0000 </r>
        <r>   -2.4881    1.0000 </r>
        <r>    1.3260    1.0000 </r>
        <r>    1.6873    1.0000 </r>
        <r>    8.3950    0.0000 </r>
        <r>    8.6683    0.0000 </r>
        <r>   12.4016    0.0000 </r>
        <r>   14.3365    0.0000 </r>
        <r>   15.9276    0.0000 </r>
       </set>
       <set comment="kpoint 133">
        <r>   -3.9204    1.0000 </r>
        <r>   -2.5834    1.0000 </r>
        <r>    1.4918    1.0000 </r>
        <r>    1.7305    1.0000 </r>
        <r>    7.9607    0.0000 </r>
        <r>    8.2111    0.0000 </r>
        <r>   13.1263    0.0000 </r>
        <r>   14.7961    0.0000 </r>
        <r>   16.0971    0.0000 </r>
       </set>
       <set comment="kpoint 134">
        <r>   -3.8555    1.0000 </r>
        <r>   -2.6967    1.0000 </r>
        <r>    1.6593    1.0000 </r>
        <r>    1.8049    1.0000 </r>
        <r>    7.5671    0.0000 </r>
        <r>    7.7901    0.0000 </r>
        <r>   13.8607    0.0000 </r>
        <r>   15.2478    0.0000 </r>
        <r>   16.2761    0.0000 </r>
       </set>
       <set comment="kpoint 135">
        <r>   -3.7779    1.0000 </r>
        <r>   -2.8226    1.0000 </r>
        <r>    1.8201    1.0000 </r>
        <r>    1.8989    1.0000 </r>
        <r>    7.2239    0.0000 </r>
        <r>    7.4147    0.0000 </r>
        <r>   14.5938    0.0000 </r>
        <r>   15.6717    0.0000 </r>
        <r>   16.4786    0.0000 </r>
       </set>
       <set comment="kpoint 136">
        <r>   -3.6881    1.0000 </r>
        <r>   -2.9556    1.0000 </r>
        <r>    1.9636    1.0000 </r>
        <r>    1.9988    1.0000 </r>
        <r>    6.9427    0.0000 </r>
        <r>    7.0953    0.0000 </r>
        <r>   15.3065    0.0000 </r>
        <r>   16.0345    0.0000 </r>
        <r>   16.7277    0.0000 </r>
       </set>
       <set comment="kpoint 137">
        <r>   -3.5866    1.0000 </r>
        <r>   -3.0909    1.0000 </r>
        <r>    2.0777    1.0000 </r>
        <r>    2.0887    1.0000 </r>
        <r>    6.7366    0.0000 </r>
        <r>    6.8442    0.0000 </r>
        <r>   15.9553    0.0000 </r>
        <r>   16.3062    0.0000 </r>
        <r>   17.0278    0.0000 </r>
       </set>
       <set comment="kpoint 138">
        <r>   -3.4745    1.0000 </r>
        <r>   -3.2245    1.0000 </r>
        <r>    2.1510    1.0000 </r>
        <r>    2.1524    1.0000 </r>
        <r>    6.6184    0.0000 </r>
        <r>    6.6743    0.0000 </r>
        <r>   16.4255    0.0000 </r>
        <r>   16.4897    0.0000 </r>
        <r>   17.3096    0.0000 </r>
       </set>
       <set comment="kpoint 139">
        <r>   -3.3532    1.0000 </r>
        <r>   -3.3532    1.0000 </r>
        <r>    2.1759    1.0000 </r>
        <r>    2.1759    1.0000 </r>
        <r>    6.5971    0.0000 </r>
        <r>    6.5971    0.0000 </r>
        <r>   16.5703    0.0000 </r>
        <r>   16.5747    0.0000 </r>
        <r>   17.4288    0.0000 </r>
       </set>
      </set>
     </set>
    </array>
   </eigenvalues>
   <array>
    <dimension dim="1">ion</dimension>
    <dimension dim="2">band</dimension>
    <dimension dim="3">kpoint</dimension>
    <dimension dim="4">spin</dimension>
    <field>    s</field>
    <field>   py</field>
    <field>   pz</field>
    <field>   px</field>
    <field>  dxy</field>
    <field>  dyz</field>
    <field>  dz2</field>
    <field>  dxz</field>
    <field>x2-y2</field>
    <set>
     <set comment="spin1">
      <set comment="kpoint 1">
       <set comment="band 1">
        <r>  0.2182  0.0000  0.0000  0.0000  0.0000  0.0000  0.0000  0.0000  0.0000 </r>
        <r>  0.2182  0.0000  0.0000  0.0000  0.0000  0.0000  0.0000  0.0000  0.0000 </r>
       </set>
       <set comment="band 2">
        <r>  0.0000  0.0987  0.0746  0.0418  0.0000  0.0000  0.0000  0.0000  0.0000 </r>
        <r>  0.0000  0.0987  0.0746  0.0418  0.0000  0.0000  0.0000  0.0000  0.0000 </r>
       </set>
       <set comment="band 3">
        <r>  0.0000  0.0349  0.0090  0.1711  0.0000  0.0000  0.0000  0.0000  0.0000 </r>
        <r>  0.0000  0.0349  0.0090  0.1711  0.0000  0.0000  0.0000  0.0000  0.0000 </r>
       </set>
       <set comment="band 4">
        <r>  0.0000  0.0814  0.1315  0.0021  0.0000  0.0000  0.0000  0.0000  0.0000 </r>
        <r>  0.0000  0.0814  0.1315  0.0021  0.0000  0.0000  0.0000  0.0000  0.0000 </r>
       </set>
       <set comment="band 5">
        <r>  0.0000  0.0921  0.0565  0.0012  0.0000  0.0000  0.0000  0.0000  0.0000 </r>
        <r>  0.0000  0.0921  0.0565  0.0012  0.0000  0.0000  0.0000  0.0000  0.0000 </r>
       </set>
       <set comment="band 6">
        <r>  0.0000  0.0099  0.0310  0.1089  0.0000  0.0000  0.0000  0.0000  0.0000 </r>
        <r>  0.0000  0.0099  0.0310  0.1089  0.0000  0.0000  0.0000  0.0000  0.0000 </r>
       </set>
       <set comment="band 7">
        <r>  0.0000  0.0478  0.0623  0.0397  0.0000  0.0000  0.0000  0.0000  0.0000 </r>
        <r>  0.0000  0.0478  0.0623  0.0397  0.0000  0.0000  0.0000  0.0000  0.0000 </r>
       </set>
       <set comment="band 8">
        <r>  0.3654  0.0000  0.0000  0.0000  0.0000  0.0000  0.0000  0.0000  0.0000 </r>
        <r>  0.3654  0.0000  0.0000  0.0000  0.0000  0.0000  0.0000  0.0000  0.0000 </r>
       </set>
       <set comment="band 9">
        <r>  0.1015  0.0000  0.0000  0.0000  0.0000  0.0000  0.0000  0.0000  0.0000 </r>
        <r>  0.1015  0.0000  0.0000  0.0000  0.0000  0.0000  0.0000  0.0000  0.0000 </r>
       </set>
      </set>
      <set comment="kpoint 2">
       <set comment="band 1">
        <r>  0.2171  0.0007  0.0007  0.0007  0.0000  0.0000  0.0000  0.0000  0.0000 </r>
        <r>  0.2171  0.0007  0.0007  0.0007  0.0000  0.0000  0.0000  0.0000  0.0000 </r>
       </set>
       <set comment="band 2">
        <r>  0.0601  0.0535  0.0535  0.0535  0.0000  0.0000  0.0000  0.0000  0.0000 </r>
        <r>  0.0601  0.0535  0.0535  0.0535  0.0000  0.0000  0.0000  0.0000  0.0000 </r>
       </set>
       <set comment="band 3">
        <r>  0.0000  0.0679  0.1340  0.0111  0.0000  0.0000  0.0000  0.0000  0.0000 </r>
        <r>  0.0000  0.0679  0.1340  0.0111  0.0000  0.0000  0.0000  0.0000  0.0000 </r>
       </set>
       <set comment="band 4">
        <r>  0.0000  0.0741  0.0080  0.1308  0.0000  0.0000  0.0000  0.0000  0.0000 </r>
        <r>  0.0000  0.0741  0.0080  0.1308  0.0000  0.0000  0.0000  0.0000  0.0000 </r>
       </set>
       <set comment="band 5">
        <r>  0.1037  0.0300  0.0300  0.0300  0.0000  0.0000  0.0000  0.0000  0.0000 </r>
        <r>  0.1037  0.0300  0.0300  0.0300  0.0000  0.0000  0.0000  0.0000  0.0000 </r>
       </set>
       <set comment="band 6">
        <r>  0.0000  0.0657  0.0014  0.0856  0.0000  0.0000  0.0000  0.0000  0.0000 </r>
        <r>  0.0000  0.0657  0.0014  0.0856  0.0000  0.0000  0.0000  0.0000  0.0000 </r>
       </set>
       <set comment="band 7">
        <r>  0.0000  0.0361  0.1004  0.0162  0.0000  0.0000  0.0000  0.0000  0.0000 </r>
        <r>  0.0000  0.0361  0.1004  0.0162  0.0000  0.0000  0.0000  0.0000  0.0000 </r>
       </set>
       <set comment="band 8">
        <r>  0.2140  0.0302  0.0302  0.0302  0.0000  0.0000  0.0000  0.0000  0.0000 </r>
        <r>  0.2140  0.0302  0.0302  0.0302  0.0000  0.0000  0.0000  0.0000  0.0000 </r>
       </set>
       <set comment="band 9">
        <r>  0.0000  0.0005  0.0004  0.0011  0.0000  0.0000  0.0000  0.0000  0.0000 </r>
        <r>  0.0000  0.0005  0.0004  0.0011  0.0000  0.0000  0.0000  0.0000  0.0000 </r>
       </set>
      </set>
      <set comment="kpoint 3">
       <set comment="band 1">
        <r>  0.2151  0.0027  0.0027  0.0027  0.0000  0.0000  0.0000  0.0000  0.0000 </r>
        <r>  0.2151  0.0027  0.0027  0.0027  0.0000  0.0000  0.0000  0.0000  0.0000 </r>
       </set>
       <set comment="band 2">
        <r>  0.0962  0.0402  0.0402  0.0402  0.0000  0.0000  0.0000  0.0000  0.0000 </r>
        <r>  0.0962  0.0402  0.0402  0.0402  0.0000  0.0000  0.0000  0.0000  0.0000 </r>
       </set>
       <set comment="band 3">
        <r>  0.0000  0.0759  0.1300  0.0072  0.0000  0.0000  0.0000  0.0000  0.0000 </r>
        <r>  0.0000  0.0759  0.1300  0.0072  0.0000  0.0000  0.0000  0.0000  0.0000 </r>
       </set>
       <set comment="band 4">
        <r>  0.0000  0.0662  0.0121  0.1349  0.0000  0.0000  0.0000  0.0000  0.0000 </r>
        <r>  0.0000  0.0662  0.0121  0.1349  0.0000  0.0000  0.0000  0.0000  0.0000 </r>
       </set>
       <set comment="band 5">
        <r>  0.1564  0.0158  0.0158  0.0158  0.0000  0.0000  0.0000  0.0000  0.0000 </r>
        <r>  0.1564  0.0158  0.0158  0.0158  0.0000  0.0000  0.0000  0.0000  0.0000 </r>
       </set>
       <set comment="band 6">
        <r>  0.0000  0.0515  0.0035  0.0814  0.0000  0.0000  0.0000  0.0000  0.0000 </r>
        <r>  0.0000  0.0515  0.0035  0.0814  0.0000  0.0000  0.0000  0.0000  0.0000 </r>
       </set>
       <set comment="band 7">
        <r>  0.0000  0.0394  0.0874  0.0095  0.0000  0.0000  0.0000  0.0000  0.0000 </r>
        <r>  0.0000  0.0394  0.0874  0.0095  0.0000  0.0000  0.0000  0.0000  0.0000 </r>
       </set>
       <set comment="band 8">
        <r>  0.1165  0.0486  0.0485  0.0486  0.0000  0.0000  0.0000  0.0000  0.0000 </r>
        <r>  0.1165  0.0485  0.0487  0.0486  0.0000  0.0000  0.0000  0.0000  0.0000 </r>
       </set>
       <set comment="band 9">
        <r>  0.0000  0.0013  0.0053  0.0102  0.0000  0.0000  0.0000  0.0000  0.0000 </r>
        <r>  0.0000  0.0013  0.0053  0.0102  0.0000  0.0000  0.0000  0.0000  0.0000 </r>
       </set>
      </set>
      <set comment="kpoint 4">
       <set comment="band 1">
        <r>  0.2172  0.0047  0.0047  0.0047  0.0000  0.0000  0.0000  0.0000  0.0000 </r>
        <r>  0.2172  0.0047  0.0047  0.0047  0.0000  0.0000  0.0000  0.0000  0.0000 </r>
       </set>
       <set comment="band 2">
        <r>  0.1087  0.0328  0.0328  0.0328  0.0000  0.0000  0.0000  0.0000  0.0000 </r>
        <r>  0.1087  0.0328  0.0328  0.0328  0.0000  0.0000  0.0000  0.0000  0.0000 </r>
       </set>
       <set comment="band 3">
        <r>  0.0000  0.0826  0.1280  0.0049  0.0000  0.0000  0.0000  0.0000  0.0000 </r>
        <r>  0.0000  0.0826  0.1280  0.0049  0.0000  0.0000  0.0000  0.0000  0.0000 </r>
       </set>
       <set comment="band 4">
        <r>  0.0000  0.0611  0.0157  0.1388  0.0000  0.0000  0.0000  0.0000  0.0000 </r>
        <r>  0.0000  0.0611  0.0157  0.1388  0.0000  0.0000  0.0000  0.0000  0.0000 </r>
       </set>
       <set comment="band 5">
        <r>  0.1801  0.0087  0.0087  0.0087  0.0000  0.0000  0.0000  0.0000  0.0000 </r>
        <r>  0.1801  0.0087  0.0087  0.0087  0.0000  0.0000  0.0000  0.0000  0.0000 </r>
       </set>
       <set comment="band 6">
        <r>  0.0000  0.0361  0.0038  0.0634  0.0000  0.0000  0.0000  0.0000  0.0000 </r>
        <r>  0.0000  0.0361  0.0038  0.0634  0.0000  0.0000  0.0000  0.0000  0.0000 </r>
       </set>
       <set comment="band 7">
        <r>  0.0000  0.0328  0.0651  0.0055  0.0000  0.0000  0.0000  0.0000  0.0000 </r>
        <r>  0.0000  0.0328  0.0651  0.0055  0.0000  0.0000  0.0000  0.0000  0.0000 </r>
       </set>
       <set comment="band 8">
        <r>  0.0039  0.0243  0.0243  0.0243  0.0000  0.0000  0.0000  0.0000  0.0000 </r>
        <r>  0.0039  0.0243  0.0243  0.0243  0.0000  0.0000  0.0000  0.0000  0.0000 </r>
       </set>
       <set comment="band 9">
        <r>  0.0000  0.0143  0.0163  0.0110  0.0000  0.0000  0.0000  0.0000  0.0000 </r>
        <r>  0.0000  0.0144  0.0163  0.0110  0.0000  0.0000  0.0000  0.0000  0.0000 </r>
       </set>
      </set>
      <set comment="kpoint 5">
       <set comment="band 1">
        <r>  0.2288  0.0046  0.0046  0.0046  0.0000  0.0000  0.0000  0.0000  0.0000 </r>
        <r>  0.2288  0.0046  0.0046  0.0046  0.0000  0.0000  0.0000  0.0000  0.0000 </r>
       </set>
       <set comment="band 2">
        <r>  0.1014  0.0313  0.0313  0.0313  0.0000  0.0000  0.0000  0.0000  0.0000 </r>
        <r>  0.1014  0.0313  0.0313  0.0313  0.0000  0.0000  0.0000  0.0000  0.0000 </r>
       </set>
       <set comment="band 3">
        <r>  0.0000  0.0850  0.1275  0.0043  0.0000  0.0000  0.0000  0.0000  0.0000 </r>
        <r>  0.0000  0.0850  0.1275  0.0043  0.0000  0.0000  0.0000  0.0000  0.0000 </r>
       </set>
       <set comment="band 4">
        <r>  0.0000  0.0595  0.0170  0.1402  0.0000  0.0000  0.0000  0.0000  0.0000 </r>
        <r>  0.0000  0.0595  0.0170  0.1402  0.0000  0.0000  0.0000  0.0000  0.0000 </r>
       </set>
       <set comment="band 5">
        <r>  0.1877  0.0064  0.0064  0.0064  0.0000  0.0000  0.0000  0.0000  0.0000 </r>
        <r>  0.1877  0.0064  0.0064  0.0064  0.0000  0.0000  0.0000  0.0000  0.0000 </r>
       </set>
       <set comment="band 6">
        <r>  0.0000  0.0318  0.0037  0.0570  0.0000  0.0000  0.0000  0.0000  0.0000 </r>
        <r>  0.0000  0.0318  0.0037  0.0570  0.0000  0.0000  0.0000  0.0000  0.0000 </r>
       </set>
       <set comment="band 7">
        <r>  0.0000  0.0298  0.0580  0.0046  0.0000  0.0000  0.0000  0.0000  0.0000 </r>
        <r>  0.0000  0.0298  0.0580  0.0046  0.0000  0.0000  0.0000  0.0000  0.0000 </r>
       </set>
       <set comment="band 8">
        <r>  0.0066  0.0157  0.0157  0.0157  0.0000  0.0000  0.0000  0.0000  0.0000 </r>
        <r>  0.0066  0.0157  0.0157  0.0157  0.0000  0.0000  0.0000  0.0000  0.0000 </r>
       </set>
       <set comment="band 9">
        <r>  0.0000  0.0001  0.0000  0.0002  0.0000  0.0000  0.0000  0.0000  0.0000 </r>
        <r>  0.0000  0.0001  0.0000  0.0002  0.0000  0.0000  0.0000  0.0000  0.0000 </r>
       </set>
      </set>
      <set comment="kpoint 6">
       <set comment="band 1">
        <r>  0.2167  0.0000  0.0030  0.0000  0.0000  0.0000  0.0000  0.0000  0.0000 </r>
        <r>  0.2167  0.0000  0.0030  0.0000  0.0000  0.0000  0.0000  0.0000  0.0000 </r>
       </set>
       <set comment="band 2">
        <r>  0.0924  0.0000  0.1508  0.0000  0.0000  0.0000  0.0000  0.0000  0.0000 </r>
        <r>  0.0924  0.0000  0.1508  0.0000  0.0000  0.0000  0.0000  0.0000  0.0000 </r>
       </set>
       <set comment="band 3">
        <r>  0.0000  0.1521  0.0000  0.0520  0.0000  0.0000  0.0000  0.0000  0.0000 </r>
        <r>  0.0000  0.0838  0.0000  0.1202  0.0000  0.0000  0.0000  0.0000  0.0000 </r>
       </set>
       <set comment="band 4">
        <r>  0.0000  0.0520  0.0000  0.1521  0.0000  0.0000  0.0000  0.0000  0.0000 </r>
        <r>  0.0000  0.1202  0.0000  0.0838  0.0000  0.0000  0.0000  0.0000  0.0000 </r>
       </set>
       <set comment="band 5">
        <r>  0.0211  0.0000  0.1158  0.0000  0.0000  0.0000  0.0000  0.0000  0.0000 </r>
        <r>  0.0212  0.0000  0.1158  0.0000  0.0000  0.0000  0.0000  0.0000  0.0000 </r>
       </set>
       <set comment="band 6">
        <r>  0.0000  0.1147  0.0000  0.0461  0.0000  0.0000  0.0000  0.0000  0.0000 </r>
        <r>  0.0000  0.0628  0.0000  0.0979  0.0000  0.0000  0.0000  0.0000  0.0000 </r>
       </set>
       <set comment="band 7">
        <r>  0.0000  0.0461  0.0000  0.1147  0.0000  0.0000  0.0000  0.0000  0.0000 </r>
        <r>  0.0000  0.0979  0.0000  0.0628  0.0000  0.0000  0.0000  0.0000  0.0000 </r>
       </set>
       <set comment="band 8">
        <r>  0.2316  0.0000  0.0708  0.0000  0.0000  0.0000  0.0000  0.0000  0.0000 </r>
        <r>  0.2316  0.0000  0.0708  0.0000  0.0000  0.0000  0.0000  0.0000  0.0000 </r>
       </set>
       <set comment="band 9">
        <r>  0.0405  0.0000  0.0026  0.0000  0.0000  0.0000  0.0000  0.0000  0.0000 </r>
        <r>  0.0405  0.0000  0.0026  0.0000  0.0000  0.0000  0.0000  0.0000  0.0000 </r>
       </set>
      </set>
      <set comment="kpoint 7">
       <set comment="band 1">
        <r>  0.2146  0.0007  0.0064  0.0007  0.0000  0.0000  0.0000  0.0000  0.0000 </r>
        <r>  0.2146  0.0007  0.0064  0.0007  0.0000  0.0000  0.0000  0.0000  0.0000 </r>
       </set>
       <set comment="band 2">
        <r>  0.1073  0.0315  0.0612  0.0315  0.0000  0.0000  0.0000  0.0000  0.0000 </r>
        <r>  0.1073  0.0315  0.0612  0.0315  0.0000  0.0000  0.0000  0.0000  0.0000 </r>
       </set>
       <set comment="band 3">
        <r>  0.0000  0.1012  0.0000  0.1012  0.0000  0.0000  0.0000  0.0000  0.0000 </r>
        <r>  0.0000  0.1012  0.0000  0.1012  0.0000  0.0000  0.0000  0.0000  0.0000 </r>
       </set>
       <set comment="band 4">
        <r>  0.0239  0.0519  0.0826  0.0519  0.0000  0.0000  0.0000  0.0000  0.0000 </r>
        <r>  0.0239  0.0519  0.0826  0.0519  0.0000  0.0000  0.0000  0.0000  0.0000 </r>
       </set>
       <set comment="band 5">
        <r>  0.0349  0.0108  0.0820  0.0108  0.0000  0.0000  0.0000  0.0000  0.0000 </r>
        <r>  0.0349  0.0108  0.0820  0.0108  0.0000  0.0000  0.0000  0.0000  0.0000 </r>
       </set>
       <set comment="band 6">
        <r>  0.0941  0.0458  0.0260  0.0458  0.0000  0.0000  0.0000  0.0000  0.0000 </r>
        <r>  0.0941  0.0458  0.0260  0.0458  0.0000  0.0000  0.0000  0.0000  0.0000 </r>
       </set>
       <set comment="band 7">
        <r>  0.0000  0.0767  0.0000  0.0767  0.0000  0.0000  0.0000  0.0000  0.0000 </r>
        <r>  0.0000  0.0767  0.0000  0.0767  0.0000  0.0000  0.0000  0.0000  0.0000 </r>
       </set>
       <set comment="band 8">
        <r>  0.0233  0.0182  0.0215  0.0182  0.0000  0.0000  0.0000  0.0000  0.0000 </r>
        <r>  0.0233  0.0182  0.0215  0.0182  0.0000  0.0000  0.0000  0.0000  0.0000 </r>
       </set>
       <set comment="band 9">
        <r>  0.1119  0.0177  0.0550  0.0177  0.0000  0.0000  0.0000  0.0000  0.0000 </r>
        <r>  0.1119  0.0177  0.0550  0.0177  0.0000  0.0000  0.0000  0.0000  0.0000 </r>
       </set>
      </set>
      <set comment="kpoint 8">
       <set comment="band 1">
        <r>  0.2141  0.0024  0.0100  0.0024  0.0000  0.0000  0.0000  0.0000  0.0000 </r>
        <r>  0.2141  0.0024  0.0100  0.0024  0.0000  0.0000  0.0000  0.0000  0.0000 </r>
       </set>
       <set comment="band 2">
        <r>  0.1190  0.0324  0.0353  0.0324  0.0000  0.0000  0.0000  0.0000  0.0000 </r>
        <r>  0.1190  0.0324  0.0353  0.0324  0.0000  0.0000  0.0000  0.0000  0.0000 </r>
       </set>
       <set comment="band 3">
        <r>  0.0333  0.0357  0.1037  0.0357  0.0000  0.0000  0.0000  0.0000  0.0000 </r>
        <r>  0.0333  0.0357  0.1037  0.0357  0.0000  0.0000  0.0000  0.0000  0.0000 </r>
       </set>
       <set comment="band 4">
        <r>  0.0000  0.1025  0.0000  0.1025  0.0000  0.0000  0.0000  0.0000  0.0000 </r>
        <r>  0.0000  0.1025  0.0000  0.1025  0.0000  0.0000  0.0000  0.0000  0.0000 </r>
       </set>
       <set comment="band 5">
        <r>  0.0742  0.0074  0.0587  0.0074  0.0000  0.0000  0.0000  0.0000  0.0000 </r>
        <r>  0.0742  0.0074  0.0587  0.0074  0.0000  0.0000  0.0000  0.0000  0.0000 </r>
       </set>
       <set comment="band 6">
        <r>  0.0584  0.0374  0.0277  0.0374  0.0000  0.0000  0.0000  0.0000  0.0000 </r>
        <r>  0.0584  0.0374  0.0277  0.0374  0.0000  0.0000  0.0000  0.0000  0.0000 </r>
       </set>
       <set comment="band 7">
        <r>  0.0000  0.0596  0.0000  0.0596  0.0000  0.0000  0.0000  0.0000  0.0000 </r>
        <r>  0.0000  0.0596  0.0000  0.0596  0.0000  0.0000  0.0000  0.0000  0.0000 </r>
       </set>
       <set comment="band 8">
        <r>  0.0240  0.0265  0.0193  0.0265  0.0000  0.0000  0.0000  0.0000  0.0000 </r>
        <r>  0.0240  0.0265  0.0193  0.0265  0.0000  0.0000  0.0000  0.0000  0.0000 </r>
       </set>
       <set comment="band 9">
        <r>  0.0042  0.0187  0.0244  0.0180  0.0000  0.0000  0.0000  0.0000  0.0000 </r>
        <r>  0.0042  0.0180  0.0244  0.0186  0.0000  0.0000  0.0000  0.0000  0.0000 </r>
       </set>
      </set>
      <set comment="kpoint 9">
       <set comment="band 1">
        <r>  0.2241  0.0039  0.0092  0.0039  0.0000  0.0000  0.0000  0.0000  0.0000 </r>
        <r>  0.2241  0.0039  0.0092  0.0039  0.0000  0.0000  0.0000  0.0000  0.0000 </r>
       </set>
       <set comment="band 2">
        <r>  0.1139  0.0301  0.0301  0.0301  0.0000  0.0000  0.0000  0.0000  0.0000 </r>
        <r>  0.1139  0.0301  0.0301  0.0301  0.0000  0.0000  0.0000  0.0000  0.0000 </r>
       </set>
       <set comment="band 3">
        <r>  0.0349  0.0327  0.1048  0.0327  0.0000  0.0000  0.0000  0.0000  0.0000 </r>
        <r>  0.0349  0.0327  0.1048  0.0327  0.0000  0.0000  0.0000  0.0000  0.0000 </r>
       </set>
       <set comment="band 4">
        <r>  0.0000  0.1046  0.0000  0.1046  0.0000  0.0000  0.0000  0.0000  0.0000 </r>
        <r>  0.0000  0.1046  0.0000  0.1046  0.0000  0.0000  0.0000  0.0000  0.0000 </r>
       </set>
       <set comment="band 5">
        <r>  0.1002  0.0026  0.0527  0.0026  0.0000  0.0000  0.0000  0.0000  0.0000 </r>
        <r>  0.1002  0.0026  0.0527  0.0026  0.0000  0.0000  0.0000  0.0000  0.0000 </r>
       </set>
       <set comment="band 6">
        <r>  0.0431  0.0270  0.0335  0.0270  0.0000  0.0000  0.0000  0.0000  0.0000 </r>
        <r>  0.0431  0.0270  0.0335  0.0270  0.0000  0.0000  0.0000  0.0000  0.0000 </r>
       </set>
       <set comment="band 7">
        <r>  0.0000  0.0502  0.0000  0.0502  0.0000  0.0000  0.0000  0.0000  0.0000 </r>
        <r>  0.0000  0.0502  0.0000  0.0502  0.0000  0.0000  0.0000  0.0000  0.0000 </r>
       </set>
       <set comment="band 8">
        <r>  0.0115  0.0399  0.0263  0.0399  0.0000  0.0000  0.0000  0.0000  0.0000 </r>
        <r>  0.0115  0.0399  0.0263  0.0399  0.0000  0.0000  0.0000  0.0000  0.0000 </r>
       </set>
       <set comment="band 9">
        <r>  0.0101  0.0107  0.0257  0.0107  0.0000  0.0000  0.0000  0.0000  0.0000 </r>
        <r>  0.0101  0.0107  0.0257  0.0107  0.0000  0.0000  0.0000  0.0000  0.0000 </r>
       </set>
      </set>
      <set comment="kpoint 10">
       <set comment="band 1">
        <r>  0.2194  0.0069  0.0034  0.0069  0.0000  0.0000  0.0000  0.0000  0.0000 </r>
        <r>  0.2194  0.0069  0.0034  0.0069  0.0000  0.0000  0.0000  0.0000  0.0000 </r>
       </set>
       <set comment="band 2">
        <r>  0.1175  0.0280  0.0356  0.0280  0.0000  0.0000  0.0000  0.0000  0.0000 </r>
        <r>  0.1175  0.0280  0.0356  0.0280  0.0000  0.0000  0.0000  0.0000  0.0000 </r>
       </set>
       <set comment="band 3">
        <r>  0.0313  0.0335  0.1020  0.0335  0.0000  0.0000  0.0000  0.0000  0.0000 </r>
        <r>  0.0313  0.0335  0.1020  0.0335  0.0000  0.0000  0.0000  0.0000  0.0000 </r>
       </set>
       <set comment="band 4">
        <r>  0.0000  0.1069  0.0000  0.1069  0.0000  0.0000  0.0000  0.0000  0.0000 </r>
        <r>  0.0000  0.1069  0.0000  0.1069  0.0000  0.0000  0.0000  0.0000  0.0000 </r>
       </set>
       <set comment="band 5">
        <r>  0.1175  0.0006  0.0574  0.0006  0.0000  0.0000  0.0000  0.0000  0.0000 </r>
        <r>  0.1175  0.0006  0.0574  0.0006  0.0000  0.0000  0.0000  0.0000  0.0000 </r>
       </set>
       <set comment="band 6">
        <r>  0.0269  0.0215  0.0465  0.0215  0.0000  0.0000  0.0000  0.0000  0.0000 </r>
        <r>  0.0269  0.0215  0.0465  0.0215  0.0000  0.0000  0.0000  0.0000  0.0000 </r>
       </set>
       <set comment="band 7">
        <r>  0.0000  0.0515  0.0000  0.0515  0.0000  0.0000  0.0000  0.0000  0.0000 </r>
        <r>  0.0000  0.0515  0.0000  0.0515  0.0000  0.0000  0.0000  0.0000  0.0000 </r>
       </set>
       <set comment="band 8">
        <r>  0.0162  0.0236  0.0780  0.0236  0.0000  0.0000  0.0000  0.0000  0.0000 </r>
        <r>  0.0162  0.0236  0.0780  0.0236  0.0000  0.0000  0.0000  0.0000  0.0000 </r>
       </set>
       <set comment="band 9">
        <r>  0.0000  0.0229  0.0000  0.0229  0.0000  0.0000  0.0000  0.0000  0.0000 </r>
        <r>  0.0000  0.0229  0.0000  0.0229  0.0000  0.0000  0.0000  0.0000  0.0000 </r>
       </set>
      </set>
      <set comment="kpoint 11">
       <set comment="band 1">
        <r>  0.2140  0.0056  0.0011  0.0056  0.0000  0.0000  0.0000  0.0000  0.0000 </r>
        <r>  0.2140  0.0056  0.0011  0.0056  0.0000  0.0000  0.0000  0.0000  0.0000 </r>
       </set>
       <set comment="band 2">
        <r>  0.1168  0.0343  0.0382  0.0343  0.0000  0.0000  0.0000  0.0000  0.0000 </r>
        <r>  0.1168  0.0343  0.0382  0.0343  0.0000  0.0000  0.0000  0.0000  0.0000 </r>
       </set>
       <set comment="band 3">
        <r>  0.0221  0.0338  0.1042  0.0338  0.0000  0.0000  0.0000  0.0000  0.0000 </r>
        <r>  0.0221  0.0338  0.1042  0.0338  0.0000  0.0000  0.0000  0.0000  0.0000 </r>
       </set>
       <set comment="band 4">
        <r>  0.0000  0.1089  0.0000  0.1089  0.0000  0.0000  0.0000  0.0000  0.0000 </r>
        <r>  0.0000  0.1089  0.0000  0.1089  0.0000  0.0000  0.0000  0.0000  0.0000 </r>
       </set>
       <set comment="band 5">
        <r>  0.1185  0.0010  0.0716  0.0010  0.0000  0.0000  0.0000  0.0000  0.0000 </r>
        <r>  0.1185  0.0010  0.0716  0.0010  0.0000  0.0000  0.0000  0.0000  0.0000 </r>
       </set>
       <set comment="band 6">
        <r>  0.0000  0.0661  0.0000  0.0661  0.0000  0.0000  0.0000  0.0000  0.0000 </r>
        <r>  0.0000  0.0661  0.0000  0.0661  0.0000  0.0000  0.0000  0.0000  0.0000 </r>
       </set>
       <set comment="band 7">
        <r>  0.0166  0.0157  0.0770  0.0157  0.0000  0.0000  0.0000  0.0000  0.0000 </r>
        <r>  0.0166  0.0157  0.0770  0.0157  0.0000  0.0000  0.0000  0.0000  0.0000 </r>
       </set>
       <set comment="band 8">
        <r>  0.0594  0.0341  0.0358  0.0341  0.0000  0.0000  0.0000  0.0000  0.0000 </r>
        <r>  0.0594  0.0341  0.0358  0.0341  0.0000  0.0000  0.0000  0.0000  0.0000 </r>
       </set>
       <set comment="band 9">
        <r>  0.0000  0.0084  0.0000  0.0084  0.0000  0.0000  0.0000  0.0000  0.0000 </r>
        <r>  0.0000  0.0084  0.0000  0.0084  0.0000  0.0000  0.0000  0.0000  0.0000 </r>
       </set>
      </set>
      <set comment="kpoint 12">
       <set comment="band 1">
        <r>  0.2156  0.0028  0.0001  0.0028  0.0000  0.0000  0.0000  0.0000  0.0000 </r>
        <r>  0.2156  0.0028  0.0001  0.0028  0.0000  0.0000  0.0000  0.0000  0.0000 </r>
       </set>
       <set comment="band 2">
        <r>  0.1002  0.0521  0.0288  0.0521  0.0000  0.0000  0.0000  0.0000  0.0000 </r>
        <r>  0.1002  0.0521  0.0288  0.0521  0.0000  0.0000  0.0000  0.0000  0.0000 </r>
       </set>
       <set comment="band 3">
        <r>  0.0064  0.0267  0.1310  0.0267  0.0000  0.0000  0.0000  0.0000  0.0000 </r>
        <r>  0.0064  0.0267  0.1310  0.0267  0.0000  0.0000  0.0000  0.0000  0.0000 </r>
       </set>
       <set comment="band 4">
        <r>  0.0000  0.1098  0.0000  0.1098  0.0000  0.0000  0.0000  0.0000  0.0000 </r>
        <r>  0.0000  0.1098  0.0000  0.1098  0.0000  0.0000  0.0000  0.0000  0.0000 </r>
       </set>
       <set comment="band 5">
        <r>  0.1084  0.0001  0.0988  0.0001  0.0000  0.0000  0.0000  0.0000  0.0000 </r>
        <r>  0.1084  0.0001  0.0988  0.0001  0.0000  0.0000  0.0000  0.0000  0.0000 </r>
       </set>
       <set comment="band 6">
        <r>  0.0000  0.0744  0.0000  0.0744  0.0000  0.0000  0.0000  0.0000  0.0000 </r>
        <r>  0.0000  0.0744  0.0000  0.0744  0.0000  0.0000  0.0000  0.0000  0.0000 </r>
       </set>
       <set comment="band 7">
        <r>  0.0272  0.0218  0.0800  0.0218  0.0000  0.0000  0.0000  0.0000  0.0000 </r>
        <r>  0.0272  0.0218  0.0800  0.0218  0.0000  0.0000  0.0000  0.0000  0.0000 </r>
       </set>
       <set comment="band 8">
        <r>  0.1073  0.0525  0.0044  0.0525  0.0000  0.0000  0.0000  0.0000  0.0000 </r>
        <r>  0.1073  0.0525  0.0044  0.0525  0.0000  0.0000  0.0000  0.0000  0.0000 </r>
       </set>
       <set comment="band 9">
        <r>  0.0000  0.0000  0.0000  0.0000  0.0000  0.0000  0.0000  0.0000  0.0000 </r>
        <r>  0.0000  0.0000  0.0000  0.0000  0.0000  0.0000  0.0000  0.0000  0.0000 </r>
       </set>
      </set>
      <set comment="kpoint 13">
       <set comment="band 1">
        <r>  0.2124  0.0000  0.0117  0.0000  0.0000  0.0000  0.0000  0.0000  0.0000 </r>
        <r>  0.2124  0.0000  0.0117  0.0000  0.0000  0.0000  0.0000  0.0000  0.0000 </r>
       </set>
       <set comment="band 2">
        <r>  0.1543  0.0000  0.1018  0.0000  0.0000  0.0000  0.0000  0.0000  0.0000 </r>
        <r>  0.1543  0.0000  0.1018  0.0000  0.0000  0.0000  0.0000  0.0000  0.0000 </r>
       </set>
       <set comment="band 3">
        <r>  0.0000  0.1713  0.0000  0.0268  0.0000  0.0000  0.0000  0.0000  0.0000 </r>
        <r>  0.0000  0.0361  0.0000  0.1620  0.0000  0.0000  0.0000  0.0000  0.0000 </r>
       </set>
       <set comment="band 4">
        <r>  0.0000  0.0268  0.0000  0.1713  0.0000  0.0000  0.0000  0.0000  0.0000 </r>
        <r>  0.0000  0.1620  0.0000  0.0361  0.0000  0.0000  0.0000  0.0000  0.0000 </r>
       </set>
       <set comment="band 5">
        <r>  0.0436  0.0000  0.0750  0.0000  0.0000  0.0000  0.0000  0.0000  0.0000 </r>
        <r>  0.0436  0.0000  0.0750  0.0000  0.0000  0.0000  0.0000  0.0000  0.0000 </r>
       </set>
       <set comment="band 6">
        <r>  0.0512  0.0000  0.0371  0.0000  0.0000  0.0000  0.0000  0.0000  0.0000 </r>
        <r>  0.0512  0.0000  0.0371  0.0000  0.0000  0.0000  0.0000  0.0000  0.0000 </r>
       </set>
       <set comment="band 7">
        <r>  0.0000  0.1221  0.0000  0.0429  0.0000  0.0000  0.0000  0.0000  0.0000 </r>
        <r>  0.0000  0.0413  0.0000  0.1237  0.0000  0.0000  0.0000  0.0000  0.0000 </r>
       </set>
       <set comment="band 8">
        <r>  0.0000  0.0429  0.0000  0.1221  0.0000  0.0000  0.0000  0.0000  0.0000 </r>
        <r>  0.0000  0.1237  0.0000  0.0413  0.0000  0.0000  0.0000  0.0000  0.0000 </r>
       </set>
       <set comment="band 9">
        <r>  0.1598  0.0000  0.0955  0.0000  0.0000  0.0000  0.0000  0.0000  0.0000 </r>
        <r>  0.1598  0.0000  0.0955  0.0000  0.0000  0.0000  0.0000  0.0000  0.0000 </r>
       </set>
      </set>
      <set comment="kpoint 14">
       <set comment="band 1">
        <r>  0.2101  0.0006  0.0175  0.0006  0.0000  0.0000  0.0000  0.0000  0.0000 </r>
        <r>  0.2101  0.0006  0.0175  0.0006  0.0000  0.0000  0.0000  0.0000  0.0000 </r>
       </set>
       <set comment="band 2">
        <r>  0.1627  0.0113  0.0636  0.0113  0.0000  0.0000  0.0000  0.0000  0.0000 </r>
        <r>  0.1627  0.0113  0.0636  0.0113  0.0000  0.0000  0.0000  0.0000  0.0000 </r>
       </set>
       <set comment="band 3">
        <r>  0.0129  0.0701  0.0350  0.0701  0.0000  0.0000  0.0000  0.0000  0.0000 </r>
        <r>  0.0129  0.0701  0.0350  0.0701  0.0000  0.0000  0.0000  0.0000  0.0000 </r>
       </set>
       <set comment="band 4">
        <r>  0.0000  0.0992  0.0000  0.0992  0.0000  0.0000  0.0000  0.0000  0.0000 </r>
        <r>  0.0000  0.0992  0.0000  0.0992  0.0000  0.0000  0.0000  0.0000  0.0000 </r>
       </set>
       <set comment="band 5">
        <r>  0.0445  0.0071  0.0543  0.0071  0.0000  0.0000  0.0000  0.0000  0.0000 </r>
        <r>  0.0445  0.0071  0.0543  0.0071  0.0000  0.0000  0.0000  0.0000  0.0000 </r>
       </set>
       <set comment="band 6">
        <r>  0.0407  0.0107  0.0256  0.0107  0.0000  0.0000  0.0000  0.0000  0.0000 </r>
        <r>  0.0407  0.0107  0.0256  0.0107  0.0000  0.0000  0.0000  0.0000  0.0000 </r>
       </set>
       <set comment="band 7">
        <r>  0.0428  0.0568  0.0237  0.0568  0.0000  0.0000  0.0000  0.0000  0.0000 </r>
        <r>  0.0428  0.0568  0.0237  0.0568  0.0000  0.0000  0.0000  0.0000  0.0000 </r>
       </set>
       <set comment="band 8">
        <r>  0.0000  0.0691  0.0000  0.0692  0.0000  0.0000  0.0000  0.0000  0.0000 </r>
        <r>  0.0000  0.0692  0.0000  0.0691  0.0000  0.0000  0.0000  0.0000  0.0000 </r>
       </set>
       <set comment="band 9">
        <r>  0.0001  0.0121  0.0001  0.0102  0.0000  0.0000  0.0000  0.0000  0.0000 </r>
        <r>  0.0001  0.0102  0.0001  0.0120  0.0000  0.0000  0.0000  0.0000  0.0000 </r>
       </set>
      </set>
      <set comment="kpoint 15">
       <set comment="band 1">
        <r>  0.2140  0.0023  0.0201  0.0023  0.0000  0.0000  0.0000  0.0000  0.0000 </r>
        <r>  0.2140  0.0023  0.0201  0.0023  0.0000  0.0000  0.0000  0.0000  0.0000 </r>
       </set>
       <set comment="band 2">
        <r>  0.1586  0.0190  0.0368  0.0190  0.0000  0.0000  0.0000  0.0000  0.0000 </r>
        <r>  0.1586  0.0190  0.0368  0.0190  0.0000  0.0000  0.0000  0.0000  0.0000 </r>
       </set>
       <set comment="band 3">
        <r>  0.0232  0.0471  0.0618  0.0471  0.0000  0.0000  0.0000  0.0000  0.0000 </r>
        <r>  0.0232  0.0471  0.0618  0.0471  0.0000  0.0000  0.0000  0.0000  0.0000 </r>
       </set>
       <set comment="band 4">
        <r>  0.0000  0.1005  0.0000  0.1005  0.0000  0.0000  0.0000  0.0000  0.0000 </r>
        <r>  0.0000  0.1005  0.0000  0.1005  0.0000  0.0000  0.0000  0.0000  0.0000 </r>
       </set>
       <set comment="band 5">
        <r>  0.0514  0.0022  0.0449  0.0022  0.0000  0.0000  0.0000  0.0000  0.0000 </r>
        <r>  0.0514  0.0022  0.0449  0.0022  0.0000  0.0000  0.0000  0.0000  0.0000 </r>
       </set>
       <set comment="band 6">
        <r>  0.0190  0.0327  0.0111  0.0327  0.0000  0.0000  0.0000  0.0000  0.0000 </r>
        <r>  0.0190  0.0327  0.0111  0.0327  0.0000  0.0000  0.0000  0.0000  0.0000 </r>
       </set>
       <set comment="band 7">
        <r>  0.0699  0.0371  0.0526  0.0371  0.0000  0.0000  0.0000  0.0000  0.0000 </r>
        <r>  0.0699  0.0371  0.0526  0.0371  0.0000  0.0000  0.0000  0.0000  0.0000 </r>
       </set>
       <set comment="band 8">
        <r>  0.0000  0.0560  0.0000  0.0560  0.0000  0.0000  0.0000  0.0000  0.0000 </r>
        <r>  0.0000  0.0560  0.0000  0.0560  0.0000  0.0000  0.0000  0.0000  0.0000 </r>
       </set>
       <set comment="band 9">
        <r>  0.0081  0.0247  0.0884  0.0248  0.0000  0.0000  0.0000  0.0000  0.0000 </r>
        <r>  0.0081  0.0248  0.0884  0.0247  0.0000  0.0000  0.0000  0.0000  0.0000 </r>
       </set>
      </set>
      <set comment="kpoint 16">
       <set comment="band 1">
        <r>  0.2197  0.0075  0.0089  0.0075  0.0000  0.0000  0.0000  0.0000  0.0000 </r>
        <r>  0.2197  0.0075  0.0089  0.0075  0.0000  0.0000  0.0000  0.0000  0.0000 </r>
       </set>
       <set comment="band 2">
        <r>  0.1532  0.0181  0.0386  0.0181  0.0000  0.0000  0.0000  0.0000  0.0000 </r>
        <r>  0.1532  0.0181  0.0386  0.0181  0.0000  0.0000  0.0000  0.0000  0.0000 </r>
       </set>
       <set comment="band 3">
        <r>  0.0215  0.0392  0.0724  0.0392  0.0000  0.0000  0.0000  0.0000  0.0000 </r>
        <r>  0.0215  0.0392  0.0724  0.0392  0.0000  0.0000  0.0000  0.0000  0.0000 </r>
       </set>
       <set comment="band 4">
        <r>  0.0000  0.1025  0.0000  0.1025  0.0000  0.0000  0.0000  0.0000  0.0000 </r>
        <r>  0.0000  0.1025  0.0000  0.1025  0.0000  0.0000  0.0000  0.0000  0.0000 </r>
       </set>
       <set comment="band 5">
        <r>  0.0571  0.0015  0.0466  0.0015  0.0000  0.0000  0.0000  0.0000  0.0000 </r>
        <r>  0.0571  0.0015  0.0466  0.0015  0.0000  0.0000  0.0000  0.0000  0.0000 </r>
       </set>
       <set comment="band 6">
        <r>  0.0450  0.0213  0.0504  0.0213  0.0000  0.0000  0.0000  0.0000  0.0000 </r>
        <r>  0.0450  0.0213  0.0504  0.0213  0.0000  0.0000  0.0000  0.0000  0.0000 </r>
       </set>
       <set comment="band 7">
        <r>  0.0000  0.0584  0.0000  0.0584  0.0000  0.0000  0.0000  0.0000  0.0000 </r>
        <r>  0.0000  0.0584  0.0000  0.0584  0.0000  0.0000  0.0000  0.0000  0.0000 </r>
       </set>
       <set comment="band 8">
        <r>  0.0293  0.0449  0.0230  0.0448  0.0000  0.0000  0.0000  0.0000  0.0000 </r>
        <r>  0.0293  0.0449  0.0230  0.0448  0.0000  0.0000  0.0000  0.0000  0.0000 </r>
       </set>
       <set comment="band 9">
        <r>  0.0414  0.0324  0.0889  0.0305  0.0000  0.0000  0.0000  0.0000  0.0000 </r>
        <r>  0.0414  0.0304  0.0889  0.0325  0.0000  0.0000  0.0000  0.0000  0.0000 </r>
       </set>
      </set>
      <set comment="kpoint 17">
       <set comment="band 1">
        <r>  0.2135  0.0084  0.0024  0.0084  0.0000  0.0000  0.0000  0.0000  0.0000 </r>
        <r>  0.2135  0.0084  0.0024  0.0084  0.0000  0.0000  0.0000  0.0000  0.0000 </r>
       </set>
       <set comment="band 2">
        <r>  0.1556  0.0227  0.0390  0.0227  0.0000  0.0000  0.0000  0.0000  0.0000 </r>
        <r>  0.1556  0.0227  0.0390  0.0227  0.0000  0.0000  0.0000  0.0000  0.0000 </r>
       </set>
       <set comment="band 3">
        <r>  0.0125  0.0361  0.0841  0.0361  0.0000  0.0000  0.0000  0.0000  0.0000 </r>
        <r>  0.0125  0.0361  0.0841  0.0361  0.0000  0.0000  0.0000  0.0000  0.0000 </r>
       </set>
       <set comment="band 4">
        <r>  0.0000  0.1056  0.0000  0.1056  0.0000  0.0000  0.0000  0.0000  0.0000 </r>
        <r>  0.0000  0.1056  0.0000  0.1056  0.0000  0.0000  0.0000  0.0000  0.0000 </r>
       </set>
       <set comment="band 5">
        <r>  0.0657  0.0015  0.0591  0.0015  0.0000  0.0000  0.0000  0.0000  0.0000 </r>
        <r>  0.0657  0.0015  0.0591  0.0015  0.0000  0.0000  0.0000  0.0000  0.0000 </r>
       </set>
       <set comment="band 6">
        <r>  0.0000  0.0739  0.0000  0.0739  0.0000  0.0000  0.0000  0.0000  0.0000 </r>
        <r>  0.0000  0.0739  0.0000  0.0739  0.0000  0.0000  0.0000  0.0000  0.0000 </r>
       </set>
       <set comment="band 7">
        <r>  0.0319  0.0005  0.0992  0.0005  0.0000  0.0000  0.0000  0.0000  0.0000 </r>
        <r>  0.0319  0.0005  0.0992  0.0005  0.0000  0.0000  0.0000  0.0000  0.0000 </r>
       </set>
       <set comment="band 8">
        <r>  0.0783  0.0458  0.0248  0.0458  0.0000  0.0000  0.0000  0.0000  0.0000 </r>
        <r>  0.0783  0.0458  0.0248  0.0458  0.0000  0.0000  0.0000  0.0000  0.0000 </r>
       </set>
       <set comment="band 9">
        <r>  0.0000  0.0035  0.0000  0.0035  0.0000  0.0000  0.0000  0.0000  0.0000 </r>
        <r>  0.0000  0.0035  0.0000  0.0035  0.0000  0.0000  0.0000  0.0000  0.0000 </r>
       </set>
      </set>
      <set comment="kpoint 18">
       <set comment="band 1">
        <r>  0.2058  0.0000  0.0259  0.0000  0.0000  0.0000  0.0000  0.0000  0.0000 </r>
        <r>  0.2058  0.0000  0.0259  0.0000  0.0000  0.0000  0.0000  0.0000  0.0000 </r>
       </set>
       <set comment="band 2">
        <r>  0.1823  0.0000  0.0700  0.0000  0.0000  0.0000  0.0000  0.0000  0.0000 </r>
        <r>  0.1823  0.0000  0.0700  0.0000  0.0000  0.0000  0.0000  0.0000  0.0000 </r>
       </set>
       <set comment="band 3">
        <r>  0.0000  0.1806  0.0000  0.0160  0.0000  0.0000  0.0000  0.0000  0.0000 </r>
        <r>  0.0000  0.0176  0.0000  0.1790  0.0000  0.0000  0.0000  0.0000  0.0000 </r>
       </set>
       <set comment="band 4">
        <r>  0.0000  0.0160  0.0000  0.1806  0.0000  0.0000  0.0000  0.0000  0.0000 </r>
        <r>  0.0000  0.1790  0.0000  0.0176  0.0000  0.0000  0.0000  0.0000  0.0000 </r>
       </set>
       <set comment="band 5">
        <r>  0.0529  0.0000  0.0489  0.0000  0.0000  0.0000  0.0000  0.0000  0.0000 </r>
        <r>  0.0529  0.0000  0.0489  0.0000  0.0000  0.0000  0.0000  0.0000  0.0000 </r>
       </set>
       <set comment="band 6">
        <r>  0.0459  0.0000  0.0293  0.0000  0.0000  0.0000  0.0000  0.0000  0.0000 </r>
        <r>  0.0459  0.0000  0.0293  0.0000  0.0000  0.0000  0.0000  0.0000  0.0000 </r>
       </set>
       <set comment="band 7">
        <r>  0.0000  0.1143  0.0000  0.0492  0.0000  0.0000  0.0000  0.0000  0.0000 </r>
        <r>  0.0000  0.0471  0.0000  0.1164  0.0000  0.0000  0.0000  0.0000  0.0000 </r>
       </set>
       <set comment="band 8">
        <r>  0.0000  0.0492  0.0000  0.1143  0.0000  0.0000  0.0000  0.0000  0.0000 </r>
        <r>  0.0000  0.1164  0.0000  0.0471  0.0000  0.0000  0.0000  0.0000  0.0000 </r>
       </set>
       <set comment="band 9">
        <r>  0.0000  0.0000  0.0000  0.0000  0.0000  0.0000  0.0000  0.0000  0.0000 </r>
        <r>  0.0000  0.0000  0.0000  0.0000  0.0000  0.0000  0.0000  0.0000  0.0000 </r>
       </set>
      </set>
      <set comment="kpoint 19">
       <set comment="band 1">
        <r>  0.2040  0.0008  0.0330  0.0008  0.0000  0.0000  0.0000  0.0000  0.0000 </r>
        <r>  0.2040  0.0008  0.0330  0.0008  0.0000  0.0000  0.0000  0.0000  0.0000 </r>
       </set>
       <set comment="band 2">
        <r>  0.1919  0.0024  0.0516  0.0024  0.0000  0.0000  0.0000  0.0000  0.0000 </r>
        <r>  0.1919  0.0024  0.0516  0.0024  0.0000  0.0000  0.0000  0.0000  0.0000 </r>
       </set>
       <set comment="band 3">
        <r>  0.0029  0.0780  0.0174  0.0780  0.0000  0.0000  0.0000  0.0000  0.0000 </r>
        <r>  0.0029  0.0780  0.0174  0.0780  0.0000  0.0000  0.0000  0.0000  0.0000 </r>
       </set>
       <set comment="band 4">
        <r>  0.0000  0.0986  0.0000  0.0986  0.0000  0.0000  0.0000  0.0000  0.0000 </r>
        <r>  0.0000  0.0986  0.0000  0.0986  0.0000  0.0000  0.0000  0.0000  0.0000 </r>
       </set>
       <set comment="band 5">
        <r>  0.0513  0.0014  0.0375  0.0014  0.0000  0.0000  0.0000  0.0000  0.0000 </r>
        <r>  0.0513  0.0014  0.0375  0.0014  0.0000  0.0000  0.0000  0.0000  0.0000 </r>
       </set>
       <set comment="band 6">
        <r>  0.0404  0.0170  0.0240  0.0170  0.0000  0.0000  0.0000  0.0000  0.0000 </r>
        <r>  0.0404  0.0170  0.0241  0.0170  0.0000  0.0000  0.0000  0.0000  0.0000 </r>
       </set>
       <set comment="band 7">
        <r>  0.0000  0.0669  0.0000  0.0669  0.0000  0.0000  0.0000  0.0000  0.0000 </r>
        <r>  0.0000  0.0669  0.0000  0.0669  0.0000  0.0000  0.0000  0.0000  0.0000 </r>
       </set>
       <set comment="band 8">
        <r>  0.0311  0.0555  0.0367  0.0555  0.0000  0.0000  0.0000  0.0000  0.0000 </r>
        <r>  0.0311  0.0555  0.0367  0.0555  0.0000  0.0000  0.0000  0.0000  0.0000 </r>
       </set>
       <set comment="band 9">
        <r>  0.0151  0.0424  0.0645  0.0371  0.0000  0.0000  0.0000  0.0000  0.0000 </r>
        <r>  0.0152  0.0420  0.0641  0.0376  0.0000  0.0000  0.0000  0.0000  0.0000 </r>
       </set>
      </set>
      <set comment="kpoint 20">
       <set comment="band 1">
        <r>  0.2163  0.0049  0.0233  0.0049  0.0000  0.0000  0.0000  0.0000  0.0000 </r>
        <r>  0.2163  0.0049  0.0233  0.0049  0.0000  0.0000  0.0000  0.0000  0.0000 </r>
       </set>
       <set comment="band 2">
        <r>  0.1864  0.0058  0.0438  0.0058  0.0000  0.0000  0.0000  0.0000  0.0000 </r>
        <r>  0.1864  0.0058  0.0438  0.0058  0.0000  0.0000  0.0000  0.0000  0.0000 </r>
       </set>
       <set comment="band 3">
        <r>  0.0000  0.0573  0.0430  0.0573  0.0000  0.0000  0.0000  0.0000  0.0000 </r>
        <r>  0.0000  0.0573  0.0430  0.0573  0.0000  0.0000  0.0000  0.0000  0.0000 </r>
       </set>
       <set comment="band 4">
        <r>  0.0000  0.0999  0.0000  0.0999  0.0000  0.0000  0.0000  0.0000  0.0000 </r>
        <r>  0.0000  0.0999  0.0000  0.0999  0.0000  0.0000  0.0000  0.0000  0.0000 </r>
       </set>
       <set comment="band 5">
        <r>  0.0529  0.0008  0.0382  0.0008  0.0000  0.0000  0.0000  0.0000  0.0000 </r>
        <r>  0.0529  0.0008  0.0382  0.0008  0.0000  0.0000  0.0000  0.0000  0.0000 </r>
       </set>
       <set comment="band 6">
        <r>  0.0239  0.0345  0.0126  0.0345  0.0000  0.0000  0.0000  0.0000  0.0000 </r>
        <r>  0.0239  0.0345  0.0126  0.0345  0.0000  0.0000  0.0000  0.0000  0.0000 </r>
       </set>
       <set comment="band 7">
        <r>  0.0000  0.0784  0.0000  0.0784  0.0000  0.0000  0.0000  0.0000  0.0000 </r>
        <r>  0.0000  0.0784  0.0000  0.0784  0.0000  0.0000  0.0000  0.0000  0.0000 </r>
       </set>
       <set comment="band 8">
        <r>  0.0351  0.0000  0.1035  0.0000  0.0000  0.0000  0.0000  0.0000  0.0000 </r>
        <r>  0.0351  0.0000  0.1035  0.0000  0.0000  0.0000  0.0000  0.0000  0.0000 </r>
       </set>
       <set comment="band 9">
        <r>  0.0532  0.0702  0.0369  0.0701  0.0000  0.0000  0.0000  0.0000  0.0000 </r>
        <r>  0.0532  0.0702  0.0369  0.0701  0.0000  0.0000  0.0000  0.0000  0.0000 </r>
       </set>
      </set>
      <set comment="kpoint 21">
       <set comment="band 1">
        <r>  0.3916  0.0000  0.0004  0.0000  0.0000  0.0000  0.0000  0.0000  0.0000 </r>
        <r>  0.0017  0.0000  0.0903  0.0000  0.0000  0.0000  0.0000  0.0000  0.0000 </r>
       </set>
       <set comment="band 2">
        <r>  0.0017  0.0000  0.0903  0.0000  0.0000  0.0000  0.0000  0.0000  0.0000 </r>
        <r>  0.3916  0.0000  0.0004  0.0000  0.0000  0.0000  0.0000  0.0000  0.0000 </r>
       </set>
       <set comment="band 3">
        <r>  0.0000  0.1828  0.0000  0.0136  0.0000  0.0000  0.0000  0.0000  0.0000 </r>
        <r>  0.0000  0.0136  0.0000  0.1828  0.0000  0.0000  0.0000  0.0000  0.0000 </r>
       </set>
       <set comment="band 4">
        <r>  0.0000  0.0136  0.0000  0.1828  0.0000  0.0000  0.0000  0.0000  0.0000 </r>
        <r>  0.0000  0.1828  0.0000  0.0136  0.0000  0.0000  0.0000  0.0000  0.0000 </r>
       </set>
       <set comment="band 5">
        <r>  0.0051  0.0000  0.0651  0.0000  0.0000  0.0000  0.0000  0.0000  0.0000 </r>
        <r>  0.0990  0.0000  0.0033  0.0000  0.0000  0.0000  0.0000  0.0000  0.0000 </r>
       </set>
       <set comment="band 6">
        <r>  0.0990  0.0000  0.0033  0.0000  0.0000  0.0000  0.0000  0.0000  0.0000 </r>
        <r>  0.0051  0.0000  0.0651  0.0000  0.0000  0.0000  0.0000  0.0000  0.0000 </r>
       </set>
       <set comment="band 7">
        <r>  0.0000  0.1377  0.0000  0.1018  0.0000  0.0000  0.0000  0.0000  0.0000 </r>
        <r>  0.0000  0.1018  0.0000  0.1377  0.0000  0.0000  0.0000  0.0000  0.0000 </r>
       </set>
       <set comment="band 8">
        <r>  0.0000  0.1018  0.0000  0.1377  0.0000  0.0000  0.0000  0.0000  0.0000 </r>
        <r>  0.0000  0.1377  0.0000  0.1018  0.0000  0.0000  0.0000  0.0000  0.0000 </r>
       </set>
       <set comment="band 9">
        <r>  0.0000  0.0019  0.0000  0.0101  0.0000  0.0000  0.0000  0.0000  0.0000 </r>
        <r>  0.0000  0.0101  0.0000  0.0019  0.0000  0.0000  0.0000  0.0000  0.0000 </r>
       </set>
      </set>
      <set comment="kpoint 22">
       <set comment="band 1">
        <r>  0.2126  0.0022  0.0110  0.0005  0.0000  0.0000  0.0000  0.0000  0.0000 </r>
        <r>  0.2126  0.0022  0.0110  0.0005  0.0000  0.0000  0.0000  0.0000  0.0000 </r>
       </set>
       <set comment="band 2">
        <r>  0.1434  0.0192  0.0542  0.0270  0.0000  0.0000  0.0000  0.0000  0.0000 </r>
        <r>  0.1434  0.0192  0.0542  0.0270  0.0000  0.0000  0.0000  0.0000  0.0000 </r>
       </set>
       <set comment="band 3">
        <r>  0.0098  0.0488  0.0183  0.1049  0.0000  0.0000  0.0000  0.0000  0.0000 </r>
        <r>  0.0098  0.0488  0.0183  0.1049  0.0000  0.0000  0.0000  0.0000  0.0000 </r>
       </set>
       <set comment="band 4">
        <r>  0.0075  0.1111  0.0619  0.0261  0.0000  0.0000  0.0000  0.0000  0.0000 </r>
        <r>  0.0075  0.1111  0.0619  0.0261  0.0000  0.0000  0.0000  0.0000  0.0000 </r>
       </set>
       <set comment="band 5">
        <r>  0.0295  0.0186  0.0590  0.0263  0.0000  0.0000  0.0000  0.0000  0.0000 </r>
        <r>  0.0295  0.0186  0.0590  0.0263  0.0000  0.0000  0.0000  0.0000  0.0000 </r>
       </set>
       <set comment="band 6">
        <r>  0.1004  0.0012  0.0321  0.0511  0.0000  0.0000  0.0000  0.0000  0.0000 </r>
        <r>  0.1004  0.0012  0.0321  0.0511  0.0000  0.0000  0.0000  0.0000  0.0000 </r>
       </set>
       <set comment="band 7">
        <r>  0.0010  0.0510  0.0014  0.0187  0.0000  0.0000  0.0000  0.0000  0.0000 </r>
        <r>  0.0010  0.0510  0.0014  0.0187  0.0000  0.0000  0.0000  0.0000  0.0000 </r>
       </set>
       <set comment="band 8">
        <r>  0.0069  0.0646  0.0101  0.0751  0.0000  0.0000  0.0000  0.0000  0.0000 </r>
        <r>  0.0069  0.0646  0.0101  0.0751  0.0000  0.0000  0.0000  0.0000  0.0000 </r>
       </set>
       <set comment="band 9">
        <r>  0.0472  0.0104  0.0405  0.0012  0.0000  0.0000  0.0000  0.0000  0.0000 </r>
        <r>  0.0472  0.0104  0.0405  0.0012  0.0000  0.0000  0.0000  0.0000  0.0000 </r>
       </set>
      </set>
      <set comment="kpoint 23">
       <set comment="band 1">
        <r>  0.2136  0.0037  0.0144  0.0024  0.0000  0.0000  0.0000  0.0000  0.0000 </r>
        <r>  0.2136  0.0037  0.0144  0.0024  0.0000  0.0000  0.0000  0.0000  0.0000 </r>
       </set>
       <set comment="band 2">
        <r>  0.1472  0.0189  0.0323  0.0332  0.0000  0.0000  0.0000  0.0000  0.0000 </r>
        <r>  0.1472  0.0189  0.0323  0.0332  0.0000  0.0000  0.0000  0.0000  0.0000 </r>
       </set>
       <set comment="band 3">
        <r>  0.0260  0.0383  0.0371  0.0824  0.0000  0.0000  0.0000  0.0000  0.0000 </r>
        <r>  0.0260  0.0383  0.0371  0.0824  0.0000  0.0000  0.0000  0.0000  0.0000 </r>
       </set>
       <set comment="band 4">
        <r>  0.0037  0.1063  0.0608  0.0274  0.0000  0.0000  0.0000  0.0000  0.0000 </r>
        <r>  0.0037  0.1063  0.0608  0.0274  0.0000  0.0000  0.0000  0.0000  0.0000 </r>
       </set>
       <set comment="band 5">
        <r>  0.0439  0.0200  0.0421  0.0216  0.0000  0.0000  0.0000  0.0000  0.0000 </r>
        <r>  0.0439  0.0200  0.0421  0.0216  0.0000  0.0000  0.0000  0.0000  0.0000 </r>
       </set>
       <set comment="band 6">
        <r>  0.0418  0.0363  0.0080  0.0417  0.0000  0.0000  0.0000  0.0000  0.0000 </r>
        <r>  0.0418  0.0363  0.0080  0.0417  0.0000  0.0000  0.0000  0.0000  0.0000 </r>
       </set>
       <set comment="band 7">
        <r>  0.0385  0.0318  0.0242  0.0277  0.0000  0.0000  0.0000  0.0000  0.0000 </r>
        <r>  0.0385  0.0318  0.0242  0.0277  0.0000  0.0000  0.0000  0.0000  0.0000 </r>
       </set>
       <set comment="band 8">
        <r>  0.0151  0.0430  0.0211  0.0566  0.0000  0.0000  0.0000  0.0000  0.0000 </r>
        <r>  0.0151  0.0430  0.0211  0.0566  0.0000  0.0000  0.0000  0.0000  0.0000 </r>
       </set>
       <set comment="band 9">
        <r>  0.0242  0.0119  0.0405  0.0245  0.0000  0.0000  0.0000  0.0000  0.0000 </r>
        <r>  0.0241  0.0119  0.0405  0.0245  0.0000  0.0000  0.0000  0.0000  0.0000 </r>
       </set>
      </set>
      <set comment="kpoint 24">
       <set comment="band 1">
        <r>  0.2230  0.0032  0.0093  0.0093  0.0000  0.0000  0.0000  0.0000  0.0000 </r>
        <r>  0.2230  0.0032  0.0093  0.0093  0.0000  0.0000  0.0000  0.0000  0.0000 </r>
       </set>
       <set comment="band 2">
        <r>  0.1369  0.0206  0.0300  0.0300  0.0000  0.0000  0.0000  0.0000  0.0000 </r>
        <r>  0.1369  0.0206  0.0300  0.0300  0.0000  0.0000  0.0000  0.0000  0.0000 </r>
       </set>
       <set comment="band 3">
        <r>  0.0353  0.0305  0.0610  0.0610  0.0000  0.0000  0.0000  0.0000  0.0000 </r>
        <r>  0.0353  0.0305  0.0610  0.0610  0.0000  0.0000  0.0000  0.0000  0.0000 </r>
       </set>
       <set comment="band 4">
        <r>  0.0008  0.1082  0.0426  0.0426  0.0000  0.0000  0.0000  0.0000  0.0000 </r>
        <r>  0.0008  0.1082  0.0426  0.0426  0.0000  0.0000  0.0000  0.0000  0.0000 </r>
       </set>
       <set comment="band 5">
        <r>  0.0837  0.0129  0.0321  0.0321  0.0000  0.0000  0.0000  0.0000  0.0000 </r>
        <r>  0.0837  0.0129  0.0321  0.0321  0.0000  0.0000  0.0000  0.0000  0.0000 </r>
       </set>
       <set comment="band 6">
        <r>  0.0080  0.0408  0.0186  0.0186  0.0000  0.0000  0.0000  0.0000  0.0000 </r>
        <r>  0.0080  0.0408  0.0186  0.0186  0.0000  0.0000  0.0000  0.0000  0.0000 </r>
       </set>
       <set comment="band 7">
        <r>  0.0218  0.0403  0.0366  0.0366  0.0000  0.0000  0.0000  0.0000  0.0000 </r>
        <r>  0.0218  0.0403  0.0366  0.0366  0.0000  0.0000  0.0000  0.0000  0.0000 </r>
       </set>
       <set comment="band 8">
        <r>  0.0178  0.0635  0.0089  0.0089  0.0000  0.0000  0.0000  0.0000  0.0000 </r>
        <r>  0.0178  0.0635  0.0089  0.0089  0.0000  0.0000  0.0000  0.0000  0.0000 </r>
       </set>
       <set comment="band 9">
        <r>  0.0207  0.0143  0.0584  0.0584  0.0000  0.0000  0.0000  0.0000  0.0000 </r>
        <r>  0.0207  0.0143  0.0584  0.0584  0.0000  0.0000  0.0000  0.0000  0.0000 </r>
       </set>
      </set>
      <set comment="kpoint 25">
       <set comment="band 1">
        <r>  0.2082  0.0012  0.0237  0.0015  0.0000  0.0000  0.0000  0.0000  0.0000 </r>
        <r>  0.2082  0.0012  0.0237  0.0015  0.0000  0.0000  0.0000  0.0000  0.0000 </r>
       </set>
       <set comment="band 2">
        <r>  0.1834  0.0027  0.0516  0.0140  0.0000  0.0000  0.0000  0.0000  0.0000 </r>
        <r>  0.1834  0.0027  0.0516  0.0140  0.0000  0.0000  0.0000  0.0000  0.0000 </r>
       </set>
       <set comment="band 3">
        <r>  0.0077  0.0647  0.0146  0.0904  0.0000  0.0000  0.0000  0.0000  0.0000 </r>
        <r>  0.0077  0.0647  0.0146  0.0904  0.0000  0.0000  0.0000  0.0000  0.0000 </r>
       </set>
       <set comment="band 4">
        <r>  0.0008  0.0979  0.0286  0.0571  0.0000  0.0000  0.0000  0.0000  0.0000 </r>
        <r>  0.0008  0.0978  0.0286  0.0571  0.0000  0.0000  0.0000  0.0000  0.0000 </r>
       </set>
       <set comment="band 5">
        <r>  0.0386  0.0225  0.0374  0.0196  0.0000  0.0000  0.0000  0.0000  0.0000 </r>
        <r>  0.0386  0.0225  0.0374  0.0196  0.0000  0.0000  0.0000  0.0000  0.0000 </r>
       </set>
       <set comment="band 6">
        <r>  0.0385  0.0209  0.0202  0.0086  0.0000  0.0000  0.0000  0.0000  0.0000 </r>
        <r>  0.0385  0.0209  0.0202  0.0086  0.0000  0.0000  0.0000  0.0000  0.0000 </r>
       </set>
       <set comment="band 7">
        <r>  0.0369  0.0532  0.0206  0.0410  0.0000  0.0000  0.0000  0.0000  0.0000 </r>
        <r>  0.0369  0.0532  0.0206  0.0410  0.0000  0.0000  0.0000  0.0000  0.0000 </r>
       </set>
       <set comment="band 8">
        <r>  0.0024  0.0543  0.0086  0.0931  0.0000  0.0000  0.0000  0.0000  0.0000 </r>
        <r>  0.0024  0.0543  0.0086  0.0931  0.0000  0.0000  0.0000  0.0000  0.0000 </r>
       </set>
       <set comment="band 9">
        <r>  0.0109  0.0339  0.1088  0.0154  0.0000  0.0000  0.0000  0.0000  0.0000 </r>
        <r>  0.0378  0.0125  0.0140  0.0074  0.0000  0.0000  0.0000  0.0000  0.0000 </r>
       </set>
      </set>
      <set comment="kpoint 26">
       <set comment="band 1">
        <r>  0.2136  0.0013  0.0231  0.0074  0.0000  0.0000  0.0000  0.0000  0.0000 </r>
        <r>  0.2136  0.0013  0.0231  0.0074  0.0000  0.0000  0.0000  0.0000  0.0000 </r>
       </set>
       <set comment="band 2">
        <r>  0.1867  0.0046  0.0352  0.0184  0.0000  0.0000  0.0000  0.0000  0.0000 </r>
        <r>  0.1868  0.0046  0.0352  0.0184  0.0000  0.0000  0.0000  0.0000  0.0000 </r>
       </set>
       <set comment="band 3">
        <r>  0.0067  0.0582  0.0437  0.0555  0.0000  0.0000  0.0000  0.0000  0.0000 </r>
        <r>  0.0067  0.0582  0.0437  0.0555  0.0000  0.0000  0.0000  0.0000  0.0000 </r>
       </set>
       <set comment="band 4">
        <r>  0.0015  0.0887  0.0216  0.0691  0.0000  0.0000  0.0000  0.0000  0.0000 </r>
        <r>  0.0015  0.0887  0.0216  0.0691  0.0000  0.0000  0.0000  0.0000  0.0000 </r>
       </set>
       <set comment="band 5">
        <r>  0.0391  0.0283  0.0284  0.0110  0.0000  0.0000  0.0000  0.0000  0.0000 </r>
        <r>  0.0391  0.0283  0.0284  0.0110  0.0000  0.0000  0.0000  0.0000  0.0000 </r>
       </set>
       <set comment="band 6">
        <r>  0.0151  0.0558  0.0084  0.0164  0.0000  0.0000  0.0000  0.0000  0.0000 </r>
        <r>  0.0151  0.0558  0.0084  0.0164  0.0000  0.0000  0.0000  0.0000  0.0000 </r>
       </set>
       <set comment="band 7">
        <r>  0.0482  0.0271  0.0334  0.0445  0.0000  0.0000  0.0000  0.0000  0.0000 </r>
        <r>  0.0482  0.0271  0.0334  0.0445  0.0000  0.0000  0.0000  0.0000  0.0000 </r>
       </set>
       <set comment="band 8">
        <r>  0.0247  0.0453  0.0390  0.0302  0.0000  0.0000  0.0000  0.0000  0.0000 </r>
        <r>  0.0247  0.0453  0.0390  0.0302  0.0000  0.0000  0.0000  0.0000  0.0000 </r>
       </set>
       <set comment="band 9">
        <r>  0.0132  0.0328  0.0413  0.0512  0.0000  0.0000  0.0000  0.0000  0.0000 </r>
        <r>  0.0132  0.0328  0.0413  0.0512  0.0000  0.0000  0.0000  0.0000  0.0000 </r>
       </set>
      </set>
      <set comment="kpoint 27">
       <set comment="band 1">
        <r>  0.2148  0.0037  0.0081  0.0163  0.0000  0.0000  0.0000  0.0000  0.0000 </r>
        <r>  0.2148  0.0037  0.0081  0.0163  0.0000  0.0000  0.0000  0.0000  0.0000 </r>
       </set>
       <set comment="band 2">
        <r>  0.1817  0.0061  0.0356  0.0220  0.0000  0.0000  0.0000  0.0000  0.0000 </r>
        <r>  0.1817  0.0061  0.0356  0.0220  0.0000  0.0000  0.0000  0.0000  0.0000 </r>
       </set>
       <set comment="band 3">
        <r>  0.0058  0.0529  0.0680  0.0341  0.0000  0.0000  0.0000  0.0000  0.0000 </r>
        <r>  0.0058  0.0529  0.0680  0.0341  0.0000  0.0000  0.0000  0.0000  0.0000 </r>
       </set>
       <set comment="band 4">
        <r>  0.0032  0.0907  0.0186  0.0741  0.0000  0.0000  0.0000  0.0000  0.0000 </r>
        <r>  0.0032  0.0907  0.0186  0.0741  0.0000  0.0000  0.0000  0.0000  0.0000 </r>
       </set>
       <set comment="band 5">
        <r>  0.0382  0.0350  0.0308  0.0071  0.0000  0.0000  0.0000  0.0000  0.0000 </r>
        <r>  0.0382  0.0350  0.0308  0.0071  0.0000  0.0000  0.0000  0.0000  0.0000 </r>
       </set>
       <set comment="band 6">
        <r>  0.0185  0.0514  0.0272  0.0239  0.0000  0.0000  0.0000  0.0000  0.0000 </r>
        <r>  0.0185  0.0514  0.0272  0.0239  0.0000  0.0000  0.0000  0.0000  0.0000 </r>
       </set>
       <set comment="band 7">
        <r>  0.0466  0.0320  0.0270  0.0203  0.0000  0.0000  0.0000  0.0000  0.0000 </r>
        <r>  0.0466  0.0320  0.0270  0.0203  0.0000  0.0000  0.0000  0.0000  0.0000 </r>
       </set>
       <set comment="band 8">
        <r>  0.0183  0.0173  0.0124  0.0682  0.0000  0.0000  0.0000  0.0000  0.0000 </r>
        <r>  0.0183  0.0173  0.0124  0.0682  0.0000  0.0000  0.0000  0.0000  0.0000 </r>
       </set>
       <set comment="band 9">
        <r>  0.0150  0.0560  0.0882  0.0128  0.0000  0.0000  0.0000  0.0000  0.0000 </r>
        <r>  0.0150  0.0559  0.0882  0.0129  0.0000  0.0000  0.0000  0.0000  0.0000 </r>
       </set>
      </set>
      <set comment="kpoint 28">
       <set comment="band 1">
        <r>  0.4011  0.0001  0.0003  0.0000  0.0000  0.0000  0.0000  0.0000  0.0000 </r>
        <r>  0.0018  0.0000  0.0780  0.0097  0.0000  0.0000  0.0000  0.0000  0.0000 </r>
       </set>
       <set comment="band 2">
        <r>  0.0018  0.0000  0.0780  0.0097  0.0000  0.0000  0.0000  0.0000  0.0000 </r>
        <r>  0.4011  0.0001  0.0003  0.0000  0.0000  0.0000  0.0000  0.0000  0.0000 </r>
       </set>
       <set comment="band 3">
        <r>  0.0007  0.0239  0.0273  0.1315  0.0000  0.0000  0.0000  0.0000  0.0000 </r>
        <r>  0.0038  0.1379  0.0047  0.0228  0.0000  0.0000  0.0000  0.0000  0.0000 </r>
       </set>
       <set comment="band 4">
        <r>  0.0038  0.1379  0.0047  0.0228  0.0000  0.0000  0.0000  0.0000  0.0000 </r>
        <r>  0.0007  0.0239  0.0273  0.1315  0.0000  0.0000  0.0000  0.0000  0.0000 </r>
       </set>
       <set comment="band 5">
        <r>  0.0180  0.0104  0.0388  0.0214  0.0000  0.0000  0.0000  0.0000  0.0000 </r>
        <r>  0.0630  0.0363  0.0111  0.0061  0.0000  0.0000  0.0000  0.0000  0.0000 </r>
       </set>
       <set comment="band 6">
        <r>  0.0630  0.0363  0.0111  0.0061  0.0000  0.0000  0.0000  0.0000  0.0000 </r>
        <r>  0.0180  0.0104  0.0388  0.0214  0.0000  0.0000  0.0000  0.0000  0.0000 </r>
       </set>
       <set comment="band 7">
        <r>  0.0036  0.0094  0.0537  0.0605  0.0000  0.0000  0.0000  0.0000  0.0000 </r>
        <r>  0.0413  0.1077  0.0046  0.0053  0.0000  0.0000  0.0000  0.0000  0.0000 </r>
       </set>
       <set comment="band 8">
        <r>  0.0413  0.1078  0.0047  0.0053  0.0000  0.0000  0.0000  0.0000  0.0000 </r>
        <r>  0.0036  0.0093  0.0537  0.0606  0.0000  0.0000  0.0000  0.0000  0.0000 </r>
       </set>
       <set comment="band 9">
        <r>  0.0006  0.0466  0.0120  0.0441  0.0000  0.0000  0.0000  0.0000  0.0000 </r>
        <r>  0.0002  0.0200  0.0279  0.1025  0.0000  0.0000  0.0000  0.0000  0.0000 </r>
       </set>
      </set>
      <set comment="kpoint 29">
       <set comment="band 1">
        <r>  0.4123  0.0000  0.0003  0.0003  0.0000  0.0000  0.0000  0.0000  0.0000 </r>
        <r>  0.0025  0.0000  0.0423  0.0423  0.0000  0.0000  0.0000  0.0000  0.0000 </r>
       </set>
       <set comment="band 2">
        <r>  0.0025  0.0000  0.0423  0.0423  0.0000  0.0000  0.0000  0.0000  0.0000 </r>
        <r>  0.4123  0.0000  0.0003  0.0003  0.0000  0.0000  0.0000  0.0000  0.0000 </r>
       </set>
       <set comment="band 3">
        <r>  0.0000  0.0004  0.0914  0.0914  0.0000  0.0000  0.0000  0.0000  0.0000 </r>
        <r>  0.0000  0.1427  0.0003  0.0003  0.0000  0.0000  0.0000  0.0000  0.0000 </r>
       </set>
       <set comment="band 4">
        <r>  0.0000  0.1427  0.0003  0.0003  0.0000  0.0000  0.0000  0.0000  0.0000 </r>
        <r>  0.0000  0.0004  0.0914  0.0914  0.0000  0.0000  0.0000  0.0000  0.0000 </r>
       </set>
       <set comment="band 5">
        <r>  0.0000  0.1552  0.0000  0.0000  0.0000  0.0000  0.0000  0.0000  0.0000 </r>
        <r>  0.0000  0.0080  0.0001  0.0001  0.0000  0.0000  0.0000  0.0000  0.0000 </r>
       </set>
       <set comment="band 6">
        <r>  0.0000  0.0080  0.0001  0.0001  0.0000  0.0000  0.0000  0.0000  0.0000 </r>
        <r>  0.0000  0.1552  0.0000  0.0000  0.0000  0.0000  0.0000  0.0000  0.0000 </r>
       </set>
       <set comment="band 7">
        <r>  0.0021  0.0000  0.1000  0.1000  0.0000  0.0000  0.0000  0.0000  0.0000 </r>
        <r>  0.1257  0.0000  0.0016  0.0016  0.0000  0.0000  0.0000  0.0000  0.0000 </r>
       </set>
       <set comment="band 8">
        <r>  0.1257  0.0000  0.0016  0.0016  0.0000  0.0000  0.0000  0.0000  0.0000 </r>
        <r>  0.0021  0.0000  0.1000  0.1000  0.0000  0.0000  0.0000  0.0000  0.0000 </r>
       </set>
       <set comment="band 9">
        <r>  0.0000  0.0151  0.0783  0.0783  0.0000  0.0000  0.0000  0.0000  0.0000 </r>
        <r>  0.0000  0.0634  0.0187  0.0187  0.0000  0.0000  0.0000  0.0000  0.0000 </r>
       </set>
      </set>
      <set comment="kpoint 30">
       <set comment="band 1">
        <r>  0.2182  0.0000  0.0000  0.0000  0.0000  0.0000  0.0000  0.0000  0.0000 </r>
        <r>  0.2182  0.0000  0.0000  0.0000  0.0000  0.0000  0.0000  0.0000  0.0000 </r>
       </set>
       <set comment="band 2">
        <r>  0.0000  0.0990  0.0752  0.0409  0.0000  0.0000  0.0000  0.0000  0.0000 </r>
        <r>  0.0000  0.0990  0.0752  0.0409  0.0000  0.0000  0.0000  0.0000  0.0000 </r>
       </set>
       <set comment="band 3">
        <r>  0.0000  0.0350  0.0083  0.1718  0.0000  0.0000  0.0000  0.0000  0.0000 </r>
        <r>  0.0000  0.0350  0.0083  0.1718  0.0000  0.0000  0.0000  0.0000  0.0000 </r>
       </set>
       <set comment="band 4">
        <r>  0.0000  0.0810  0.1316  0.0024  0.0000  0.0000  0.0000  0.0000  0.0000 </r>
        <r>  0.0000  0.0810  0.1316  0.0024  0.0000  0.0000  0.0000  0.0000  0.0000 </r>
       </set>
       <set comment="band 5">
        <r>  0.0000  0.0971  0.0506  0.0021  0.0000  0.0000  0.0000  0.0000  0.0000 </r>
        <r>  0.0000  0.0971  0.0506  0.0021  0.0000  0.0000  0.0000  0.0000  0.0000 </r>
       </set>
       <set comment="band 6">
        <r>  0.0000  0.0066  0.0329  0.1103  0.0000  0.0000  0.0000  0.0000  0.0000 </r>
        <r>  0.0000  0.0066  0.0329  0.1103  0.0000  0.0000  0.0000  0.0000  0.0000 </r>
       </set>
       <set comment="band 7">
        <r>  0.0000  0.0461  0.0664  0.0374  0.0000  0.0000  0.0000  0.0000  0.0000 </r>
        <r>  0.0000  0.0461  0.0664  0.0374  0.0000  0.0000  0.0000  0.0000  0.0000 </r>
       </set>
       <set comment="band 8">
        <r>  0.3654  0.0000  0.0000  0.0000  0.0000  0.0000  0.0000  0.0000  0.0000 </r>
        <r>  0.3654  0.0000  0.0000  0.0000  0.0000  0.0000  0.0000  0.0000  0.0000 </r>
       </set>
       <set comment="band 9">
        <r>  0.1014  0.0000  0.0000  0.0000  0.0000  0.0000  0.0000  0.0000  0.0000 </r>
        <r>  0.1014  0.0000  0.0000  0.0000  0.0000  0.0000  0.0000  0.0000  0.0000 </r>
       </set>
      </set>
      <set comment="kpoint 31">
       <set comment="band 1">
        <r>  0.2181  0.0001  0.0000  0.0000  0.0000  0.0000  0.0000  0.0000  0.0000 </r>
        <r>  0.2181  0.0001  0.0000  0.0000  0.0000  0.0000  0.0000  0.0000  0.0000 </r>
       </set>
       <set comment="band 2">
        <r>  0.0071  0.2102  0.0000  0.0000  0.0000  0.0000  0.0000  0.0000  0.0000 </r>
        <r>  0.0071  0.2102  0.0000  0.0000  0.0000  0.0000  0.0000  0.0000  0.0000 </r>
       </set>
       <set comment="band 3">
        <r>  0.0000  0.0000  0.1089  0.1053  0.0000  0.0000  0.0000  0.0000  0.0000 </r>
        <r>  0.0000  0.0000  0.1100  0.1042  0.0000  0.0000  0.0000  0.0000  0.0000 </r>
       </set>
       <set comment="band 4">
        <r>  0.0000  0.0000  0.1053  0.1089  0.0000  0.0000  0.0000  0.0000  0.0000 </r>
        <r>  0.0000  0.0000  0.1042  0.1100  0.0000  0.0000  0.0000  0.0000  0.0000 </r>
       </set>
       <set comment="band 5">
        <r>  0.0011  0.1480  0.0000  0.0000  0.0000  0.0000  0.0000  0.0000  0.0000 </r>
        <r>  0.0011  0.1481  0.0000  0.0000  0.0000  0.0000  0.0000  0.0000  0.0000 </r>
       </set>
       <set comment="band 6">
        <r>  0.0000  0.0000  0.0667  0.0839  0.0000  0.0000  0.0000  0.0000  0.0000 </r>
        <r>  0.0000  0.0000  0.0673  0.0833  0.0000  0.0000  0.0000  0.0000  0.0000 </r>
       </set>
       <set comment="band 7">
        <r>  0.0000  0.0000  0.0839  0.0667  0.0000  0.0000  0.0000  0.0000  0.0000 </r>
        <r>  0.0000  0.0000  0.0833  0.0673  0.0000  0.0000  0.0000  0.0000  0.0000 </r>
       </set>
       <set comment="band 8">
        <r>  0.3580  0.0053  0.0000  0.0000  0.0000  0.0000  0.0000  0.0000  0.0000 </r>
        <r>  0.3580  0.0053  0.0000  0.0000  0.0000  0.0000  0.0000  0.0000  0.0000 </r>
       </set>
       <set comment="band 9">
        <r>  0.0994  0.0020  0.0000  0.0000  0.0000  0.0000  0.0000  0.0000  0.0000 </r>
        <r>  0.0996  0.0019  0.0000  0.0000  0.0000  0.0000  0.0000  0.0000  0.0000 </r>
       </set>
      </set>
      <set comment="kpoint 32">
       <set comment="band 1">
        <r>  0.2180  0.0004  0.0000  0.0000  0.0000  0.0000  0.0000  0.0000  0.0000 </r>
        <r>  0.2180  0.0004  0.0000  0.0000  0.0000  0.0000  0.0000  0.0000  0.0000 </r>
       </set>
       <set comment="band 2">
        <r>  0.0250  0.1980  0.0000  0.0000  0.0000  0.0000  0.0000  0.0000  0.0000 </r>
        <r>  0.0250  0.1980  0.0000  0.0000  0.0000  0.0000  0.0000  0.0000  0.0000 </r>
       </set>
       <set comment="band 3">
        <r>  0.0000  0.0000  0.1032  0.1089  0.0000  0.0000  0.0000  0.0000  0.0000 </r>
        <r>  0.0000  0.0000  0.1091  0.1030  0.0000  0.0000  0.0000  0.0000  0.0000 </r>
       </set>
       <set comment="band 4">
        <r>  0.0000  0.0000  0.1089  0.1032  0.0000  0.0000  0.0000  0.0000  0.0000 </r>
        <r>  0.0000  0.0000  0.1030  0.1091  0.0000  0.0000  0.0000  0.0000  0.0000 </r>
       </set>
       <set comment="band 5">
        <r>  0.0043  0.1430  0.0000  0.0000  0.0000  0.0000  0.0000  0.0000  0.0000 </r>
        <r>  0.0043  0.1430  0.0000  0.0000  0.0000  0.0000  0.0000  0.0000  0.0000 </r>
       </set>
       <set comment="band 6">
        <r>  0.0000  0.0000  0.0737  0.0791  0.0000  0.0000  0.0000  0.0000  0.0000 </r>
        <r>  0.0000  0.0000  0.0798  0.0730  0.0000  0.0000  0.0000  0.0000  0.0000 </r>
       </set>
       <set comment="band 7">
        <r>  0.0000  0.0000  0.0791  0.0737  0.0000  0.0000  0.0000  0.0000  0.0000 </r>
        <r>  0.0000  0.0000  0.0730  0.0798  0.0000  0.0000  0.0000  0.0000  0.0000 </r>
       </set>
       <set comment="band 8">
        <r>  0.3391  0.0190  0.0000  0.0000  0.0000  0.0000  0.0000  0.0000  0.0000 </r>
        <r>  0.3391  0.0190  0.0000  0.0000  0.0000  0.0000  0.0000  0.0000  0.0000 </r>
       </set>
       <set comment="band 9">
        <r>  0.0006  0.0009  0.0000  0.0000  0.0000  0.0000  0.0000  0.0000  0.0000 </r>
        <r>  0.0006  0.0010  0.0000  0.0000  0.0000  0.0000  0.0000  0.0000  0.0000 </r>
       </set>
      </set>
      <set comment="kpoint 33">
       <set comment="band 1">
        <r>  0.2177  0.0010  0.0000  0.0000  0.0000  0.0000  0.0000  0.0000  0.0000 </r>
        <r>  0.2177  0.0010  0.0000  0.0000  0.0000  0.0000  0.0000  0.0000  0.0000 </r>
       </set>
       <set comment="band 2">
        <r>  0.0471  0.1828  0.0000  0.0000  0.0000  0.0000  0.0000  0.0000  0.0000 </r>
        <r>  0.0471  0.1828  0.0000  0.0000  0.0000  0.0000  0.0000  0.0000  0.0000 </r>
       </set>
       <set comment="band 3">
        <r>  0.0000  0.0000  0.0983  0.1111  0.0000  0.0000  0.0000  0.0000  0.0000 </r>
        <r>  0.0000  0.0000  0.1112  0.0983  0.0000  0.0000  0.0000  0.0000  0.0000 </r>
       </set>
       <set comment="band 4">
        <r>  0.0000  0.0000  0.1111  0.0983  0.0000  0.0000  0.0000  0.0000  0.0000 </r>
        <r>  0.0000  0.0000  0.0983  0.1112  0.0000  0.0000  0.0000  0.0000  0.0000 </r>
       </set>
       <set comment="band 5">
        <r>  0.0089  0.1357  0.0000  0.0000  0.0000  0.0000  0.0000  0.0000  0.0000 </r>
        <r>  0.0089  0.1357  0.0000  0.0000  0.0000  0.0000  0.0000  0.0000  0.0000 </r>
       </set>
       <set comment="band 6">
        <r>  0.0000  0.0000  0.0721  0.0834  0.0000  0.0000  0.0000  0.0000  0.0000 </r>
        <r>  0.0000  0.0000  0.0844  0.0711  0.0000  0.0000  0.0000  0.0000  0.0000 </r>
       </set>
       <set comment="band 7">
        <r>  0.0000  0.0000  0.0834  0.0721  0.0000  0.0000  0.0000  0.0000  0.0000 </r>
        <r>  0.0000  0.0000  0.0711  0.0844  0.0000  0.0000  0.0000  0.0000  0.0000 </r>
       </set>
       <set comment="band 8">
        <r>  0.3140  0.0365  0.0000  0.0000  0.0000  0.0000  0.0000  0.0000  0.0000 </r>
        <r>  0.3140  0.0365  0.0000  0.0000  0.0000  0.0000  0.0000  0.0000  0.0000 </r>
       </set>
       <set comment="band 9">
        <r>  0.0032  0.0009  0.0000  0.0000  0.0000  0.0000  0.0000  0.0000  0.0000 </r>
        <r>  0.0033  0.0009  0.0000  0.0000  0.0000  0.0000  0.0000  0.0000  0.0000 </r>
       </set>
      </set>
      <set comment="kpoint 34">
       <set comment="band 1">
        <r>  0.2173  0.0017  0.0000  0.0000  0.0000  0.0000  0.0000  0.0000  0.0000 </r>
        <r>  0.2173  0.0017  0.0000  0.0000  0.0000  0.0000  0.0000  0.0000  0.0000 </r>
       </set>
       <set comment="band 2">
        <r>  0.0687  0.1677  0.0000  0.0000  0.0000  0.0000  0.0000  0.0000  0.0000 </r>
        <r>  0.0687  0.1677  0.0000  0.0000  0.0000  0.0000  0.0000  0.0000  0.0000 </r>
       </set>
       <set comment="band 3">
        <r>  0.0000  0.0000  0.0930  0.1139  0.0000  0.0000  0.0000  0.0000  0.0000 </r>
        <r>  0.0000  0.0000  0.1139  0.0929  0.0000  0.0000  0.0000  0.0000  0.0000 </r>
       </set>
       <set comment="band 4">
        <r>  0.0000  0.0000  0.1139  0.0930  0.0000  0.0000  0.0000  0.0000  0.0000 </r>
        <r>  0.0000  0.0000  0.0929  0.1139  0.0000  0.0000  0.0000  0.0000  0.0000 </r>
       </set>
       <set comment="band 5">
        <r>  0.0143  0.1271  0.0000  0.0000  0.0000  0.0000  0.0000  0.0000  0.0000 </r>
        <r>  0.0143  0.1271  0.0000  0.0000  0.0000  0.0000  0.0000  0.0000  0.0000 </r>
       </set>
       <set comment="band 6">
        <r>  0.0000  0.0000  0.0696  0.0884  0.0000  0.0000  0.0000  0.0000  0.0000 </r>
        <r>  0.0000  0.0000  0.0889  0.0692  0.0000  0.0000  0.0000  0.0000  0.0000 </r>
       </set>
       <set comment="band 7">
        <r>  0.0000  0.0000  0.0884  0.0696  0.0000  0.0000  0.0000  0.0000  0.0000 </r>
        <r>  0.0000  0.0000  0.0692  0.0889  0.0000  0.0000  0.0000  0.0000  0.0000 </r>
       </set>
       <set comment="band 8">
        <r>  0.2843  0.0544  0.0000  0.0000  0.0000  0.0000  0.0000  0.0000  0.0000 </r>
        <r>  0.2844  0.0544  0.0000  0.0000  0.0000  0.0000  0.0000  0.0000  0.0000 </r>
       </set>
       <set comment="band 9">
        <r>  0.0113  0.0001  0.0000  0.0000  0.0000  0.0000  0.0000  0.0000  0.0000 </r>
        <r>  0.0112  0.0001  0.0000  0.0000  0.0000  0.0000  0.0000  0.0000  0.0000 </r>
       </set>
      </set>
      <set comment="kpoint 35">
       <set comment="band 1">
        <r>  0.2169  0.0027  0.0000  0.0000  0.0000  0.0000  0.0000  0.0000  0.0000 </r>
        <r>  0.2169  0.0027  0.0000  0.0000  0.0000  0.0000  0.0000  0.0000  0.0000 </r>
       </set>
       <set comment="band 2">
        <r>  0.0880  0.1540  0.0000  0.0000  0.0000  0.0000  0.0000  0.0000  0.0000 </r>
        <r>  0.0880  0.1540  0.0000  0.0000  0.0000  0.0000  0.0000  0.0000  0.0000 </r>
       </set>
       <set comment="band 3">
        <r>  0.0000  0.0000  0.0884  0.1162  0.0000  0.0000  0.0000  0.0000  0.0000 </r>
        <r>  0.0000  0.0000  0.1176  0.0870  0.0000  0.0000  0.0000  0.0000  0.0000 </r>
       </set>
       <set comment="band 4">
        <r>  0.0000  0.0000  0.1162  0.0884  0.0000  0.0000  0.0000  0.0000  0.0000 </r>
        <r>  0.0000  0.0000  0.0870  0.1176  0.0000  0.0000  0.0000  0.0000  0.0000 </r>
       </set>
       <set comment="band 5">
        <r>  0.0198  0.1180  0.0000  0.0000  0.0000  0.0000  0.0000  0.0000  0.0000 </r>
        <r>  0.0198  0.1180  0.0000  0.0000  0.0000  0.0000  0.0000  0.0000  0.0000 </r>
       </set>
       <set comment="band 6">
        <r>  0.0000  0.0000  0.0601  0.1002  0.0000  0.0000  0.0000  0.0000  0.0000 </r>
        <r>  0.0000  0.0000  0.0927  0.0676  0.0000  0.0000  0.0000  0.0000  0.0000 </r>
       </set>
       <set comment="band 7">
        <r>  0.0000  0.0000  0.1002  0.0600  0.0000  0.0000  0.0000  0.0000  0.0000 </r>
        <r>  0.0000  0.0000  0.0676  0.0927  0.0000  0.0000  0.0000  0.0000  0.0000 </r>
       </set>
       <set comment="band 8">
        <r>  0.2444  0.0685  0.0000  0.0000  0.0000  0.0000  0.0000  0.0000  0.0000 </r>
        <r>  0.2444  0.0686  0.0000  0.0000  0.0000  0.0000  0.0000  0.0000  0.0000 </r>
       </set>
       <set comment="band 9">
        <r>  0.0320  0.0013  0.0000  0.0000  0.0000  0.0000  0.0000  0.0000  0.0000 </r>
        <r>  0.0321  0.0013  0.0000  0.0000  0.0000  0.0000  0.0000  0.0000  0.0000 </r>
       </set>
      </set>
      <set comment="kpoint 36">
       <set comment="band 1">
        <r>  0.2163  0.0039  0.0000  0.0000  0.0000  0.0000  0.0000  0.0000  0.0000 </r>
        <r>  0.2163  0.0039  0.0000  0.0000  0.0000  0.0000  0.0000  0.0000  0.0000 </r>
       </set>
       <set comment="band 2">
        <r>  0.1047  0.1419  0.0000  0.0000  0.0000  0.0000  0.0000  0.0000  0.0000 </r>
        <r>  0.1047  0.1419  0.0000  0.0000  0.0000  0.0000  0.0000  0.0000  0.0000 </r>
       </set>
       <set comment="band 3">
        <r>  0.0000  0.0000  0.0829  0.1198  0.0000  0.0000  0.0000  0.0000  0.0000 </r>
        <r>  0.0000  0.0000  0.1207  0.0820  0.0000  0.0000  0.0000  0.0000  0.0000 </r>
       </set>
       <set comment="band 4">
        <r>  0.0000  0.0000  0.1198  0.0829  0.0000  0.0000  0.0000  0.0000  0.0000 </r>
        <r>  0.0000  0.0000  0.0820  0.1207  0.0000  0.0000  0.0000  0.0000  0.0000 </r>
       </set>
       <set comment="band 5">
        <r>  0.0251  0.1091  0.0000  0.0000  0.0000  0.0000  0.0000  0.0000  0.0000 </r>
        <r>  0.0251  0.1091  0.0000  0.0000  0.0000  0.0000  0.0000  0.0000  0.0000 </r>
       </set>
       <set comment="band 6">
        <r>  0.0000  0.0000  0.0550  0.1070  0.0000  0.0000  0.0000  0.0000  0.0000 </r>
        <r>  0.0000  0.0000  0.0981  0.0639  0.0000  0.0000  0.0000  0.0000  0.0000 </r>
       </set>
       <set comment="band 7">
        <r>  0.0000  0.0000  0.1070  0.0550  0.0000  0.0000  0.0000  0.0000  0.0000 </r>
        <r>  0.0000  0.0000  0.0639  0.0981  0.0000  0.0000  0.0000  0.0000  0.0000 </r>
       </set>
       <set comment="band 8">
        <r>  0.1865  0.0723  0.0000  0.0000  0.0000  0.0000  0.0000  0.0000  0.0000 </r>
        <r>  0.1865  0.0723  0.0000  0.0000  0.0000  0.0000  0.0000  0.0000  0.0000 </r>
       </set>
       <set comment="band 9">
        <r>  0.0735  0.0112  0.0000  0.0000  0.0000  0.0000  0.0000  0.0000  0.0000 </r>
        <r>  0.0736  0.0112  0.0000  0.0000  0.0000  0.0000  0.0000  0.0000  0.0000 </r>
       </set>
      </set>
      <set comment="kpoint 37">
       <set comment="band 1">
        <r>  0.2156  0.0053  0.0000  0.0000  0.0000  0.0000  0.0000  0.0000  0.0000 </r>
        <r>  0.2156  0.0053  0.0000  0.0000  0.0000  0.0000  0.0000  0.0000  0.0000 </r>
       </set>
       <set comment="band 2">
        <r>  0.1189  0.1312  0.0000  0.0000  0.0000  0.0000  0.0000  0.0000  0.0000 </r>
        <r>  0.1189  0.1312  0.0000  0.0000  0.0000  0.0000  0.0000  0.0000  0.0000 </r>
       </set>
       <set comment="band 3">
        <r>  0.0000  0.0000  0.0777  0.1235  0.0000  0.0000  0.0000  0.0000  0.0000 </r>
        <r>  0.0000  0.0000  0.1239  0.0773  0.0000  0.0000  0.0000  0.0000  0.0000 </r>
       </set>
       <set comment="band 4">
        <r>  0.0000  0.0000  0.1235  0.0777  0.0000  0.0000  0.0000  0.0000  0.0000 </r>
        <r>  0.0000  0.0000  0.0773  0.1239  0.0000  0.0000  0.0000  0.0000  0.0000 </r>
       </set>
       <set comment="band 5">
        <r>  0.0301  0.1005  0.0000  0.0000  0.0000  0.0000  0.0000  0.0000  0.0000 </r>
        <r>  0.0301  0.1005  0.0000  0.0000  0.0000  0.0000  0.0000  0.0000  0.0000 </r>
       </set>
       <set comment="band 6">
        <r>  0.1263  0.0638  0.0000  0.0000  0.0000  0.0000  0.0000  0.0000  0.0000 </r>
        <r>  0.1263  0.0638  0.0000  0.0000  0.0000  0.0000  0.0000  0.0000  0.0000 </r>
       </set>
       <set comment="band 7">
        <r>  0.0000  0.0000  0.0536  0.1098  0.0000  0.0000  0.0000  0.0000  0.0000 </r>
        <r>  0.0000  0.0000  0.1035  0.0599  0.0000  0.0000  0.0000  0.0000  0.0000 </r>
       </set>
       <set comment="band 8">
        <r>  0.0000  0.0000  0.1098  0.0536  0.0000  0.0000  0.0000  0.0000  0.0000 </r>
        <r>  0.0000  0.0000  0.0599  0.1035  0.0000  0.0000  0.0000  0.0000  0.0000 </r>
       </set>
       <set comment="band 9">
        <r>  0.1199  0.0319  0.0000  0.0000  0.0000  0.0000  0.0000  0.0000  0.0000 </r>
        <r>  0.1199  0.0320  0.0000  0.0000  0.0000  0.0000  0.0000  0.0000  0.0000 </r>
       </set>
      </set>
      <set comment="kpoint 38">
       <set comment="band 1">
        <r>  0.2148  0.0069  0.0000  0.0000  0.0000  0.0000  0.0000  0.0000  0.0000 </r>
        <r>  0.2148  0.0069  0.0000  0.0000  0.0000  0.0000  0.0000  0.0000  0.0000 </r>
       </set>
       <set comment="band 2">
        <r>  0.1310  0.1217  0.0000  0.0000  0.0000  0.0000  0.0000  0.0000  0.0000 </r>
        <r>  0.1310  0.1217  0.0000  0.0000  0.0000  0.0000  0.0000  0.0000  0.0000 </r>
       </set>
       <set comment="band 3">
        <r>  0.0000  0.0000  0.0751  0.1250  0.0000  0.0000  0.0000  0.0000  0.0000 </r>
        <r>  0.0000  0.0000  0.1304  0.0697  0.0000  0.0000  0.0000  0.0000  0.0000 </r>
       </set>
       <set comment="band 4">
        <r>  0.0000  0.0000  0.1250  0.0751  0.0000  0.0000  0.0000  0.0000  0.0000 </r>
        <r>  0.0000  0.0000  0.0697  0.1304  0.0000  0.0000  0.0000  0.0000  0.0000 </r>
       </set>
       <set comment="band 5">
        <r>  0.0346  0.0925  0.0000  0.0000  0.0000  0.0000  0.0000  0.0000  0.0000 </r>
        <r>  0.0346  0.0925  0.0000  0.0000  0.0000  0.0000  0.0000  0.0000  0.0000 </r>
       </set>
       <set comment="band 6">
        <r>  0.0867  0.0529  0.0000  0.0000  0.0000  0.0000  0.0000  0.0000  0.0000 </r>
        <r>  0.0867  0.0528  0.0000  0.0000  0.0000  0.0000  0.0000  0.0000  0.0000 </r>
       </set>
       <set comment="band 7">
        <r>  0.0000  0.0000  0.0516  0.1126  0.0000  0.0000  0.0000  0.0000  0.0000 </r>
        <r>  0.0000  0.0000  0.0944  0.0698  0.0000  0.0000  0.0000  0.0000  0.0000 </r>
       </set>
       <set comment="band 8">
        <r>  0.0000  0.0000  0.1126  0.0516  0.0000  0.0000  0.0000  0.0000  0.0000 </r>
        <r>  0.0000  0.0000  0.0698  0.0944  0.0000  0.0000  0.0000  0.0000  0.0000 </r>
       </set>
       <set comment="band 9">
        <r>  0.1474  0.0541  0.0000  0.0000  0.0000  0.0000  0.0000  0.0000  0.0000 </r>
        <r>  0.1477  0.0543  0.0000  0.0000  0.0000  0.0000  0.0000  0.0000  0.0000 </r>
       </set>
      </set>
      <set comment="kpoint 39">
       <set comment="band 1">
        <r>  0.2139  0.0087  0.0000  0.0000  0.0000  0.0000  0.0000  0.0000  0.0000 </r>
        <r>  0.2139  0.0087  0.0000  0.0000  0.0000  0.0000  0.0000  0.0000  0.0000 </r>
       </set>
       <set comment="band 2">
        <r>  0.1414  0.1132  0.0000  0.0000  0.0000  0.0000  0.0000  0.0000  0.0000 </r>
        <r>  0.1414  0.1132  0.0000  0.0000  0.0000  0.0000  0.0000  0.0000  0.0000 </r>
       </set>
       <set comment="band 3">
        <r>  0.0000  0.0000  0.0695  0.1296  0.0000  0.0000  0.0000  0.0000  0.0000 </r>
        <r>  0.0000  0.0000  0.1333  0.0658  0.0000  0.0000  0.0000  0.0000  0.0000 </r>
       </set>
       <set comment="band 4">
        <r>  0.0000  0.0000  0.1296  0.0695  0.0000  0.0000  0.0000  0.0000  0.0000 </r>
        <r>  0.0000  0.0000  0.0658  0.1333  0.0000  0.0000  0.0000  0.0000  0.0000 </r>
       </set>
       <set comment="band 5">
        <r>  0.0386  0.0850  0.0000  0.0000  0.0000  0.0000  0.0000  0.0000  0.0000 </r>
        <r>  0.0386  0.0850  0.0000  0.0000  0.0000  0.0000  0.0000  0.0000  0.0000 </r>
       </set>
       <set comment="band 6">
        <r>  0.0656  0.0447  0.0000  0.0000  0.0000  0.0000  0.0000  0.0000  0.0000 </r>
        <r>  0.0655  0.0447  0.0000  0.0000  0.0000  0.0000  0.0000  0.0000  0.0000 </r>
       </set>
       <set comment="band 7">
        <r>  0.0000  0.0000  0.0537  0.1111  0.0000  0.0000  0.0000  0.0000  0.0000 </r>
        <r>  0.0000  0.0000  0.1047  0.0600  0.0000  0.0000  0.0000  0.0000  0.0000 </r>
       </set>
       <set comment="band 8">
        <r>  0.0000  0.0000  0.1111  0.0537  0.0000  0.0000  0.0000  0.0000  0.0000 </r>
        <r>  0.0000  0.0000  0.0600  0.1048  0.0000  0.0000  0.0000  0.0000  0.0000 </r>
       </set>
       <set comment="band 9">
        <r>  0.1583  0.0728  0.0000  0.0000  0.0000  0.0000  0.0000  0.0000  0.0000 </r>
        <r>  0.1587  0.0731  0.0000  0.0000  0.0000  0.0000  0.0000  0.0000  0.0000 </r>
       </set>
      </set>
      <set comment="kpoint 40">
       <set comment="band 1">
        <r>  0.2130  0.0106  0.0000  0.0000  0.0000  0.0000  0.0000  0.0000  0.0000 </r>
        <r>  0.2130  0.0106  0.0000  0.0000  0.0000  0.0000  0.0000  0.0000  0.0000 </r>
       </set>
       <set comment="band 2">
        <r>  0.1503  0.1055  0.0000  0.0000  0.0000  0.0000  0.0000  0.0000  0.0000 </r>
        <r>  0.1503  0.1055  0.0000  0.0000  0.0000  0.0000  0.0000  0.0000  0.0000 </r>
       </set>
       <set comment="band 3">
        <r>  0.0000  0.0000  0.0658  0.1326  0.0000  0.0000  0.0000  0.0000  0.0000 </r>
        <r>  0.0000  0.0000  0.1351  0.0633  0.0000  0.0000  0.0000  0.0000  0.0000 </r>
       </set>
       <set comment="band 4">
        <r>  0.0000  0.0000  0.1326  0.0658  0.0000  0.0000  0.0000  0.0000  0.0000 </r>
        <r>  0.0000  0.0000  0.0633  0.1351  0.0000  0.0000  0.0000  0.0000  0.0000 </r>
       </set>
       <set comment="band 5">
        <r>  0.0420  0.0782  0.0000  0.0000  0.0000  0.0000  0.0000  0.0000  0.0000 </r>
        <r>  0.0420  0.0782  0.0000  0.0000  0.0000  0.0000  0.0000  0.0000  0.0000 </r>
       </set>
       <set comment="band 6">
        <r>  0.0545  0.0392  0.0000  0.0000  0.0000  0.0000  0.0000  0.0000  0.0000 </r>
        <r>  0.0545  0.0392  0.0000  0.0000  0.0000  0.0000  0.0000  0.0000  0.0000 </r>
       </set>
       <set comment="band 7">
        <r>  0.0000  0.0000  0.0569  0.1081  0.0000  0.0000  0.0000  0.0000  0.0000 </r>
        <r>  0.0000  0.0000  0.1120  0.0530  0.0000  0.0000  0.0000  0.0000  0.0000 </r>
       </set>
       <set comment="band 8">
        <r>  0.0000  0.0000  0.1081  0.0569  0.0000  0.0000  0.0000  0.0000  0.0000 </r>
        <r>  0.0000  0.0000  0.0530  0.1121  0.0000  0.0000  0.0000  0.0000  0.0000 </r>
       </set>
       <set comment="band 9">
        <r>  0.1603  0.0884  0.0000  0.0000  0.0000  0.0000  0.0000  0.0000  0.0000 </r>
        <r>  0.1607  0.0889  0.0000  0.0000  0.0000  0.0000  0.0000  0.0000  0.0000 </r>
       </set>
      </set>
      <set comment="kpoint 41">
       <set comment="band 1">
        <r>  0.2119  0.0128  0.0000  0.0000  0.0000  0.0000  0.0000  0.0000  0.0000 </r>
        <r>  0.2119  0.0128  0.0000  0.0000  0.0000  0.0000  0.0000  0.0000  0.0000 </r>
       </set>
       <set comment="band 2">
        <r>  0.1579  0.0983  0.0000  0.0000  0.0000  0.0000  0.0000  0.0000  0.0000 </r>
        <r>  0.1579  0.0983  0.0000  0.0000  0.0000  0.0000  0.0000  0.0000  0.0000 </r>
       </set>
       <set comment="band 3">
        <r>  0.0000  0.0000  0.0609  0.1369  0.0000  0.0000  0.0000  0.0000  0.0000 </r>
        <r>  0.0000  0.0000  0.1368  0.0610  0.0000  0.0000  0.0000  0.0000  0.0000 </r>
       </set>
       <set comment="band 4">
        <r>  0.0000  0.0000  0.1369  0.0609  0.0000  0.0000  0.0000  0.0000  0.0000 </r>
        <r>  0.0000  0.0000  0.0611  0.1368  0.0000  0.0000  0.0000  0.0000  0.0000 </r>
       </set>
       <set comment="band 5">
        <r>  0.0450  0.0719  0.0000  0.0000  0.0000  0.0000  0.0000  0.0000  0.0000 </r>
        <r>  0.0450  0.0719  0.0000  0.0000  0.0000  0.0000  0.0000  0.0000  0.0000 </r>
       </set>
       <set comment="band 6">
        <r>  0.0488  0.0354  0.0000  0.0000  0.0000  0.0000  0.0000  0.0000  0.0000 </r>
        <r>  0.0488  0.0354  0.0000  0.0000  0.0000  0.0000  0.0000  0.0000  0.0000 </r>
       </set>
       <set comment="band 7">
        <r>  0.0000  0.0000  0.0624  0.1025  0.0000  0.0000  0.0000  0.0000  0.0000 </r>
        <r>  0.0000  0.0000  0.1155  0.0494  0.0000  0.0000  0.0000  0.0000  0.0000 </r>
       </set>
       <set comment="band 8">
        <r>  0.0000  0.0000  0.1024  0.0624  0.0000  0.0000  0.0000  0.0000  0.0000 </r>
        <r>  0.0000  0.0000  0.0494  0.1155  0.0000  0.0000  0.0000  0.0000  0.0000 </r>
       </set>
       <set comment="band 9">
        <r>  0.1582  0.1021  0.0000  0.0000  0.0000  0.0000  0.0000  0.0000  0.0000 </r>
        <r>  0.1583  0.1022  0.0000  0.0000  0.0000  0.0000  0.0000  0.0000  0.0000 </r>
       </set>
      </set>
      <set comment="kpoint 42">
       <set comment="band 1">
        <r>  0.2108  0.0152  0.0000  0.0000  0.0000  0.0000  0.0000  0.0000  0.0000 </r>
        <r>  0.2108  0.0152  0.0000  0.0000  0.0000  0.0000  0.0000  0.0000  0.0000 </r>
       </set>
       <set comment="band 2">
        <r>  0.1645  0.0917  0.0000  0.0000  0.0000  0.0000  0.0000  0.0000  0.0000 </r>
        <r>  0.1645  0.0917  0.0000  0.0000  0.0000  0.0000  0.0000  0.0000  0.0000 </r>
       </set>
       <set comment="band 3">
        <r>  0.0000  0.0000  0.0577  0.1398  0.0000  0.0000  0.0000  0.0000  0.0000 </r>
        <r>  0.0000  0.0000  0.1397  0.0577  0.0000  0.0000  0.0000  0.0000  0.0000 </r>
       </set>
       <set comment="band 4">
        <r>  0.0000  0.0000  0.1398  0.0577  0.0000  0.0000  0.0000  0.0000  0.0000 </r>
        <r>  0.0000  0.0000  0.0577  0.1397  0.0000  0.0000  0.0000  0.0000  0.0000 </r>
       </set>
       <set comment="band 5">
        <r>  0.0475  0.0662  0.0000  0.0000  0.0000  0.0000  0.0000  0.0000  0.0000 </r>
        <r>  0.0475  0.0662  0.0000  0.0000  0.0000  0.0000  0.0000  0.0000  0.0000 </r>
       </set>
       <set comment="band 6">
        <r>  0.0459  0.0329  0.0000  0.0000  0.0000  0.0000  0.0000  0.0000  0.0000 </r>
        <r>  0.0459  0.0329  0.0000  0.0000  0.0000  0.0000  0.0000  0.0000  0.0000 </r>
       </set>
       <set comment="band 7">
        <r>  0.0000  0.0000  0.0676  0.0970  0.0000  0.0000  0.0000  0.0000  0.0000 </r>
        <r>  0.0000  0.0000  0.1180  0.0465  0.0000  0.0000  0.0000  0.0000  0.0000 </r>
       </set>
       <set comment="band 8">
        <r>  0.0000  0.0000  0.0969  0.0676  0.0000  0.0000  0.0000  0.0000  0.0000 </r>
        <r>  0.0000  0.0000  0.0465  0.1180  0.0000  0.0000  0.0000  0.0000  0.0000 </r>
       </set>
       <set comment="band 9">
        <r>  0.1534  0.1145  0.0000  0.0000  0.0000  0.0000  0.0000  0.0000  0.0000 </r>
        <r>  0.1534  0.1147  0.0000  0.0000  0.0000  0.0000  0.0000  0.0000  0.0000 </r>
       </set>
      </set>
      <set comment="kpoint 43">
       <set comment="band 1">
        <r>  0.2096  0.0178  0.0000  0.0000  0.0000  0.0000  0.0000  0.0000  0.0000 </r>
        <r>  0.2096  0.0178  0.0000  0.0000  0.0000  0.0000  0.0000  0.0000  0.0000 </r>
       </set>
       <set comment="band 2">
        <r>  0.1702  0.0855  0.0000  0.0000  0.0000  0.0000  0.0000  0.0000  0.0000 </r>
        <r>  0.1702  0.0855  0.0000  0.0000  0.0000  0.0000  0.0000  0.0000  0.0000 </r>
       </set>
       <set comment="band 3">
        <r>  0.0000  0.0000  0.0547  0.1425  0.0000  0.0000  0.0000  0.0000  0.0000 </r>
        <r>  0.0000  0.0000  0.1425  0.0547  0.0000  0.0000  0.0000  0.0000  0.0000 </r>
       </set>
       <set comment="band 4">
        <r>  0.0000  0.0000  0.1425  0.0547  0.0000  0.0000  0.0000  0.0000  0.0000 </r>
        <r>  0.0000  0.0000  0.0547  0.1425  0.0000  0.0000  0.0000  0.0000  0.0000 </r>
       </set>
       <set comment="band 5">
        <r>  0.0495  0.0610  0.0000  0.0000  0.0000  0.0000  0.0000  0.0000  0.0000 </r>
        <r>  0.0495  0.0610  0.0000  0.0000  0.0000  0.0000  0.0000  0.0000  0.0000 </r>
       </set>
       <set comment="band 6">
        <r>  0.0448  0.0311  0.0000  0.0000  0.0000  0.0000  0.0000  0.0000  0.0000 </r>
        <r>  0.0448  0.0311  0.0000  0.0000  0.0000  0.0000  0.0000  0.0000  0.0000 </r>
       </set>
       <set comment="band 7">
        <r>  0.0000  0.0000  0.0711  0.0930  0.0000  0.0000  0.0000  0.0000  0.0000 </r>
        <r>  0.0000  0.0000  0.1210  0.0431  0.0000  0.0000  0.0000  0.0000  0.0000 </r>
       </set>
       <set comment="band 8">
        <r>  0.0000  0.0000  0.0930  0.0712  0.0000  0.0000  0.0000  0.0000  0.0000 </r>
        <r>  0.0000  0.0000  0.0431  0.1210  0.0000  0.0000  0.0000  0.0000  0.0000 </r>
       </set>
       <set comment="band 9">
        <r>  0.1470  0.1260  0.0000  0.0000  0.0000  0.0000  0.0000  0.0000  0.0000 </r>
        <r>  0.1469  0.1264  0.0000  0.0000  0.0000  0.0000  0.0000  0.0000  0.0000 </r>
       </set>
      </set>
      <set comment="kpoint 44">
       <set comment="band 1">
        <r>  0.2083  0.0206  0.0000  0.0000  0.0000  0.0000  0.0000  0.0000  0.0000 </r>
        <r>  0.2083  0.0206  0.0000  0.0000  0.0000  0.0000  0.0000  0.0000  0.0000 </r>
       </set>
       <set comment="band 2">
        <r>  0.1752  0.0796  0.0000  0.0000  0.0000  0.0000  0.0000  0.0000  0.0000 </r>
        <r>  0.1752  0.0796  0.0000  0.0000  0.0000  0.0000  0.0000  0.0000  0.0000 </r>
       </set>
       <set comment="band 3">
        <r>  0.0000  0.0000  0.0520  0.1449  0.0000  0.0000  0.0000  0.0000  0.0000 </r>
        <r>  0.0000  0.0000  0.1450  0.0519  0.0000  0.0000  0.0000  0.0000  0.0000 </r>
       </set>
       <set comment="band 4">
        <r>  0.0000  0.0000  0.1449  0.0520  0.0000  0.0000  0.0000  0.0000  0.0000 </r>
        <r>  0.0000  0.0000  0.0519  0.1450  0.0000  0.0000  0.0000  0.0000  0.0000 </r>
       </set>
       <set comment="band 5">
        <r>  0.0511  0.0562  0.0000  0.0000  0.0000  0.0000  0.0000  0.0000  0.0000 </r>
        <r>  0.0511  0.0562  0.0000  0.0000  0.0000  0.0000  0.0000  0.0000  0.0000 </r>
       </set>
       <set comment="band 6">
        <r>  0.0447  0.0300  0.0000  0.0000  0.0000  0.0000  0.0000  0.0000  0.0000 </r>
        <r>  0.0447  0.0300  0.0000  0.0000  0.0000  0.0000  0.0000  0.0000  0.0000 </r>
       </set>
       <set comment="band 7">
        <r>  0.0000  0.0000  0.0734  0.0903  0.0000  0.0000  0.0000  0.0000  0.0000 </r>
        <r>  0.0000  0.0000  0.1241  0.0395  0.0000  0.0000  0.0000  0.0000  0.0000 </r>
       </set>
       <set comment="band 8">
        <r>  0.0000  0.0000  0.0904  0.0735  0.0000  0.0000  0.0000  0.0000  0.0000 </r>
        <r>  0.0000  0.0000  0.0395  0.1242  0.0000  0.0000  0.0000  0.0000  0.0000 </r>
       </set>
       <set comment="band 9">
        <r>  0.1393  0.1368  0.0000  0.0000  0.0000  0.0000  0.0000  0.0000  0.0000 </r>
        <r>  0.1393  0.1374  0.0000  0.0000  0.0000  0.0000  0.0000  0.0000  0.0000 </r>
       </set>
      </set>
      <set comment="kpoint 45">
       <set comment="band 1">
        <r>  0.2069  0.0236  0.0000  0.0000  0.0000  0.0000  0.0000  0.0000  0.0000 </r>
        <r>  0.2069  0.0236  0.0000  0.0000  0.0000  0.0000  0.0000  0.0000  0.0000 </r>
       </set>
       <set comment="band 2">
        <r>  0.1795  0.0740  0.0000  0.0000  0.0000  0.0000  0.0000  0.0000  0.0000 </r>
        <r>  0.1795  0.0740  0.0000  0.0000  0.0000  0.0000  0.0000  0.0000  0.0000 </r>
       </set>
       <set comment="band 3">
        <r>  0.0000  0.0000  0.0494  0.1473  0.0000  0.0000  0.0000  0.0000  0.0000 </r>
        <r>  0.0000  0.0000  0.1473  0.0494  0.0000  0.0000  0.0000  0.0000  0.0000 </r>
       </set>
       <set comment="band 4">
        <r>  0.0000  0.0000  0.1473  0.0494  0.0000  0.0000  0.0000  0.0000  0.0000 </r>
        <r>  0.0000  0.0000  0.0494  0.1473  0.0000  0.0000  0.0000  0.0000  0.0000 </r>
       </set>
       <set comment="band 5">
        <r>  0.0523  0.0519  0.0000  0.0000  0.0000  0.0000  0.0000  0.0000  0.0000 </r>
        <r>  0.0523  0.0519  0.0000  0.0000  0.0000  0.0000  0.0000  0.0000  0.0000 </r>
       </set>
       <set comment="band 6">
        <r>  0.0452  0.0294  0.0000  0.0000  0.0000  0.0000  0.0000  0.0000  0.0000 </r>
        <r>  0.0452  0.0294  0.0000  0.0000  0.0000  0.0000  0.0000  0.0000  0.0000 </r>
       </set>
       <set comment="band 7">
        <r>  0.0000  0.0000  0.0787  0.0847  0.0000  0.0000  0.0000  0.0000  0.0000 </r>
        <r>  0.0000  0.0000  0.1238  0.0396  0.0000  0.0000  0.0000  0.0000  0.0000 </r>
       </set>
       <set comment="band 8">
        <r>  0.0000  0.0000  0.0847  0.0787  0.0000  0.0000  0.0000  0.0000  0.0000 </r>
        <r>  0.0000  0.0000  0.0395  0.1239  0.0000  0.0000  0.0000  0.0000  0.0000 </r>
       </set>
       <set comment="band 9">
        <r>  0.1296  0.1462  0.0000  0.0000  0.0000  0.0000  0.0000  0.0000  0.0000 </r>
        <r>  0.1298  0.1470  0.0000  0.0000  0.0000  0.0000  0.0000  0.0000  0.0000 </r>
       </set>
      </set>
      <set comment="kpoint 46">
       <set comment="band 1">
        <r>  0.2054  0.0267  0.0000  0.0000  0.0000  0.0000  0.0000  0.0000  0.0000 </r>
        <r>  0.2054  0.0267  0.0000  0.0000  0.0000  0.0000  0.0000  0.0000  0.0000 </r>
       </set>
       <set comment="band 2">
        <r>  0.1832  0.0687  0.0000  0.0000  0.0000  0.0000  0.0000  0.0000  0.0000 </r>
        <r>  0.1832  0.0687  0.0000  0.0000  0.0000  0.0000  0.0000  0.0000  0.0000 </r>
       </set>
       <set comment="band 3">
        <r>  0.0000  0.0000  0.0473  0.1492  0.0000  0.0000  0.0000  0.0000  0.0000 </r>
        <r>  0.0000  0.0000  0.1493  0.0472  0.0000  0.0000  0.0000  0.0000  0.0000 </r>
       </set>
       <set comment="band 4">
        <r>  0.0000  0.0000  0.1492  0.0473  0.0000  0.0000  0.0000  0.0000  0.0000 </r>
        <r>  0.0000  0.0000  0.0472  0.1493  0.0000  0.0000  0.0000  0.0000  0.0000 </r>
       </set>
       <set comment="band 5">
        <r>  0.0531  0.0480  0.0000  0.0000  0.0000  0.0000  0.0000  0.0000  0.0000 </r>
        <r>  0.0531  0.0480  0.0000  0.0000  0.0000  0.0000  0.0000  0.0000  0.0000 </r>
       </set>
       <set comment="band 6">
        <r>  0.0462  0.0293  0.0000  0.0000  0.0000  0.0000  0.0000  0.0000  0.0000 </r>
        <r>  0.0462  0.0293  0.0000  0.0000  0.0000  0.0000  0.0000  0.0000  0.0000 </r>
       </set>
       <set comment="band 7">
        <r>  0.0000  0.0000  0.0802  0.0835  0.0000  0.0000  0.0000  0.0000  0.0000 </r>
        <r>  0.0000  0.0000  0.1264  0.0372  0.0000  0.0000  0.0000  0.0000  0.0000 </r>
       </set>
       <set comment="band 8">
        <r>  0.0000  0.0000  0.0835  0.0802  0.0000  0.0000  0.0000  0.0000  0.0000 </r>
        <r>  0.0000  0.0000  0.0372  0.1265  0.0000  0.0000  0.0000  0.0000  0.0000 </r>
       </set>
       <set comment="band 9">
        <r>  0.0241  0.0299  0.0005  0.0000  0.0000  0.0000  0.0000  0.0000  0.0000 </r>
        <r>  0.0262  0.0370  0.0000  0.0008  0.0000  0.0000  0.0000  0.0000  0.0000 </r>
       </set>
      </set>
      <set comment="kpoint 47">
       <set comment="band 1">
        <r>  0.2039  0.0301  0.0000  0.0000  0.0000  0.0000  0.0000  0.0000  0.0000 </r>
        <r>  0.2039  0.0301  0.0000  0.0000  0.0000  0.0000  0.0000  0.0000  0.0000 </r>
       </set>
       <set comment="band 2">
        <r>  0.1865  0.0636  0.0000  0.0000  0.0000  0.0000  0.0000  0.0000  0.0000 </r>
        <r>  0.1865  0.0636  0.0000  0.0000  0.0000  0.0000  0.0000  0.0000  0.0000 </r>
       </set>
       <set comment="band 3">
        <r>  0.0000  0.0000  0.0455  0.1510  0.0000  0.0000  0.0000  0.0000  0.0000 </r>
        <r>  0.0000  0.0000  0.1512  0.0453  0.0000  0.0000  0.0000  0.0000  0.0000 </r>
       </set>
       <set comment="band 4">
        <r>  0.0000  0.0000  0.1510  0.0455  0.0000  0.0000  0.0000  0.0000  0.0000 </r>
        <r>  0.0000  0.0000  0.0453  0.1512  0.0000  0.0000  0.0000  0.0000  0.0000 </r>
       </set>
       <set comment="band 5">
        <r>  0.0535  0.0445  0.0000  0.0000  0.0000  0.0000  0.0000  0.0000  0.0000 </r>
        <r>  0.0535  0.0445  0.0000  0.0000  0.0000  0.0000  0.0000  0.0000  0.0000 </r>
       </set>
       <set comment="band 6">
        <r>  0.0474  0.0295  0.0000  0.0000  0.0000  0.0000  0.0000  0.0000  0.0000 </r>
        <r>  0.0474  0.0295  0.0000  0.0000  0.0000  0.0000  0.0000  0.0000  0.0000 </r>
       </set>
       <set comment="band 7">
        <r>  0.0000  0.0000  0.0959  0.0690  0.0000  0.0000  0.0000  0.0000  0.0000 </r>
        <r>  0.0000  0.0000  0.1162  0.0488  0.0000  0.0000  0.0000  0.0000  0.0000 </r>
       </set>
       <set comment="band 8">
        <r>  0.0000  0.0000  0.0692  0.0961  0.0000  0.0000  0.0000  0.0000  0.0000 </r>
        <r>  0.0000  0.0000  0.0489  0.1164  0.0000  0.0000  0.0000  0.0000  0.0000 </r>
       </set>
       <set comment="band 9">
        <r>  0.0000  0.0000  0.0000  0.0000  0.0000  0.0000  0.0000  0.0000  0.0000 </r>
        <r>  0.0000  0.0001  0.0000  0.0000  0.0000  0.0000  0.0000  0.0000  0.0000 </r>
       </set>
      </set>
      <set comment="kpoint 48">
       <set comment="band 1">
        <r>  0.2023  0.0336  0.0000  0.0000  0.0000  0.0000  0.0000  0.0000  0.0000 </r>
        <r>  0.2023  0.0336  0.0000  0.0000  0.0000  0.0000  0.0000  0.0000  0.0000 </r>
       </set>
       <set comment="band 2">
        <r>  0.1895  0.0587  0.0000  0.0000  0.0000  0.0000  0.0000  0.0000  0.0000 </r>
        <r>  0.1895  0.0587  0.0000  0.0000  0.0000  0.0000  0.0000  0.0000  0.0000 </r>
       </set>
       <set comment="band 3">
        <r>  0.0000  0.0000  0.0440  0.1524  0.0000  0.0000  0.0000  0.0000  0.0000 </r>
        <r>  0.0000  0.0000  0.1526  0.0438  0.0000  0.0000  0.0000  0.0000  0.0000 </r>
       </set>
       <set comment="band 4">
        <r>  0.0000  0.0000  0.1524  0.0440  0.0000  0.0000  0.0000  0.0000  0.0000 </r>
        <r>  0.0000  0.0000  0.0438  0.1526  0.0000  0.0000  0.0000  0.0000  0.0000 </r>
       </set>
       <set comment="band 5">
        <r>  0.0536  0.0414  0.0000  0.0000  0.0000  0.0000  0.0000  0.0000  0.0000 </r>
        <r>  0.0536  0.0414  0.0000  0.0000  0.0000  0.0000  0.0000  0.0000  0.0000 </r>
       </set>
       <set comment="band 6">
        <r>  0.0486  0.0302  0.0000  0.0000  0.0000  0.0000  0.0000  0.0000  0.0000 </r>
        <r>  0.0486  0.0302  0.0000  0.0000  0.0000  0.0000  0.0000  0.0000  0.0000 </r>
       </set>
       <set comment="band 7">
        <r>  0.0000  0.0000  0.0917  0.0769  0.0000  0.0000  0.0000  0.0000  0.0000 </r>
        <r>  0.0000  0.0000  0.1232  0.0454  0.0000  0.0000  0.0000  0.0000  0.0000 </r>
       </set>
       <set comment="band 8">
        <r>  0.0000  0.0000  0.0772  0.0918  0.0000  0.0000  0.0000  0.0000  0.0000 </r>
        <r>  0.0000  0.0000  0.0456  0.1234  0.0000  0.0000  0.0000  0.0000  0.0000 </r>
       </set>
       <set comment="band 9">
        <r>  0.0002  0.0004  0.0002  0.0000  0.0000  0.0000  0.0000  0.0000  0.0000 </r>
        <r>  0.0002  0.0005  0.0001  0.0001  0.0000  0.0000  0.0000  0.0000  0.0000 </r>
       </set>
      </set>
      <set comment="kpoint 49">
       <set comment="band 1">
        <r>  0.2005  0.0373  0.0000  0.0000  0.0000  0.0000  0.0000  0.0000  0.0000 </r>
        <r>  0.2005  0.0373  0.0000  0.0000  0.0000  0.0000  0.0000  0.0000  0.0000 </r>
       </set>
       <set comment="band 2">
        <r>  0.1921  0.0541  0.0000  0.0000  0.0000  0.0000  0.0000  0.0000  0.0000 </r>
        <r>  0.1921  0.0541  0.0000  0.0000  0.0000  0.0000  0.0000  0.0000  0.0000 </r>
       </set>
       <set comment="band 3">
        <r>  0.0000  0.0000  0.0429  0.1535  0.0000  0.0000  0.0000  0.0000  0.0000 </r>
        <r>  0.0000  0.0000  0.1536  0.0428  0.0000  0.0000  0.0000  0.0000  0.0000 </r>
       </set>
       <set comment="band 4">
        <r>  0.0000  0.0000  0.1535  0.0429  0.0000  0.0000  0.0000  0.0000  0.0000 </r>
        <r>  0.0000  0.0000  0.0428  0.1536  0.0000  0.0000  0.0000  0.0000  0.0000 </r>
       </set>
       <set comment="band 5">
        <r>  0.0534  0.0386  0.0000  0.0000  0.0000  0.0000  0.0000  0.0000  0.0000 </r>
        <r>  0.0534  0.0386  0.0000  0.0000  0.0000  0.0000  0.0000  0.0000  0.0000 </r>
       </set>
       <set comment="band 6">
        <r>  0.0499  0.0312  0.0000  0.0000  0.0000  0.0000  0.0000  0.0000  0.0000 </r>
        <r>  0.0499  0.0312  0.0000  0.0000  0.0000  0.0000  0.0000  0.0000  0.0000 </r>
       </set>
       <set comment="band 7">
        <r>  0.0000  0.0000  0.0978  0.0803  0.0000  0.0000  0.0000  0.0000  0.0000 </r>
        <r>  0.0000  0.0000  0.1269  0.0511  0.0000  0.0000  0.0000  0.0000  0.0000 </r>
       </set>
       <set comment="band 8">
        <r>  0.0000  0.0000  0.0802  0.0978  0.0000  0.0000  0.0000  0.0000  0.0000 </r>
        <r>  0.0000  0.0000  0.0511  0.1268  0.0000  0.0000  0.0000  0.0000  0.0000 </r>
       </set>
       <set comment="band 9">
        <r>  0.0003  0.0007  0.0161  0.0139  0.0000  0.0000  0.0000  0.0000  0.0000 </r>
        <r>  0.0003  0.0007  0.0268  0.0032  0.0000  0.0000  0.0000  0.0000  0.0000 </r>
       </set>
      </set>
      <set comment="kpoint 50">
       <set comment="band 1">
        <r>  0.1987  0.0412  0.0000  0.0000  0.0000  0.0000  0.0000  0.0000  0.0000 </r>
        <r>  0.1986  0.0412  0.0000  0.0000  0.0000  0.0000  0.0000  0.0000  0.0000 </r>
       </set>
       <set comment="band 2">
        <r>  0.1945  0.0496  0.0000  0.0000  0.0000  0.0000  0.0000  0.0000  0.0000 </r>
        <r>  0.1945  0.0496  0.0000  0.0000  0.0000  0.0000  0.0000  0.0000  0.0000 </r>
       </set>
       <set comment="band 3">
        <r>  0.0000  0.0000  0.0420  0.1543  0.0000  0.0000  0.0000  0.0000  0.0000 </r>
        <r>  0.0000  0.0000  0.1544  0.0420  0.0000  0.0000  0.0000  0.0000  0.0000 </r>
       </set>
       <set comment="band 4">
        <r>  0.0000  0.0000  0.1543  0.0420  0.0000  0.0000  0.0000  0.0000  0.0000 </r>
        <r>  0.0000  0.0000  0.0420  0.1544  0.0000  0.0000  0.0000  0.0000  0.0000 </r>
       </set>
       <set comment="band 5">
        <r>  0.0528  0.0362  0.0000  0.0000  0.0000  0.0000  0.0000  0.0000  0.0000 </r>
        <r>  0.0528  0.0362  0.0000  0.0000  0.0000  0.0000  0.0000  0.0000  0.0000 </r>
       </set>
       <set comment="band 6">
        <r>  0.0511  0.0325  0.0000  0.0000  0.0000  0.0000  0.0000  0.0000  0.0000 </r>
        <r>  0.0511  0.0325  0.0000  0.0000  0.0000  0.0000  0.0000  0.0000  0.0000 </r>
       </set>
       <set comment="band 7">
        <r>  0.0000  0.0000  0.1147  0.0881  0.0000  0.0000  0.0000  0.0000  0.0000 </r>
        <r>  0.0000  0.0000  0.1279  0.0749  0.0000  0.0000  0.0000  0.0000  0.0000 </r>
       </set>
       <set comment="band 8">
        <r>  0.0000  0.0000  0.0858  0.1141  0.0000  0.0000  0.0000  0.0000  0.0000 </r>
        <r>  0.0000  0.0000  0.0731  0.1264  0.0000  0.0000  0.0000  0.0000  0.0000 </r>
       </set>
       <set comment="band 9">
        <r>  0.0000  0.0001  0.0029  0.0451  0.0000  0.0000  0.0000  0.0000  0.0000 </r>
        <r>  0.0000  0.0001  0.0127  0.0352  0.0000  0.0000  0.0000  0.0000  0.0000 </r>
       </set>
      </set>
      <set comment="kpoint 51">
       <set comment="band 1">
        <r>  0.3928  0.0001  0.0000  0.0000  0.0000  0.0000  0.0000  0.0000  0.0000 </r>
        <r>  0.0005  0.0906  0.0000  0.0000  0.0000  0.0000  0.0000  0.0000  0.0000 </r>
       </set>
       <set comment="band 2">
        <r>  0.0005  0.0906  0.0000  0.0000  0.0000  0.0000  0.0000  0.0000  0.0000 </r>
        <r>  0.3928  0.0001  0.0000  0.0000  0.0000  0.0000  0.0000  0.0000  0.0000 </r>
       </set>
       <set comment="band 3">
        <r>  0.0000  0.0000  0.0414  0.1549  0.0000  0.0000  0.0000  0.0000  0.0000 </r>
        <r>  0.0000  0.0000  0.1549  0.0414  0.0000  0.0000  0.0000  0.0000  0.0000 </r>
       </set>
       <set comment="band 4">
        <r>  0.0000  0.0000  0.1549  0.0414  0.0000  0.0000  0.0000  0.0000  0.0000 </r>
        <r>  0.0000  0.0000  0.0414  0.1549  0.0000  0.0000  0.0000  0.0000  0.0000 </r>
       </set>
       <set comment="band 5">
        <r>  0.0063  0.0642  0.0000  0.0000  0.0000  0.0000  0.0000  0.0000  0.0000 </r>
        <r>  0.0978  0.0042  0.0000  0.0000  0.0000  0.0000  0.0000  0.0000  0.0000 </r>
       </set>
       <set comment="band 6">
        <r>  0.0978  0.0042  0.0000  0.0000  0.0000  0.0000  0.0000  0.0000  0.0000 </r>
        <r>  0.0063  0.0642  0.0000  0.0000  0.0000  0.0000  0.0000  0.0000  0.0000 </r>
       </set>
       <set comment="band 7">
        <r>  0.0000  0.0000  0.1220  0.1176  0.0000  0.0000  0.0000  0.0000  0.0000 </r>
        <r>  0.0000  0.0000  0.1176  0.1219  0.0000  0.0000  0.0000  0.0000  0.0000 </r>
       </set>
       <set comment="band 8">
        <r>  0.0000  0.0000  0.1149  0.1256  0.0000  0.0000  0.0000  0.0000  0.0000 </r>
        <r>  0.0000  0.0000  0.1179  0.1202  0.0000  0.0000  0.0000  0.0000  0.0000 </r>
       </set>
       <set comment="band 9">
        <r>  0.0000  0.0000  0.0066  0.0054  0.0000  0.0000  0.0000  0.0000  0.0000 </r>
        <r>  0.0000  0.0000  0.0054  0.0066  0.0000  0.0000  0.0000  0.0000  0.0000 </r>
       </set>
      </set>
      <set comment="kpoint 52">
       <set comment="band 1">
        <r>  0.3928  0.0001  0.0000  0.0000  0.0000  0.0000  0.0000  0.0000  0.0000 </r>
        <r>  0.0005  0.0906  0.0000  0.0000  0.0000  0.0000  0.0000  0.0000  0.0000 </r>
       </set>
       <set comment="band 2">
        <r>  0.0005  0.0906  0.0000  0.0000  0.0000  0.0000  0.0000  0.0000  0.0000 </r>
        <r>  0.3928  0.0001  0.0000  0.0000  0.0000  0.0000  0.0000  0.0000  0.0000 </r>
       </set>
       <set comment="band 3">
        <r>  0.0000  0.0000  0.0414  0.1549  0.0000  0.0000  0.0000  0.0000  0.0000 </r>
        <r>  0.0000  0.0000  0.1549  0.0414  0.0000  0.0000  0.0000  0.0000  0.0000 </r>
       </set>
       <set comment="band 4">
        <r>  0.0000  0.0000  0.1549  0.0414  0.0000  0.0000  0.0000  0.0000  0.0000 </r>
        <r>  0.0000  0.0000  0.0414  0.1549  0.0000  0.0000  0.0000  0.0000  0.0000 </r>
       </set>
       <set comment="band 5">
        <r>  0.0063  0.0642  0.0000  0.0000  0.0000  0.0000  0.0000  0.0000  0.0000 </r>
        <r>  0.0978  0.0042  0.0000  0.0000  0.0000  0.0000  0.0000  0.0000  0.0000 </r>
       </set>
       <set comment="band 6">
        <r>  0.0978  0.0042  0.0000  0.0000  0.0000  0.0000  0.0000  0.0000  0.0000 </r>
        <r>  0.0063  0.0642  0.0000  0.0000  0.0000  0.0000  0.0000  0.0000  0.0000 </r>
       </set>
       <set comment="band 7">
        <r>  0.0000  0.0000  0.1220  0.1176  0.0000  0.0000  0.0000  0.0000  0.0000 </r>
        <r>  0.0000  0.0000  0.1176  0.1219  0.0000  0.0000  0.0000  0.0000  0.0000 </r>
       </set>
       <set comment="band 8">
        <r>  0.0000  0.0000  0.1149  0.1256  0.0000  0.0000  0.0000  0.0000  0.0000 </r>
        <r>  0.0000  0.0000  0.1179  0.1202  0.0000  0.0000  0.0000  0.0000  0.0000 </r>
       </set>
       <set comment="band 9">
        <r>  0.0000  0.0000  0.0066  0.0054  0.0000  0.0000  0.0000  0.0000  0.0000 </r>
        <r>  0.0000  0.0000  0.0054  0.0066  0.0000  0.0000  0.0000  0.0000  0.0000 </r>
       </set>
      </set>
      <set comment="kpoint 53">
       <set comment="band 1">
        <r>  0.3932  0.0001  0.0000  0.0000  0.0000  0.0000  0.0000  0.0000  0.0000 </r>
        <r>  0.0005  0.0901  0.0004  0.0000  0.0000  0.0000  0.0000  0.0000  0.0000 </r>
       </set>
       <set comment="band 2">
        <r>  0.0005  0.0901  0.0004  0.0000  0.0000  0.0000  0.0000  0.0000  0.0000 </r>
        <r>  0.3932  0.0001  0.0000  0.0000  0.0000  0.0000  0.0000  0.0000  0.0000 </r>
       </set>
       <set comment="band 3">
        <r>  0.0004  0.0005  0.0527  0.1412  0.0000  0.0000  0.0000  0.0000  0.0000 </r>
        <r>  0.0002  0.0013  0.1411  0.0527  0.0000  0.0000  0.0000  0.0000  0.0000 </r>
       </set>
       <set comment="band 4">
        <r>  0.0002  0.0013  0.1411  0.0527  0.0000  0.0000  0.0000  0.0000  0.0000 </r>
        <r>  0.0004  0.0005  0.0527  0.1412  0.0000  0.0000  0.0000  0.0000  0.0000 </r>
       </set>
       <set comment="band 5">
        <r>  0.0068  0.0627  0.0019  0.0002  0.0000  0.0000  0.0000  0.0000  0.0000 </r>
        <r>  0.0959  0.0045  0.0001  0.0027  0.0000  0.0000  0.0000  0.0000  0.0000 </r>
       </set>
       <set comment="band 6">
        <r>  0.0959  0.0045  0.0001  0.0027  0.0000  0.0000  0.0000  0.0000  0.0000 </r>
        <r>  0.0068  0.0627  0.0019  0.0002  0.0000  0.0000  0.0000  0.0000  0.0000 </r>
       </set>
       <set comment="band 7">
        <r>  0.0017  0.0029  0.1178  0.1056  0.0000  0.0000  0.0000  0.0000  0.0000 </r>
        <r>  0.0022  0.0022  0.0943  0.1319  0.0000  0.0000  0.0000  0.0000  0.0000 </r>
       </set>
       <set comment="band 8">
        <r>  0.0023  0.0025  0.0920  0.1321  0.0000  0.0000  0.0000  0.0000  0.0000 </r>
        <r>  0.0018  0.0032  0.1149  0.1057  0.0000  0.0000  0.0000  0.0000  0.0000 </r>
       </set>
       <set comment="band 9">
        <r>  0.0019  0.0078  0.0180  0.0002  0.0000  0.0000  0.0000  0.0000  0.0000 </r>
        <r>  0.0021  0.0073  0.0174  0.0002  0.0000  0.0000  0.0000  0.0000  0.0000 </r>
       </set>
      </set>
      <set comment="kpoint 54">
       <set comment="band 1">
        <r>  0.3945  0.0001  0.0000  0.0000  0.0000  0.0000  0.0000  0.0000  0.0000 </r>
        <r>  0.0005  0.0886  0.0015  0.0000  0.0000  0.0000  0.0000  0.0000  0.0000 </r>
       </set>
       <set comment="band 2">
        <r>  0.0005  0.0886  0.0015  0.0000  0.0000  0.0000  0.0000  0.0000  0.0000 </r>
        <r>  0.3945  0.0001  0.0000  0.0000  0.0000  0.0000  0.0000  0.0000  0.0000 </r>
       </set>
       <set comment="band 3">
        <r>  0.0009  0.0034  0.0965  0.0906  0.0000  0.0000  0.0000  0.0000  0.0000 </r>
        <r>  0.0010  0.0032  0.0904  0.0968  0.0000  0.0000  0.0000  0.0000  0.0000 </r>
       </set>
       <set comment="band 4">
        <r>  0.0010  0.0032  0.0904  0.0968  0.0000  0.0000  0.0000  0.0000  0.0000 </r>
        <r>  0.0009  0.0034  0.0965  0.0906  0.0000  0.0000  0.0000  0.0000  0.0000 </r>
       </set>
       <set comment="band 5">
        <r>  0.0083  0.0586  0.0067  0.0009  0.0000  0.0000  0.0000  0.0000  0.0000 </r>
        <r>  0.0908  0.0054  0.0006  0.0098  0.0000  0.0000  0.0000  0.0000  0.0000 </r>
       </set>
       <set comment="band 6">
        <r>  0.0908  0.0054  0.0006  0.0098  0.0000  0.0000  0.0000  0.0000  0.0000 </r>
        <r>  0.0083  0.0586  0.0067  0.0009  0.0000  0.0000  0.0000  0.0000  0.0000 </r>
       </set>
       <set comment="band 7">
        <r>  0.0049  0.0158  0.0980  0.0633  0.0000  0.0000  0.0000  0.0000  0.0000 </r>
        <r>  0.0107  0.0072  0.0446  0.1391  0.0000  0.0000  0.0000  0.0000  0.0000 </r>
       </set>
       <set comment="band 8">
        <r>  0.0107  0.0074  0.0440  0.1384  0.0000  0.0000  0.0000  0.0000  0.0000 </r>
        <r>  0.0049  0.0162  0.0969  0.0631  0.0000  0.0000  0.0000  0.0000  0.0000 </r>
       </set>
       <set comment="band 9">
        <r>  0.0021  0.0125  0.0488  0.0081  0.0000  0.0000  0.0000  0.0000  0.0000 </r>
        <r>  0.0021  0.0123  0.0482  0.0082  0.0000  0.0000  0.0000  0.0000  0.0000 </r>
       </set>
      </set>
      <set comment="kpoint 55">
       <set comment="band 1">
        <r>  0.3965  0.0001  0.0000  0.0001  0.0000  0.0000  0.0000  0.0000  0.0000 </r>
        <r>  0.0005  0.0862  0.0033  0.0000  0.0000  0.0000  0.0000  0.0000  0.0000 </r>
       </set>
       <set comment="band 2">
        <r>  0.0005  0.0862  0.0033  0.0000  0.0000  0.0000  0.0000  0.0000  0.0000 </r>
        <r>  0.3965  0.0001  0.0000  0.0001  0.0000  0.0000  0.0000  0.0000  0.0000 </r>
       </set>
       <set comment="band 3">
        <r>  0.0006  0.0115  0.1484  0.0290  0.0000  0.0000  0.0000  0.0000  0.0000 </r>
        <r>  0.0029  0.0022  0.0288  0.1498  0.0000  0.0000  0.0000  0.0000  0.0000 </r>
       </set>
       <set comment="band 4">
        <r>  0.0029  0.0022  0.0288  0.1498  0.0000  0.0000  0.0000  0.0000  0.0000 </r>
        <r>  0.0006  0.0115  0.1484  0.0290  0.0000  0.0000  0.0000  0.0000  0.0000 </r>
       </set>
       <set comment="band 5">
        <r>  0.0110  0.0526  0.0127  0.0025  0.0000  0.0000  0.0000  0.0000  0.0000 </r>
        <r>  0.0829  0.0070  0.0017  0.0191  0.0000  0.0000  0.0000  0.0000  0.0000 </r>
       </set>
       <set comment="band 6">
        <r>  0.0829  0.0070  0.0017  0.0191  0.0000  0.0000  0.0000  0.0000  0.0000 </r>
        <r>  0.0110  0.0526  0.0127  0.0025  0.0000  0.0000  0.0000  0.0000  0.0000 </r>
       </set>
       <set comment="band 7">
        <r>  0.0034  0.0355  0.0844  0.0203  0.0000  0.0000  0.0000  0.0000  0.0000 </r>
        <r>  0.0238  0.0051  0.0122  0.1411  0.0000  0.0000  0.0000  0.0000  0.0000 </r>
       </set>
       <set comment="band 8">
        <r>  0.0239  0.0052  0.0115  0.1396  0.0000  0.0000  0.0000  0.0000  0.0000 </r>
        <r>  0.0034  0.0359  0.0825  0.0197  0.0000  0.0000  0.0000  0.0000  0.0000 </r>
       </set>
       <set comment="band 9">
        <r>  0.0012  0.0144  0.0693  0.0207  0.0000  0.0000  0.0000  0.0000  0.0000 </r>
        <r>  0.0013  0.0134  0.0649  0.0221  0.0000  0.0000  0.0000  0.0000  0.0000 </r>
       </set>
      </set>
      <set comment="kpoint 56">
       <set comment="band 1">
        <r>  0.3992  0.0001  0.0000  0.0001  0.0000  0.0000  0.0000  0.0000  0.0000 </r>
        <r>  0.0005  0.0828  0.0061  0.0000  0.0000  0.0000  0.0000  0.0000  0.0000 </r>
       </set>
       <set comment="band 2">
        <r>  0.0005  0.0828  0.0061  0.0000  0.0000  0.0000  0.0000  0.0000  0.0000 </r>
        <r>  0.3992  0.0001  0.0000  0.0001  0.0000  0.0000  0.0000  0.0000  0.0000 </r>
       </set>
       <set comment="band 3">
        <r>  0.0002  0.0213  0.1589  0.0073  0.0000  0.0000  0.0000  0.0000  0.0000 </r>
        <r>  0.0041  0.0010  0.0072  0.1625  0.0000  0.0000  0.0000  0.0000  0.0000 </r>
       </set>
       <set comment="band 4">
        <r>  0.0041  0.0010  0.0072  0.1625  0.0000  0.0000  0.0000  0.0000  0.0000 </r>
        <r>  0.0002  0.0213  0.1589  0.0073  0.0000  0.0000  0.0000  0.0000  0.0000 </r>
       </set>
       <set comment="band 5">
        <r>  0.0148  0.0455  0.0178  0.0057  0.0000  0.0000  0.0000  0.0000  0.0000 </r>
        <r>  0.0729  0.0092  0.0036  0.0282  0.0000  0.0000  0.0000  0.0000  0.0000 </r>
       </set>
       <set comment="band 6">
        <r>  0.0729  0.0092  0.0036  0.0282  0.0000  0.0000  0.0000  0.0000  0.0000 </r>
        <r>  0.0148  0.0455  0.0178  0.0057  0.0000  0.0000  0.0000  0.0000  0.0000 </r>
       </set>
       <set comment="band 7">
        <r>  0.0020  0.0485  0.0716  0.0075  0.0000  0.0000  0.0000  0.0000  0.0000 </r>
        <r>  0.0345  0.0028  0.0042  0.1277  0.0000  0.0000  0.0000  0.0000  0.0000 </r>
       </set>
       <set comment="band 8">
        <r>  0.0344  0.0029  0.0041  0.1273  0.0000  0.0000  0.0000  0.0000  0.0000 </r>
        <r>  0.0020  0.0487  0.0711  0.0074  0.0000  0.0000  0.0000  0.0000  0.0000 </r>
       </set>
       <set comment="band 9">
        <r>  0.0006  0.0171  0.0768  0.0276  0.0000  0.0000  0.0000  0.0000  0.0000 </r>
        <r>  0.0007  0.0153  0.0693  0.0306  0.0000  0.0000  0.0000  0.0000  0.0000 </r>
       </set>
      </set>
      <set comment="kpoint 57">
       <set comment="band 1">
        <r>  0.4023  0.0001  0.0000  0.0001  0.0000  0.0000  0.0000  0.0000  0.0000 </r>
        <r>  0.0005  0.0783  0.0097  0.0000  0.0000  0.0000  0.0000  0.0000  0.0000 </r>
       </set>
       <set comment="band 2">
        <r>  0.0005  0.0783  0.0097  0.0000  0.0000  0.0000  0.0000  0.0000  0.0000 </r>
        <r>  0.4023  0.0001  0.0000  0.0001  0.0000  0.0000  0.0000  0.0000  0.0000 </r>
       </set>
       <set comment="band 3">
        <r>  0.0001  0.0316  0.1524  0.0020  0.0000  0.0000  0.0000  0.0000  0.0000 </r>
        <r>  0.0044  0.0004  0.0019  0.1598  0.0000  0.0000  0.0000  0.0000  0.0000 </r>
       </set>
       <set comment="band 4">
        <r>  0.0044  0.0004  0.0019  0.1598  0.0000  0.0000  0.0000  0.0000  0.0000 </r>
        <r>  0.0001  0.0316  0.1524  0.0020  0.0000  0.0000  0.0000  0.0000  0.0000 </r>
       </set>
       <set comment="band 5">
        <r>  0.0202  0.0375  0.0207  0.0116  0.0000  0.0000  0.0000  0.0000  0.0000 </r>
        <r>  0.0609  0.0124  0.0068  0.0351  0.0000  0.0000  0.0000  0.0000  0.0000 </r>
       </set>
       <set comment="band 6">
        <r>  0.0609  0.0124  0.0068  0.0351  0.0000  0.0000  0.0000  0.0000  0.0000 </r>
        <r>  0.0202  0.0375  0.0207  0.0116  0.0000  0.0000  0.0000  0.0000  0.0000 </r>
       </set>
       <set comment="band 7">
        <r>  0.0039  0.0533  0.0602  0.0101  0.0000  0.0000  0.0000  0.0000  0.0000 </r>
        <r>  0.0410  0.0050  0.0057  0.1070  0.0000  0.0000  0.0000  0.0000  0.0000 </r>
       </set>
       <set comment="band 8">
        <r>  0.0410  0.0050  0.0057  0.1069  0.0000  0.0000  0.0000  0.0000  0.0000 </r>
        <r>  0.0039  0.0534  0.0601  0.0101  0.0000  0.0000  0.0000  0.0000  0.0000 </r>
       </set>
       <set comment="band 9">
        <r>  0.0004  0.0212  0.0781  0.0312  0.0000  0.0000  0.0000  0.0000  0.0000 </r>
        <r>  0.0004  0.0185  0.0686  0.0356  0.0000  0.0000  0.0000  0.0000  0.0000 </r>
       </set>
      </set>
      <set comment="kpoint 58">
       <set comment="band 1">
        <r>  0.4057  0.0001  0.0000  0.0001  0.0000  0.0000  0.0000  0.0000  0.0000 </r>
        <r>  0.0006  0.0727  0.0144  0.0000  0.0000  0.0000  0.0000  0.0000  0.0000 </r>
       </set>
       <set comment="band 2">
        <r>  0.0006  0.0727  0.0144  0.0000  0.0000  0.0000  0.0000  0.0000  0.0000 </r>
        <r>  0.4057  0.0001  0.0000  0.0001  0.0000  0.0000  0.0000  0.0000  0.0000 </r>
       </set>
       <set comment="band 3">
        <r>  0.0000  0.0424  0.1419  0.0006  0.0000  0.0000  0.0000  0.0000  0.0000 </r>
        <r>  0.0037  0.0002  0.0005  0.1544  0.0000  0.0000  0.0000  0.0000  0.0000 </r>
       </set>
       <set comment="band 4">
        <r>  0.0037  0.0002  0.0005  0.1544  0.0000  0.0000  0.0000  0.0000  0.0000 </r>
        <r>  0.0000  0.0424  0.1418  0.0006  0.0000  0.0000  0.0000  0.0000  0.0000 </r>
       </set>
       <set comment="band 5">
        <r>  0.0272  0.0284  0.0202  0.0221  0.0000  0.0000  0.0000  0.0000  0.0000 </r>
        <r>  0.0464  0.0166  0.0118  0.0378  0.0000  0.0000  0.0000  0.0000  0.0000 </r>
       </set>
       <set comment="band 6">
        <r>  0.0464  0.0166  0.0118  0.0378  0.0000  0.0000  0.0000  0.0000  0.0000 </r>
        <r>  0.0272  0.0284  0.0202  0.0221  0.0000  0.0000  0.0000  0.0000  0.0000 </r>
       </set>
       <set comment="band 7">
        <r>  0.0027  0.0601  0.0582  0.0053  0.0000  0.0000  0.0000  0.0000  0.0000 </r>
        <r>  0.0504  0.0033  0.0032  0.0972  0.0000  0.0000  0.0000  0.0000  0.0000 </r>
       </set>
       <set comment="band 8">
        <r>  0.0504  0.0033  0.0032  0.0971  0.0000  0.0000  0.0000  0.0000  0.0000 </r>
        <r>  0.0027  0.0601  0.0582  0.0053  0.0000  0.0000  0.0000  0.0000  0.0000 </r>
       </set>
       <set comment="band 9">
        <r>  0.0002  0.0264  0.0759  0.0332  0.0000  0.0000  0.0000  0.0000  0.0000 </r>
        <r>  0.0002  0.0227  0.0654  0.0386  0.0000  0.0000  0.0000  0.0000  0.0000 </r>
       </set>
      </set>
      <set comment="kpoint 59">
       <set comment="band 1">
        <r>  0.4089  0.0001  0.0000  0.0001  0.0000  0.0000  0.0000  0.0000  0.0000 </r>
        <r>  0.0006  0.0661  0.0201  0.0000  0.0000  0.0000  0.0000  0.0000  0.0000 </r>
       </set>
       <set comment="band 2">
        <r>  0.0006  0.0661  0.0201  0.0000  0.0000  0.0000  0.0000  0.0000  0.0000 </r>
        <r>  0.4089  0.0001  0.0000  0.0001  0.0000  0.0000  0.0000  0.0000  0.0000 </r>
       </set>
       <set comment="band 3">
        <r>  0.0000  0.0539  0.1299  0.0003  0.0000  0.0000  0.0000  0.0000  0.0000 </r>
        <r>  0.0026  0.0001  0.0002  0.1495  0.0000  0.0000  0.0000  0.0000  0.0000 </r>
       </set>
       <set comment="band 4">
        <r>  0.0026  0.0001  0.0002  0.1495  0.0000  0.0000  0.0000  0.0000  0.0000 </r>
        <r>  0.0000  0.0539  0.1299  0.0003  0.0000  0.0000  0.0000  0.0000  0.0000 </r>
       </set>
       <set comment="band 5">
        <r>  0.0356  0.0179  0.0156  0.0406  0.0000  0.0000  0.0000  0.0000  0.0000 </r>
        <r>  0.0293  0.0218  0.0189  0.0334  0.0000  0.0000  0.0000  0.0000  0.0000 </r>
       </set>
       <set comment="band 6">
        <r>  0.0293  0.0218  0.0189  0.0334  0.0000  0.0000  0.0000  0.0000  0.0000 </r>
        <r>  0.0357  0.0179  0.0156  0.0406  0.0000  0.0000  0.0000  0.0000  0.0000 </r>
       </set>
       <set comment="band 7">
        <r>  0.0031  0.0642  0.0575  0.0045  0.0000  0.0000  0.0000  0.0000  0.0000 </r>
        <r>  0.0592  0.0034  0.0031  0.0838  0.0000  0.0000  0.0000  0.0000  0.0000 </r>
       </set>
       <set comment="band 8">
        <r>  0.0592  0.0034  0.0031  0.0838  0.0000  0.0000  0.0000  0.0000  0.0000 </r>
        <r>  0.0032  0.0643  0.0575  0.0045  0.0000  0.0000  0.0000  0.0000  0.0000 </r>
       </set>
       <set comment="band 9">
        <r>  0.0001  0.0325  0.0725  0.0339  0.0000  0.0000  0.0000  0.0000  0.0000 </r>
        <r>  0.0001  0.0269  0.0601  0.0410  0.0000  0.0000  0.0000  0.0000  0.0000 </r>
       </set>
      </set>
      <set comment="kpoint 60">
       <set comment="band 1">
        <r>  0.4116  0.0001  0.0000  0.0000  0.0000  0.0000  0.0000  0.0000  0.0000 </r>
        <r>  0.0007  0.0587  0.0268  0.0000  0.0000  0.0000  0.0000  0.0000  0.0000 </r>
       </set>
       <set comment="band 2">
        <r>  0.0007  0.0587  0.0268  0.0000  0.0000  0.0000  0.0000  0.0000  0.0000 </r>
        <r>  0.4116  0.0001  0.0000  0.0000  0.0000  0.0000  0.0000  0.0000  0.0000 </r>
       </set>
       <set comment="band 3">
        <r>  0.0000  0.0659  0.1173  0.0003  0.0000  0.0000  0.0000  0.0000  0.0000 </r>
        <r>  0.0013  0.0001  0.0003  0.1458  0.0000  0.0000  0.0000  0.0000  0.0000 </r>
       </set>
       <set comment="band 4">
        <r>  0.0013  0.0001  0.0003  0.1458  0.0000  0.0000  0.0000  0.0000  0.0000 </r>
        <r>  0.0000  0.0659  0.1173  0.0003  0.0000  0.0000  0.0000  0.0000  0.0000 </r>
       </set>
       <set comment="band 5">
        <r>  0.0414  0.0073  0.0075  0.0711  0.0000  0.0000  0.0000  0.0000  0.0000 </r>
        <r>  0.0119  0.0255  0.0260  0.0204  0.0000  0.0000  0.0000  0.0000  0.0000 </r>
       </set>
       <set comment="band 6">
        <r>  0.0119  0.0255  0.0260  0.0204  0.0000  0.0000  0.0000  0.0000  0.0000 </r>
        <r>  0.0414  0.0073  0.0075  0.0711  0.0000  0.0000  0.0000  0.0000  0.0000 </r>
       </set>
       <set comment="band 7">
        <r>  0.0026  0.0704  0.0615  0.0025  0.0000  0.0000  0.0000  0.0000  0.0000 </r>
        <r>  0.0717  0.0026  0.0023  0.0686  0.0000  0.0000  0.0000  0.0000  0.0000 </r>
       </set>
       <set comment="band 8">
        <r>  0.0717  0.0026  0.0022  0.0686  0.0000  0.0000  0.0000  0.0000  0.0000 </r>
        <r>  0.0026  0.0704  0.0615  0.0025  0.0000  0.0000  0.0000  0.0000  0.0000 </r>
       </set>
       <set comment="band 9">
        <r>  0.0000  0.0391  0.0668  0.0348  0.0000  0.0000  0.0000  0.0000  0.0000 </r>
        <r>  0.0001  0.0323  0.0551  0.0422  0.0000  0.0000  0.0000  0.0000  0.0000 </r>
       </set>
      </set>
      <set comment="kpoint 61">
       <set comment="band 1">
        <r>  0.4133  0.0001  0.0001  0.0000  0.0000  0.0000  0.0000  0.0000  0.0000 </r>
        <r>  0.0008  0.0507  0.0344  0.0000  0.0000  0.0000  0.0000  0.0000  0.0000 </r>
       </set>
       <set comment="band 2">
        <r>  0.0008  0.0507  0.0344  0.0000  0.0000  0.0000  0.0000  0.0000  0.0000 </r>
        <r>  0.4133  0.0001  0.0001  0.0000  0.0000  0.0000  0.0000  0.0000  0.0000 </r>
       </set>
       <set comment="band 3">
        <r>  0.0000  0.0784  0.1043  0.0006  0.0000  0.0000  0.0000  0.0000  0.0000 </r>
        <r>  0.0004  0.0003  0.0004  0.1433  0.0000  0.0000  0.0000  0.0000  0.0000 </r>
       </set>
       <set comment="band 4">
        <r>  0.0004  0.0003  0.0004  0.1433  0.0000  0.0000  0.0000  0.0000  0.0000 </r>
        <r>  0.0000  0.0784  0.1043  0.0006  0.0000  0.0000  0.0000  0.0000  0.0000 </r>
       </set>
       <set comment="band 5">
        <r>  0.0307  0.0012  0.0014  0.1131  0.0000  0.0000  0.0000  0.0000  0.0000 </r>
        <r>  0.0019  0.0187  0.0226  0.0071  0.0000  0.0000  0.0000  0.0000  0.0000 </r>
       </set>
       <set comment="band 6">
        <r>  0.0019  0.0187  0.0226  0.0071  0.0000  0.0000  0.0000  0.0000  0.0000 </r>
        <r>  0.0307  0.0012  0.0014  0.1131  0.0000  0.0000  0.0000  0.0000  0.0000 </r>
       </set>
       <set comment="band 7">
        <r>  0.0013  0.0828  0.0744  0.0006  0.0000  0.0000  0.0000  0.0000  0.0000 </r>
        <r>  0.0938  0.0012  0.0010  0.0423  0.0000  0.0000  0.0000  0.0000  0.0000 </r>
       </set>
       <set comment="band 8">
        <r>  0.0938  0.0012  0.0010  0.0423  0.0000  0.0000  0.0000  0.0000  0.0000 </r>
        <r>  0.0013  0.0829  0.0744  0.0006  0.0000  0.0000  0.0000  0.0000  0.0000 </r>
       </set>
       <set comment="band 9">
        <r>  0.0000  0.0463  0.0607  0.0350  0.0000  0.0000  0.0000  0.0000  0.0000 </r>
        <r>  0.0000  0.0377  0.0492  0.0431  0.0000  0.0000  0.0000  0.0000  0.0000 </r>
       </set>
      </set>
      <set comment="kpoint 62">
       <set comment="band 1">
        <r>  0.4139  0.0001  0.0001  0.0000  0.0000  0.0000  0.0000  0.0000  0.0000 </r>
        <r>  0.0009  0.0424  0.0424  0.0000  0.0000  0.0000  0.0000  0.0000  0.0000 </r>
       </set>
       <set comment="band 2">
        <r>  0.0009  0.0424  0.0424  0.0000  0.0000  0.0000  0.0000  0.0000  0.0000 </r>
        <r>  0.4139  0.0001  0.0001  0.0000  0.0000  0.0000  0.0000  0.0000  0.0000 </r>
       </set>
       <set comment="band 3">
        <r>  0.0000  0.0911  0.0911  0.0010  0.0000  0.0000  0.0000  0.0000  0.0000 </r>
        <r>  0.0000  0.0006  0.0006  0.1422  0.0000  0.0000  0.0000  0.0000  0.0000 </r>
       </set>
       <set comment="band 4">
        <r>  0.0000  0.0006  0.0006  0.1422  0.0000  0.0000  0.0000  0.0000  0.0000 </r>
        <r>  0.0000  0.0911  0.0911  0.0010  0.0000  0.0000  0.0000  0.0000  0.0000 </r>
       </set>
       <set comment="band 5">
        <r>  0.0000  0.0000  0.0000  0.1589  0.0000  0.0000  0.0000  0.0000  0.0000 </r>
        <r>  0.0000  0.0001  0.0001  0.0043  0.0000  0.0000  0.0000  0.0000  0.0000 </r>
       </set>
       <set comment="band 6">
        <r>  0.0000  0.0001  0.0001  0.0043  0.0000  0.0000  0.0000  0.0000  0.0000 </r>
        <r>  0.0000  0.0000  0.0000  0.1589  0.0000  0.0000  0.0000  0.0000  0.0000 </r>
       </set>
       <set comment="band 7">
        <r>  0.0005  0.1013  0.1013  0.0000  0.0000  0.0000  0.0000  0.0000  0.0000 </r>
        <r>  0.1273  0.0004  0.0004  0.0000  0.0000  0.0000  0.0000  0.0000  0.0000 </r>
       </set>
       <set comment="band 8">
        <r>  0.1273  0.0004  0.0004  0.0000  0.0000  0.0000  0.0000  0.0000  0.0000 </r>
        <r>  0.0005  0.1013  0.1013  0.0000  0.0000  0.0000  0.0000  0.0000  0.0000 </r>
       </set>
       <set comment="band 9">
        <r>  0.0000  0.0534  0.0537  0.0352  0.0000  0.0000  0.0000  0.0000  0.0000 </r>
        <r>  0.0000  0.0435  0.0436  0.0433  0.0000  0.0000  0.0000  0.0000  0.0000 </r>
       </set>
      </set>
      <set comment="kpoint 63">
       <set comment="band 1">
        <r>  0.4139  0.0001  0.0001  0.0000  0.0000  0.0000  0.0000  0.0000  0.0000 </r>
        <r>  0.0009  0.0424  0.0424  0.0000  0.0000  0.0000  0.0000  0.0000  0.0000 </r>
       </set>
       <set comment="band 2">
        <r>  0.0009  0.0424  0.0424  0.0000  0.0000  0.0000  0.0000  0.0000  0.0000 </r>
        <r>  0.4139  0.0001  0.0001  0.0000  0.0000  0.0000  0.0000  0.0000  0.0000 </r>
       </set>
       <set comment="band 3">
        <r>  0.0000  0.0911  0.0911  0.0010  0.0000  0.0000  0.0000  0.0000  0.0000 </r>
        <r>  0.0000  0.0006  0.0006  0.1422  0.0000  0.0000  0.0000  0.0000  0.0000 </r>
       </set>
       <set comment="band 4">
        <r>  0.0000  0.0006  0.0006  0.1422  0.0000  0.0000  0.0000  0.0000  0.0000 </r>
        <r>  0.0000  0.0911  0.0911  0.0010  0.0000  0.0000  0.0000  0.0000  0.0000 </r>
       </set>
       <set comment="band 5">
        <r>  0.0000  0.0000  0.0000  0.1589  0.0000  0.0000  0.0000  0.0000  0.0000 </r>
        <r>  0.0000  0.0001  0.0001  0.0043  0.0000  0.0000  0.0000  0.0000  0.0000 </r>
       </set>
       <set comment="band 6">
        <r>  0.0000  0.0001  0.0001  0.0043  0.0000  0.0000  0.0000  0.0000  0.0000 </r>
        <r>  0.0000  0.0000  0.0000  0.1589  0.0000  0.0000  0.0000  0.0000  0.0000 </r>
       </set>
       <set comment="band 7">
        <r>  0.0005  0.1013  0.1013  0.0000  0.0000  0.0000  0.0000  0.0000  0.0000 </r>
        <r>  0.1273  0.0004  0.0004  0.0000  0.0000  0.0000  0.0000  0.0000  0.0000 </r>
       </set>
       <set comment="band 8">
        <r>  0.1273  0.0004  0.0004  0.0000  0.0000  0.0000  0.0000  0.0000  0.0000 </r>
        <r>  0.0005  0.1013  0.1013  0.0000  0.0000  0.0000  0.0000  0.0000  0.0000 </r>
       </set>
       <set comment="band 9">
        <r>  0.0000  0.0534  0.0537  0.0352  0.0000  0.0000  0.0000  0.0000  0.0000 </r>
        <r>  0.0000  0.0435  0.0436  0.0433  0.0000  0.0000  0.0000  0.0000  0.0000 </r>
       </set>
      </set>
      <set comment="kpoint 64">
       <set comment="band 1">
        <r>  0.2103  0.0195  0.0195  0.0002  0.0000  0.0000  0.0000  0.0000  0.0000 </r>
        <r>  0.2103  0.0195  0.0195  0.0002  0.0000  0.0000  0.0000  0.0000  0.0000 </r>
       </set>
       <set comment="band 2">
        <r>  0.2036  0.0230  0.0230  0.0002  0.0000  0.0000  0.0000  0.0000  0.0000 </r>
        <r>  0.2036  0.0230  0.0230  0.0002  0.0000  0.0000  0.0000  0.0000  0.0000 </r>
       </set>
       <set comment="band 3">
        <r>  0.0003  0.0465  0.0465  0.0680  0.0000  0.0000  0.0000  0.0000  0.0000 </r>
        <r>  0.0003  0.0465  0.0465  0.0680  0.0000  0.0000  0.0000  0.0000  0.0000 </r>
       </set>
       <set comment="band 4">
        <r>  0.0002  0.0454  0.0454  0.0751  0.0000  0.0000  0.0000  0.0000  0.0000 </r>
        <r>  0.0002  0.0454  0.0454  0.0751  0.0000  0.0000  0.0000  0.0000  0.0000 </r>
       </set>
       <set comment="band 5">
        <r>  0.0024  0.0020  0.0020  0.0773  0.0000  0.0000  0.0000  0.0000  0.0000 </r>
        <r>  0.0024  0.0020  0.0020  0.0773  0.0000  0.0000  0.0000  0.0000  0.0000 </r>
       </set>
       <set comment="band 6">
        <r>  0.0106  0.0076  0.0076  0.0698  0.0000  0.0000  0.0000  0.0000  0.0000 </r>
        <r>  0.0106  0.0076  0.0076  0.0698  0.0000  0.0000  0.0000  0.0000  0.0000 </r>
       </set>
       <set comment="band 7">
        <r>  0.0570  0.0413  0.0413  0.0124  0.0000  0.0000  0.0000  0.0000  0.0000 </r>
        <r>  0.0570  0.0413  0.0413  0.0124  0.0000  0.0000  0.0000  0.0000  0.0000 </r>
       </set>
       <set comment="band 8">
        <r>  0.0578  0.0511  0.0511  0.0030  0.0000  0.0000  0.0000  0.0000  0.0000 </r>
        <r>  0.0578  0.0511  0.0511  0.0030  0.0000  0.0000  0.0000  0.0000  0.0000 </r>
       </set>
       <set comment="band 9">
        <r>  0.0015  0.0493  0.0510  0.0393  0.0000  0.0000  0.0000  0.0000  0.0000 </r>
        <r>  0.0014  0.0484  0.0500  0.0401  0.0000  0.0000  0.0000  0.0000  0.0000 </r>
       </set>
      </set>
      <set comment="kpoint 65">
       <set comment="band 1">
        <r>  0.2128  0.0177  0.0177  0.0006  0.0000  0.0000  0.0000  0.0000  0.0000 </r>
        <r>  0.2128  0.0177  0.0177  0.0006  0.0000  0.0000  0.0000  0.0000  0.0000 </r>
       </set>
       <set comment="band 2">
        <r>  0.1985  0.0246  0.0246  0.0012  0.0000  0.0000  0.0000  0.0000  0.0000 </r>
        <r>  0.1985  0.0246  0.0246  0.0012  0.0000  0.0000  0.0000  0.0000  0.0000 </r>
       </set>
       <set comment="band 3">
        <r>  0.0017  0.0475  0.0475  0.0640  0.0000  0.0000  0.0000  0.0000  0.0000 </r>
        <r>  0.0017  0.0475  0.0475  0.0640  0.0000  0.0000  0.0000  0.0000  0.0000 </r>
       </set>
       <set comment="band 4">
        <r>  0.0005  0.0450  0.0450  0.0788  0.0000  0.0000  0.0000  0.0000  0.0000 </r>
        <r>  0.0005  0.0450  0.0450  0.0788  0.0000  0.0000  0.0000  0.0000  0.0000 </r>
       </set>
       <set comment="band 5">
        <r>  0.0049  0.0046  0.0046  0.0721  0.0000  0.0000  0.0000  0.0000  0.0000 </r>
        <r>  0.0049  0.0046  0.0046  0.0721  0.0000  0.0000  0.0000  0.0000  0.0000 </r>
       </set>
       <set comment="band 6">
        <r>  0.0339  0.0220  0.0220  0.0444  0.0000  0.0000  0.0000  0.0000  0.0000 </r>
        <r>  0.0339  0.0220  0.0220  0.0444  0.0000  0.0000  0.0000  0.0000  0.0000 </r>
       </set>
       <set comment="band 7">
        <r>  0.0373  0.0251  0.0251  0.0379  0.0000  0.0000  0.0000  0.0000  0.0000 </r>
        <r>  0.0373  0.0251  0.0251  0.0379  0.0000  0.0000  0.0000  0.0000  0.0000 </r>
       </set>
       <set comment="band 8">
        <r>  0.0514  0.0511  0.0511  0.0063  0.0000  0.0000  0.0000  0.0000  0.0000 </r>
        <r>  0.0514  0.0511  0.0511  0.0063  0.0000  0.0000  0.0000  0.0000  0.0000 </r>
       </set>
       <set comment="band 9">
        <r>  0.0053  0.0493  0.0500  0.0389  0.0000  0.0000  0.0000  0.0000  0.0000 </r>
        <r>  0.0053  0.0492  0.0500  0.0390  0.0000  0.0000  0.0000  0.0000  0.0000 </r>
       </set>
      </set>
      <set comment="kpoint 66">
       <set comment="band 1">
        <r>  0.2150  0.0160  0.0160  0.0010  0.0000  0.0000  0.0000  0.0000  0.0000 </r>
        <r>  0.2150  0.0160  0.0160  0.0010  0.0000  0.0000  0.0000  0.0000  0.0000 </r>
       </set>
       <set comment="band 2">
        <r>  0.1912  0.0260  0.0260  0.0031  0.0000  0.0000  0.0000  0.0000  0.0000 </r>
        <r>  0.1912  0.0260  0.0260  0.0031  0.0000  0.0000  0.0000  0.0000  0.0000 </r>
       </set>
       <set comment="band 3">
        <r>  0.0049  0.0489  0.0489  0.0593  0.0000  0.0000  0.0000  0.0000  0.0000 </r>
        <r>  0.0049  0.0489  0.0489  0.0593  0.0000  0.0000  0.0000  0.0000  0.0000 </r>
       </set>
       <set comment="band 4">
        <r>  0.0008  0.0447  0.0447  0.0829  0.0000  0.0000  0.0000  0.0000  0.0000 </r>
        <r>  0.0008  0.0447  0.0447  0.0829  0.0000  0.0000  0.0000  0.0000  0.0000 </r>
       </set>
       <set comment="band 5">
        <r>  0.0066  0.0069  0.0069  0.0672  0.0000  0.0000  0.0000  0.0000  0.0000 </r>
        <r>  0.0066  0.0069  0.0069  0.0672  0.0000  0.0000  0.0000  0.0000  0.0000 </r>
       </set>
       <set comment="band 6">
        <r>  0.0479  0.0282  0.0282  0.0315  0.0000  0.0000  0.0000  0.0000  0.0000 </r>
        <r>  0.0479  0.0282  0.0282  0.0315  0.0000  0.0000  0.0000  0.0000  0.0000 </r>
       </set>
       <set comment="band 7">
        <r>  0.0272  0.0173  0.0173  0.0503  0.0000  0.0000  0.0000  0.0000  0.0000 </r>
        <r>  0.0272  0.0173  0.0173  0.0503  0.0000  0.0000  0.0000  0.0000  0.0000 </r>
       </set>
       <set comment="band 8">
        <r>  0.0456  0.0516  0.0516  0.0086  0.0000  0.0000  0.0000  0.0000  0.0000 </r>
        <r>  0.0456  0.0516  0.0516  0.0086  0.0000  0.0000  0.0000  0.0000  0.0000 </r>
       </set>
       <set comment="band 9">
        <r>  0.0100  0.0485  0.0487  0.0382  0.0000  0.0000  0.0000  0.0000  0.0000 </r>
        <r>  0.0100  0.0484  0.0487  0.0383  0.0000  0.0000  0.0000  0.0000  0.0000 </r>
       </set>
      </set>
      <set comment="kpoint 67">
       <set comment="band 1">
        <r>  0.2170  0.0143  0.0143  0.0016  0.0000  0.0000  0.0000  0.0000  0.0000 </r>
        <r>  0.2170  0.0143  0.0143  0.0016  0.0000  0.0000  0.0000  0.0000  0.0000 </r>
       </set>
       <set comment="band 2">
        <r>  0.1812  0.0272  0.0272  0.0061  0.0000  0.0000  0.0000  0.0000  0.0000 </r>
        <r>  0.1813  0.0272  0.0272  0.0061  0.0000  0.0000  0.0000  0.0000  0.0000 </r>
       </set>
       <set comment="band 3">
        <r>  0.0103  0.0507  0.0507  0.0536  0.0000  0.0000  0.0000  0.0000  0.0000 </r>
        <r>  0.0103  0.0507  0.0507  0.0536  0.0000  0.0000  0.0000  0.0000  0.0000 </r>
       </set>
       <set comment="band 4">
        <r>  0.0010  0.0444  0.0444  0.0875  0.0000  0.0000  0.0000  0.0000  0.0000 </r>
        <r>  0.0010  0.0444  0.0444  0.0875  0.0000  0.0000  0.0000  0.0000  0.0000 </r>
       </set>
       <set comment="band 5">
        <r>  0.0076  0.0091  0.0091  0.0621  0.0000  0.0000  0.0000  0.0000  0.0000 </r>
        <r>  0.0076  0.0091  0.0091  0.0621  0.0000  0.0000  0.0000  0.0000  0.0000 </r>
       </set>
       <set comment="band 6">
        <r>  0.0568  0.0306  0.0306  0.0251  0.0000  0.0000  0.0000  0.0000  0.0000 </r>
        <r>  0.0568  0.0306  0.0306  0.0251  0.0000  0.0000  0.0000  0.0000  0.0000 </r>
       </set>
       <set comment="band 7">
        <r>  0.0223  0.0136  0.0136  0.0554  0.0000  0.0000  0.0000  0.0000  0.0000 </r>
        <r>  0.0223  0.0136  0.0136  0.0554  0.0000  0.0000  0.0000  0.0000  0.0000 </r>
       </set>
       <set comment="band 8">
        <r>  0.0403  0.0526  0.0526  0.0103  0.0000  0.0000  0.0000  0.0000  0.0000 </r>
        <r>  0.0403  0.0526  0.0526  0.0103  0.0000  0.0000  0.0000  0.0000  0.0000 </r>
       </set>
       <set comment="band 9">
        <r>  0.0145  0.0468  0.0470  0.0385  0.0000  0.0000  0.0000  0.0000  0.0000 </r>
        <r>  0.0145  0.0468  0.0470  0.0385  0.0000  0.0000  0.0000  0.0000  0.0000 </r>
       </set>
      </set>
      <set comment="kpoint 68">
       <set comment="band 1">
        <r>  0.2189  0.0127  0.0127  0.0021  0.0000  0.0000  0.0000  0.0000  0.0000 </r>
        <r>  0.2189  0.0127  0.0127  0.0021  0.0000  0.0000  0.0000  0.0000  0.0000 </r>
       </set>
       <set comment="band 2">
        <r>  0.1690  0.0282  0.0282  0.0101  0.0000  0.0000  0.0000  0.0000  0.0000 </r>
        <r>  0.1690  0.0282  0.0282  0.0101  0.0000  0.0000  0.0000  0.0000  0.0000 </r>
       </set>
       <set comment="band 3">
        <r>  0.0177  0.0530  0.0530  0.0471  0.0000  0.0000  0.0000  0.0000  0.0000 </r>
        <r>  0.0177  0.0530  0.0530  0.0471  0.0000  0.0000  0.0000  0.0000  0.0000 </r>
       </set>
       <set comment="band 4">
        <r>  0.0011  0.0441  0.0441  0.0927  0.0000  0.0000  0.0000  0.0000  0.0000 </r>
        <r>  0.0011  0.0441  0.0441  0.0927  0.0000  0.0000  0.0000  0.0000  0.0000 </r>
       </set>
       <set comment="band 5">
        <r>  0.0081  0.0114  0.0114  0.0567  0.0000  0.0000  0.0000  0.0000  0.0000 </r>
        <r>  0.0081  0.0114  0.0114  0.0567  0.0000  0.0000  0.0000  0.0000  0.0000 </r>
       </set>
       <set comment="band 6">
        <r>  0.0641  0.0315  0.0315  0.0210  0.0000  0.0000  0.0000  0.0000  0.0000 </r>
        <r>  0.0641  0.0315  0.0315  0.0210  0.0000  0.0000  0.0000  0.0000  0.0000 </r>
       </set>
       <set comment="band 7">
        <r>  0.0193  0.0116  0.0116  0.0569  0.0000  0.0000  0.0000  0.0000  0.0000 </r>
        <r>  0.0193  0.0116  0.0116  0.0569  0.0000  0.0000  0.0000  0.0000  0.0000 </r>
       </set>
       <set comment="band 8">
        <r>  0.0351  0.0540  0.0540  0.0116  0.0000  0.0000  0.0000  0.0000  0.0000 </r>
        <r>  0.0351  0.0540  0.0540  0.0116  0.0000  0.0000  0.0000  0.0000  0.0000 </r>
       </set>
       <set comment="band 9">
        <r>  0.0188  0.0444  0.0449  0.0401  0.0000  0.0000  0.0000  0.0000  0.0000 </r>
        <r>  0.0188  0.0444  0.0449  0.0402  0.0000  0.0000  0.0000  0.0000  0.0000 </r>
       </set>
      </set>
      <set comment="kpoint 69">
       <set comment="band 1">
        <r>  0.2207  0.0113  0.0113  0.0025  0.0000  0.0000  0.0000  0.0000  0.0000 </r>
        <r>  0.2206  0.0113  0.0113  0.0025  0.0000  0.0000  0.0000  0.0000  0.0000 </r>
       </set>
       <set comment="band 2">
        <r>  0.1557  0.0291  0.0291  0.0145  0.0000  0.0000  0.0000  0.0000  0.0000 </r>
        <r>  0.1557  0.0291  0.0291  0.0145  0.0000  0.0000  0.0000  0.0000  0.0000 </r>
       </set>
       <set comment="band 3">
        <r>  0.0257  0.0557  0.0557  0.0403  0.0000  0.0000  0.0000  0.0000  0.0000 </r>
        <r>  0.0257  0.0557  0.0557  0.0403  0.0000  0.0000  0.0000  0.0000  0.0000 </r>
       </set>
       <set comment="band 4">
        <r>  0.0010  0.0436  0.0436  0.0985  0.0000  0.0000  0.0000  0.0000  0.0000 </r>
        <r>  0.0010  0.0436  0.0436  0.0985  0.0000  0.0000  0.0000  0.0000  0.0000 </r>
       </set>
       <set comment="band 5">
        <r>  0.0083  0.0140  0.0140  0.0508  0.0000  0.0000  0.0000  0.0000  0.0000 </r>
        <r>  0.0083  0.0140  0.0140  0.0508  0.0000  0.0000  0.0000  0.0000  0.0000 </r>
       </set>
       <set comment="band 6">
        <r>  0.0713  0.0319  0.0319  0.0177  0.0000  0.0000  0.0000  0.0000  0.0000 </r>
        <r>  0.0713  0.0319  0.0319  0.0177  0.0000  0.0000  0.0000  0.0000  0.0000 </r>
       </set>
       <set comment="band 7">
        <r>  0.0153  0.0104  0.0104  0.0520  0.0000  0.0000  0.0000  0.0000  0.0000 </r>
        <r>  0.0153  0.0104  0.0104  0.0520  0.0000  0.0000  0.0000  0.0000  0.0000 </r>
       </set>
       <set comment="band 8">
        <r>  0.0296  0.0559  0.0556  0.0128  0.0000  0.0000  0.0000  0.0000  0.0000 </r>
        <r>  0.0297  0.0557  0.0554  0.0127  0.0000  0.0000  0.0000  0.0000  0.0000 </r>
       </set>
       <set comment="band 9">
        <r>  0.0242  0.0414  0.0420  0.0475  0.0000  0.0000  0.0000  0.0000  0.0000 </r>
        <r>  0.0240  0.0416  0.0421  0.0477  0.0000  0.0000  0.0000  0.0000  0.0000 </r>
       </set>
      </set>
      <set comment="kpoint 70">
       <set comment="band 1">
        <r>  0.2223  0.0099  0.0099  0.0030  0.0000  0.0000  0.0000  0.0000  0.0000 </r>
        <r>  0.2222  0.0099  0.0099  0.0030  0.0000  0.0000  0.0000  0.0000  0.0000 </r>
       </set>
       <set comment="band 2">
        <r>  0.1428  0.0297  0.0297  0.0187  0.0000  0.0000  0.0000  0.0000  0.0000 </r>
        <r>  0.1428  0.0297  0.0297  0.0187  0.0000  0.0000  0.0000  0.0000  0.0000 </r>
       </set>
       <set comment="band 3">
        <r>  0.0326  0.0591  0.0591  0.0336  0.0000  0.0000  0.0000  0.0000  0.0000 </r>
        <r>  0.0326  0.0591  0.0591  0.0336  0.0000  0.0000  0.0000  0.0000  0.0000 </r>
       </set>
       <set comment="band 4">
        <r>  0.0009  0.0430  0.0430  0.1049  0.0000  0.0000  0.0000  0.0000  0.0000 </r>
        <r>  0.0009  0.0430  0.0430  0.1049  0.0000  0.0000  0.0000  0.0000  0.0000 </r>
       </set>
       <set comment="band 5">
        <r>  0.0082  0.0170  0.0170  0.0443  0.0000  0.0000  0.0000  0.0000  0.0000 </r>
        <r>  0.0082  0.0170  0.0169  0.0443  0.0000  0.0000  0.0000  0.0000  0.0000 </r>
       </set>
       <set comment="band 6">
        <r>  0.0792  0.0321  0.0321  0.0145  0.0000  0.0000  0.0000  0.0000  0.0000 </r>
        <r>  0.0792  0.0321  0.0321  0.0145  0.0000  0.0000  0.0000  0.0000  0.0000 </r>
       </set>
       <set comment="band 7">
        <r>  0.0205  0.0383  0.0385  0.0364  0.0000  0.0000  0.0000  0.0000  0.0000 </r>
        <r>  0.0205  0.0383  0.0385  0.0364  0.0000  0.0000  0.0000  0.0000  0.0000 </r>
       </set>
       <set comment="band 8">
        <r>  0.0193  0.0103  0.0098  0.0666  0.0000  0.0000  0.0000  0.0000  0.0000 </r>
        <r>  0.0196  0.0101  0.0092  0.0658  0.0000  0.0000  0.0000  0.0000  0.0000 </r>
       </set>
       <set comment="band 9">
        <r>  0.0242  0.0574  0.0584  0.0141  0.0000  0.0000  0.0000  0.0000  0.0000 </r>
        <r>  0.0239  0.0581  0.0584  0.0143  0.0000  0.0000  0.0000  0.0000  0.0000 </r>
       </set>
      </set>
      <set comment="kpoint 71">
       <set comment="band 1">
        <r>  0.2237  0.0087  0.0087  0.0034  0.0000  0.0000  0.0000  0.0000  0.0000 </r>
        <r>  0.2237  0.0087  0.0087  0.0034  0.0000  0.0000  0.0000  0.0000  0.0000 </r>
       </set>
       <set comment="band 2">
        <r>  0.1315  0.0302  0.0302  0.0223  0.0000  0.0000  0.0000  0.0000  0.0000 </r>
        <r>  0.1315  0.0302  0.0302  0.0223  0.0000  0.0000  0.0000  0.0000  0.0000 </r>
       </set>
       <set comment="band 3">
        <r>  0.0373  0.0631  0.0631  0.0276  0.0000  0.0000  0.0000  0.0000  0.0000 </r>
        <r>  0.0373  0.0631  0.0631  0.0276  0.0000  0.0000  0.0000  0.0000  0.0000 </r>
       </set>
       <set comment="band 4">
        <r>  0.0006  0.0422  0.0422  0.1117  0.0000  0.0000  0.0000  0.0000  0.0000 </r>
        <r>  0.0007  0.0422  0.0422  0.1117  0.0000  0.0000  0.0000  0.0000  0.0000 </r>
       </set>
       <set comment="band 5">
        <r>  0.0887  0.0322  0.0322  0.0112  0.0000  0.0000  0.0000  0.0000  0.0000 </r>
        <r>  0.0887  0.0322  0.0322  0.0111  0.0000  0.0000  0.0000  0.0000  0.0000 </r>
       </set>
       <set comment="band 6">
        <r>  0.0077  0.0204  0.0204  0.0373  0.0000  0.0000  0.0000  0.0000  0.0000 </r>
        <r>  0.0077  0.0204  0.0204  0.0373  0.0000  0.0000  0.0000  0.0000  0.0000 </r>
       </set>
       <set comment="band 7">
        <r>  0.0220  0.0345  0.0345  0.0430  0.0000  0.0000  0.0000  0.0000  0.0000 </r>
        <r>  0.0220  0.0345  0.0345  0.0430  0.0000  0.0000  0.0000  0.0000  0.0000 </r>
       </set>
       <set comment="band 8">
        <r>  0.0169  0.0086  0.0083  0.0628  0.0000  0.0000  0.0000  0.0000  0.0000 </r>
        <r>  0.0171  0.0084  0.0082  0.0625  0.0000  0.0000  0.0000  0.0000  0.0000 </r>
       </set>
       <set comment="band 9">
        <r>  0.0175  0.0597  0.0595  0.0150  0.0000  0.0000  0.0000  0.0000  0.0000 </r>
        <r>  0.0175  0.0597  0.0593  0.0151  0.0000  0.0000  0.0000  0.0000  0.0000 </r>
       </set>
      </set>
      <set comment="kpoint 72">
       <set comment="band 1">
        <r>  0.2250  0.0076  0.0076  0.0037  0.0000  0.0000  0.0000  0.0000  0.0000 </r>
        <r>  0.2250  0.0076  0.0076  0.0037  0.0000  0.0000  0.0000  0.0000  0.0000 </r>
       </set>
       <set comment="band 2">
        <r>  0.1223  0.0306  0.0306  0.0252  0.0000  0.0000  0.0000  0.0000  0.0000 </r>
        <r>  0.1223  0.0306  0.0306  0.0252  0.0000  0.0000  0.0000  0.0000  0.0000 </r>
       </set>
       <set comment="band 3">
        <r>  0.0390  0.0678  0.0678  0.0221  0.0000  0.0000  0.0000  0.0000  0.0000 </r>
        <r>  0.0390  0.0678  0.0678  0.0221  0.0000  0.0000  0.0000  0.0000  0.0000 </r>
       </set>
       <set comment="band 4">
        <r>  0.0004  0.0412  0.0412  0.1187  0.0000  0.0000  0.0000  0.0000  0.0000 </r>
        <r>  0.0004  0.0412  0.0412  0.1186  0.0000  0.0000  0.0000  0.0000  0.0000 </r>
       </set>
       <set comment="band 5">
        <r>  0.1007  0.0321  0.0321  0.0074  0.0000  0.0000  0.0000  0.0000  0.0000 </r>
        <r>  0.1007  0.0321  0.0321  0.0074  0.0000  0.0000  0.0000  0.0000  0.0000 </r>
       </set>
       <set comment="band 6">
        <r>  0.0070  0.0243  0.0243  0.0299  0.0000  0.0000  0.0000  0.0000  0.0000 </r>
        <r>  0.0070  0.0243  0.0243  0.0299  0.0000  0.0000  0.0000  0.0000  0.0000 </r>
       </set>
       <set comment="band 7">
        <r>  0.0203  0.0300  0.0300  0.0482  0.0000  0.0000  0.0000  0.0000  0.0000 </r>
        <r>  0.0203  0.0300  0.0300  0.0482  0.0000  0.0000  0.0000  0.0000  0.0000 </r>
       </set>
       <set comment="band 8">
        <r>  0.0158  0.0079  0.0079  0.0602  0.0000  0.0000  0.0000  0.0000  0.0000 </r>
        <r>  0.0158  0.0079  0.0079  0.0602  0.0000  0.0000  0.0000  0.0000  0.0000 </r>
       </set>
       <set comment="band 9">
        <r>  0.0103  0.0605  0.0605  0.0162  0.0000  0.0000  0.0000  0.0000  0.0000 </r>
        <r>  0.0103  0.0605  0.0604  0.0162  0.0000  0.0000  0.0000  0.0000  0.0000 </r>
       </set>
      </set>
      <set comment="kpoint 73">
       <set comment="band 1">
        <r>  0.2262  0.0067  0.0067  0.0040  0.0000  0.0000  0.0000  0.0000  0.0000 </r>
        <r>  0.2262  0.0067  0.0067  0.0040  0.0000  0.0000  0.0000  0.0000  0.0000 </r>
       </set>
       <set comment="band 2">
        <r>  0.1152  0.0308  0.0308  0.0273  0.0000  0.0000  0.0000  0.0000  0.0000 </r>
        <r>  0.1152  0.0308  0.0308  0.0273  0.0000  0.0000  0.0000  0.0000  0.0000 </r>
       </set>
       <set comment="band 3">
        <r>  0.0376  0.0735  0.0735  0.0173  0.0000  0.0000  0.0000  0.0000  0.0000 </r>
        <r>  0.0376  0.0735  0.0735  0.0173  0.0000  0.0000  0.0000  0.0000  0.0000 </r>
       </set>
       <set comment="band 4">
        <r>  0.0003  0.0401  0.0401  0.1255  0.0000  0.0000  0.0000  0.0000  0.0000 </r>
        <r>  0.0003  0.0401  0.0401  0.1255  0.0000  0.0000  0.0000  0.0000  0.0000 </r>
       </set>
       <set comment="band 5">
        <r>  0.1159  0.0314  0.0314  0.0036  0.0000  0.0000  0.0000  0.0000  0.0000 </r>
        <r>  0.1159  0.0314  0.0314  0.0036  0.0000  0.0000  0.0000  0.0000  0.0000 </r>
       </set>
       <set comment="band 6">
        <r>  0.0059  0.0286  0.0286  0.0225  0.0000  0.0000  0.0000  0.0000  0.0000 </r>
        <r>  0.0059  0.0286  0.0286  0.0225  0.0000  0.0000  0.0000  0.0000  0.0000 </r>
       </set>
       <set comment="band 7">
        <r>  0.0158  0.0251  0.0251  0.0537  0.0000  0.0000  0.0000  0.0000  0.0000 </r>
        <r>  0.0158  0.0251  0.0251  0.0537  0.0000  0.0000  0.0000  0.0000  0.0000 </r>
       </set>
       <set comment="band 8">
        <r>  0.0034  0.0574  0.0574  0.0172  0.0000  0.0000  0.0000  0.0000  0.0000 </r>
        <r>  0.0034  0.0574  0.0574  0.0172  0.0000  0.0000  0.0000  0.0000  0.0000 </r>
       </set>
       <set comment="band 9">
        <r>  0.0149  0.0075  0.0074  0.0586  0.0000  0.0000  0.0000  0.0000  0.0000 </r>
        <r>  0.0149  0.0075  0.0074  0.0584  0.0000  0.0000  0.0000  0.0000  0.0000 </r>
       </set>
      </set>
      <set comment="kpoint 74">
       <set comment="band 1">
        <r>  0.2271  0.0060  0.0060  0.0042  0.0000  0.0000  0.0000  0.0000  0.0000 </r>
        <r>  0.2271  0.0060  0.0060  0.0042  0.0000  0.0000  0.0000  0.0000  0.0000 </r>
       </set>
       <set comment="band 2">
        <r>  0.1098  0.0310  0.0310  0.0289  0.0000  0.0000  0.0000  0.0000  0.0000 </r>
        <r>  0.1098  0.0310  0.0310  0.0289  0.0000  0.0000  0.0000  0.0000  0.0000 </r>
       </set>
       <set comment="band 3">
        <r>  0.0329  0.0802  0.0802  0.0128  0.0000  0.0000  0.0000  0.0000  0.0000 </r>
        <r>  0.0329  0.0802  0.0802  0.0128  0.0000  0.0000  0.0000  0.0000  0.0000 </r>
       </set>
       <set comment="band 4">
        <r>  0.0001  0.0390  0.0390  0.1318  0.0000  0.0000  0.0000  0.0000  0.0000 </r>
        <r>  0.0001  0.0390  0.0390  0.1318  0.0000  0.0000  0.0000  0.0000  0.0000 </r>
       </set>
       <set comment="band 5">
        <r>  0.1340  0.0292  0.0292  0.0007  0.0000  0.0000  0.0000  0.0000  0.0000 </r>
        <r>  0.1340  0.0292  0.0292  0.0007  0.0000  0.0000  0.0000  0.0000  0.0000 </r>
       </set>
       <set comment="band 6">
        <r>  0.0045  0.0333  0.0333  0.0155  0.0000  0.0000  0.0000  0.0000  0.0000 </r>
        <r>  0.0045  0.0333  0.0333  0.0155  0.0000  0.0000  0.0000  0.0000  0.0000 </r>
       </set>
       <set comment="band 7">
        <r>  0.0095  0.0206  0.0206  0.0586  0.0000  0.0000  0.0000  0.0000  0.0000 </r>
        <r>  0.0095  0.0206  0.0206  0.0586  0.0000  0.0000  0.0000  0.0000  0.0000 </r>
       </set>
       <set comment="band 8">
        <r>  0.0000  0.0466  0.0466  0.0171  0.0000  0.0000  0.0000  0.0000  0.0000 </r>
        <r>  0.0000  0.0466  0.0466  0.0171  0.0000  0.0000  0.0000  0.0000  0.0000 </r>
       </set>
       <set comment="band 9">
        <r>  0.0141  0.0077  0.0063  0.0551  0.0000  0.0000  0.0000  0.0000  0.0000 </r>
        <r>  0.0140  0.0079  0.0064  0.0554  0.0000  0.0000  0.0000  0.0000  0.0000 </r>
       </set>
      </set>
      <set comment="kpoint 75">
       <set comment="band 1">
        <r>  0.2279  0.0054  0.0054  0.0044  0.0000  0.0000  0.0000  0.0000  0.0000 </r>
        <r>  0.2279  0.0054  0.0054  0.0044  0.0000  0.0000  0.0000  0.0000  0.0000 </r>
       </set>
       <set comment="band 2">
        <r>  0.1060  0.0311  0.0311  0.0300  0.0000  0.0000  0.0000  0.0000  0.0000 </r>
        <r>  0.1060  0.0311  0.0311  0.0300  0.0000  0.0000  0.0000  0.0000  0.0000 </r>
       </set>
       <set comment="band 3">
        <r>  0.0251  0.0882  0.0882  0.0085  0.0000  0.0000  0.0000  0.0000  0.0000 </r>
        <r>  0.0251  0.0882  0.0882  0.0085  0.0000  0.0000  0.0000  0.0000  0.0000 </r>
       </set>
       <set comment="band 4">
        <r>  0.0000  0.0379  0.0379  0.1371  0.0000  0.0000  0.0000  0.0000  0.0000 </r>
        <r>  0.0000  0.0379  0.0379  0.1371  0.0000  0.0000  0.0000  0.0000  0.0000 </r>
       </set>
       <set comment="band 5">
        <r>  0.1526  0.0244  0.0244  0.0001  0.0000  0.0000  0.0000  0.0000  0.0000 </r>
        <r>  0.1526  0.0244  0.0244  0.0001  0.0000  0.0000  0.0000  0.0000  0.0000 </r>
       </set>
       <set comment="band 6">
        <r>  0.0030  0.0380  0.0380  0.0093  0.0000  0.0000  0.0000  0.0000  0.0000 </r>
        <r>  0.0030  0.0380  0.0380  0.0093  0.0000  0.0000  0.0000  0.0000  0.0000 </r>
       </set>
       <set comment="band 7">
        <r>  0.0038  0.0175  0.0175  0.0616  0.0000  0.0000  0.0000  0.0000  0.0000 </r>
        <r>  0.0038  0.0175  0.0175  0.0616  0.0000  0.0000  0.0000  0.0000  0.0000 </r>
       </set>
       <set comment="band 8">
        <r>  0.0013  0.0333  0.0333  0.0162  0.0000  0.0000  0.0000  0.0000  0.0000 </r>
        <r>  0.0013  0.0333  0.0333  0.0162  0.0000  0.0000  0.0000  0.0000  0.0000 </r>
       </set>
       <set comment="band 9">
        <r>  0.0127  0.0084  0.0051  0.0515  0.0000  0.0000  0.0000  0.0000  0.0000 </r>
        <r>  0.0129  0.0083  0.0050  0.0520  0.0000  0.0000  0.0000  0.0000  0.0000 </r>
       </set>
      </set>
      <set comment="kpoint 76">
       <set comment="band 1">
        <r>  0.2284  0.0050  0.0050  0.0045  0.0000  0.0000  0.0000  0.0000  0.0000 </r>
        <r>  0.2284  0.0050  0.0050  0.0045  0.0000  0.0000  0.0000  0.0000  0.0000 </r>
       </set>
       <set comment="band 2">
        <r>  0.1034  0.0312  0.0312  0.0307  0.0000  0.0000  0.0000  0.0000  0.0000 </r>
        <r>  0.1034  0.0312  0.0312  0.0307  0.0000  0.0000  0.0000  0.0000  0.0000 </r>
       </set>
       <set comment="band 3">
        <r>  0.0148  0.0970  0.0970  0.0045  0.0000  0.0000  0.0000  0.0000  0.0000 </r>
        <r>  0.0148  0.0970  0.0970  0.0045  0.0000  0.0000  0.0000  0.0000  0.0000 </r>
       </set>
       <set comment="band 4">
        <r>  0.0000  0.0369  0.0369  0.1412  0.0000  0.0000  0.0000  0.0000  0.0000 </r>
        <r>  0.0000  0.0369  0.0369  0.1412  0.0000  0.0000  0.0000  0.0000  0.0000 </r>
       </set>
       <set comment="band 5">
        <r>  0.1694  0.0172  0.0172  0.0022  0.0000  0.0000  0.0000  0.0000  0.0000 </r>
        <r>  0.1694  0.0172  0.0172  0.0022  0.0000  0.0000  0.0000  0.0000  0.0000 </r>
       </set>
       <set comment="band 6">
        <r>  0.0015  0.0422  0.0422  0.0044  0.0000  0.0000  0.0000  0.0000  0.0000 </r>
        <r>  0.0015  0.0422  0.0422  0.0044  0.0000  0.0000  0.0000  0.0000  0.0000 </r>
       </set>
       <set comment="band 7">
        <r>  0.0008  0.0160  0.0160  0.0623  0.0000  0.0000  0.0000  0.0000  0.0000 </r>
        <r>  0.0008  0.0160  0.0160  0.0623  0.0000  0.0000  0.0000  0.0000  0.0000 </r>
       </set>
       <set comment="band 8">
        <r>  0.0039  0.0234  0.0234  0.0157  0.0000  0.0000  0.0000  0.0000  0.0000 </r>
        <r>  0.0039  0.0234  0.0234  0.0157  0.0000  0.0000  0.0000  0.0000  0.0000 </r>
       </set>
       <set comment="band 9">
        <r>  0.0094  0.0201  0.0021  0.0382  0.0000  0.0000  0.0000  0.0000  0.0000 </r>
        <r>  0.0130  0.0157  0.0012  0.0315  0.0000  0.0000  0.0000  0.0000  0.0000 </r>
       </set>
      </set>
      <set comment="kpoint 77">
       <set comment="band 1">
        <r>  0.2287  0.0047  0.0047  0.0046  0.0000  0.0000  0.0000  0.0000  0.0000 </r>
        <r>  0.2287  0.0047  0.0047  0.0046  0.0000  0.0000  0.0000  0.0000  0.0000 </r>
       </set>
       <set comment="band 2">
        <r>  0.1019  0.0313  0.0313  0.0312  0.0000  0.0000  0.0000  0.0000  0.0000 </r>
        <r>  0.1019  0.0313  0.0313  0.0312  0.0000  0.0000  0.0000  0.0000  0.0000 </r>
       </set>
       <set comment="band 3">
        <r>  0.0046  0.1050  0.1049  0.0013  0.0000  0.0000  0.0000  0.0000  0.0000 </r>
        <r>  0.0046  0.1050  0.1049  0.0013  0.0000  0.0000  0.0000  0.0000  0.0000 </r>
       </set>
       <set comment="band 4">
        <r>  0.0000  0.0363  0.0363  0.1437  0.0000  0.0000  0.0000  0.0000  0.0000 </r>
        <r>  0.0000  0.0363  0.0363  0.1437  0.0000  0.0000  0.0000  0.0000  0.0000 </r>
       </set>
       <set comment="band 5">
        <r>  0.1824  0.0097  0.0097  0.0051  0.0000  0.0000  0.0000  0.0000  0.0000 </r>
        <r>  0.1824  0.0097  0.0097  0.0051  0.0000  0.0000  0.0000  0.0000  0.0000 </r>
       </set>
       <set comment="band 6">
        <r>  0.0004  0.0451  0.0451  0.0011  0.0000  0.0000  0.0000  0.0000  0.0000 </r>
        <r>  0.0004  0.0451  0.0451  0.0011  0.0000  0.0000  0.0000  0.0000  0.0000 </r>
       </set>
       <set comment="band 7">
        <r>  0.0001  0.0155  0.0155  0.0619  0.0000  0.0000  0.0000  0.0000  0.0000 </r>
        <r>  0.0001  0.0155  0.0155  0.0619  0.0000  0.0000  0.0000  0.0000  0.0000 </r>
       </set>
       <set comment="band 8">
        <r>  0.0059  0.0176  0.0176  0.0157  0.0000  0.0000  0.0000  0.0000  0.0000 </r>
        <r>  0.0059  0.0176  0.0176  0.0157  0.0000  0.0000  0.0000  0.0000  0.0000 </r>
       </set>
       <set comment="band 9">
        <r>  0.0027  0.0166  0.0006  0.0117  0.0000  0.0000  0.0000  0.0000  0.0000 </r>
        <r>  0.0040  0.0140  0.0015  0.0097  0.0000  0.0000  0.0000  0.0000  0.0000 </r>
       </set>
      </set>
      <set comment="kpoint 78">
       <set comment="band 1">
        <r>  0.2288  0.0046  0.0046  0.0046  0.0000  0.0000  0.0000  0.0000  0.0000 </r>
        <r>  0.2288  0.0046  0.0046  0.0046  0.0000  0.0000  0.0000  0.0000  0.0000 </r>
       </set>
       <set comment="band 2">
        <r>  0.1014  0.0313  0.0313  0.0313  0.0000  0.0000  0.0000  0.0000  0.0000 </r>
        <r>  0.1014  0.0313  0.0313  0.0313  0.0000  0.0000  0.0000  0.0000  0.0000 </r>
       </set>
       <set comment="band 3">
        <r>  0.0000  0.1426  0.0516  0.0226  0.0000  0.0000  0.0000  0.0000  0.0000 </r>
        <r>  0.0000  0.1426  0.0516  0.0226  0.0000  0.0000  0.0000  0.0000  0.0000 </r>
       </set>
       <set comment="band 4">
        <r>  0.0000  0.0020  0.0929  0.1219  0.0000  0.0000  0.0000  0.0000  0.0000 </r>
        <r>  0.0000  0.0020  0.0929  0.1219  0.0000  0.0000  0.0000  0.0000  0.0000 </r>
       </set>
       <set comment="band 5">
        <r>  0.1877  0.0064  0.0064  0.0064  0.0000  0.0000  0.0000  0.0000  0.0000 </r>
        <r>  0.1877  0.0064  0.0064  0.0064  0.0000  0.0000  0.0000  0.0000  0.0000 </r>
       </set>
       <set comment="band 6">
        <r>  0.0000  0.0015  0.0374  0.0536  0.0000  0.0000  0.0000  0.0000  0.0000 </r>
        <r>  0.0000  0.0015  0.0374  0.0536  0.0000  0.0000  0.0000  0.0000  0.0000 </r>
       </set>
       <set comment="band 7">
        <r>  0.0000  0.0602  0.0242  0.0080  0.0000  0.0000  0.0000  0.0000  0.0000 </r>
        <r>  0.0000  0.0602  0.0242  0.0080  0.0000  0.0000  0.0000  0.0000  0.0000 </r>
       </set>
       <set comment="band 8">
        <r>  0.0066  0.0157  0.0157  0.0157  0.0000  0.0000  0.0000  0.0000  0.0000 </r>
        <r>  0.0066  0.0157  0.0157  0.0157  0.0000  0.0000  0.0000  0.0000  0.0000 </r>
       </set>
       <set comment="band 9">
        <r>  0.0000  0.0000  0.0003  0.0001  0.0000  0.0000  0.0000  0.0000  0.0000 </r>
        <r>  0.0000  0.0000  0.0001  0.0002  0.0000  0.0000  0.0000  0.0000  0.0000 </r>
       </set>
      </set>
      <set comment="kpoint 79">
       <set comment="band 1">
        <r>  0.2288  0.0046  0.0046  0.0046  0.0000  0.0000  0.0000  0.0000  0.0000 </r>
        <r>  0.2288  0.0046  0.0046  0.0046  0.0000  0.0000  0.0000  0.0000  0.0000 </r>
       </set>
       <set comment="band 2">
        <r>  0.1014  0.0313  0.0313  0.0313  0.0000  0.0000  0.0000  0.0000  0.0000 </r>
        <r>  0.1014  0.0313  0.0313  0.0313  0.0000  0.0000  0.0000  0.0000  0.0000 </r>
       </set>
       <set comment="band 3">
        <r>  0.0000  0.1426  0.0516  0.0226  0.0000  0.0000  0.0000  0.0000  0.0000 </r>
        <r>  0.0000  0.1426  0.0516  0.0226  0.0000  0.0000  0.0000  0.0000  0.0000 </r>
       </set>
       <set comment="band 4">
        <r>  0.0000  0.0020  0.0929  0.1219  0.0000  0.0000  0.0000  0.0000  0.0000 </r>
        <r>  0.0000  0.0020  0.0929  0.1219  0.0000  0.0000  0.0000  0.0000  0.0000 </r>
       </set>
       <set comment="band 5">
        <r>  0.1877  0.0064  0.0064  0.0064  0.0000  0.0000  0.0000  0.0000  0.0000 </r>
        <r>  0.1877  0.0064  0.0064  0.0064  0.0000  0.0000  0.0000  0.0000  0.0000 </r>
       </set>
       <set comment="band 6">
        <r>  0.0000  0.0015  0.0374  0.0536  0.0000  0.0000  0.0000  0.0000  0.0000 </r>
        <r>  0.0000  0.0015  0.0374  0.0536  0.0000  0.0000  0.0000  0.0000  0.0000 </r>
       </set>
       <set comment="band 7">
        <r>  0.0000  0.0602  0.0242  0.0080  0.0000  0.0000  0.0000  0.0000  0.0000 </r>
        <r>  0.0000  0.0602  0.0242  0.0080  0.0000  0.0000  0.0000  0.0000  0.0000 </r>
       </set>
       <set comment="band 8">
        <r>  0.0066  0.0157  0.0157  0.0157  0.0000  0.0000  0.0000  0.0000  0.0000 </r>
        <r>  0.0066  0.0157  0.0157  0.0157  0.0000  0.0000  0.0000  0.0000  0.0000 </r>
       </set>
       <set comment="band 9">
        <r>  0.0000  0.0000  0.0003  0.0001  0.0000  0.0000  0.0000  0.0000  0.0000 </r>
        <r>  0.0000  0.0000  0.0001  0.0002  0.0000  0.0000  0.0000  0.0000  0.0000 </r>
       </set>
      </set>
      <set comment="kpoint 80">
       <set comment="band 1">
        <r>  0.2275  0.0047  0.0047  0.0047  0.0000  0.0000  0.0000  0.0000  0.0000 </r>
        <r>  0.2275  0.0047  0.0047  0.0047  0.0000  0.0000  0.0000  0.0000  0.0000 </r>
       </set>
       <set comment="band 2">
        <r>  0.1025  0.0313  0.0313  0.0313  0.0000  0.0000  0.0000  0.0000  0.0000 </r>
        <r>  0.1026  0.0313  0.0313  0.0313  0.0000  0.0000  0.0000  0.0000  0.0000 </r>
       </set>
       <set comment="band 3">
        <r>  0.0000  0.1425  0.0516  0.0226  0.0000  0.0000  0.0000  0.0000  0.0000 </r>
        <r>  0.0000  0.1425  0.0516  0.0226  0.0000  0.0000  0.0000  0.0000  0.0000 </r>
       </set>
       <set comment="band 4">
        <r>  0.0000  0.0020  0.0929  0.1219  0.0000  0.0000  0.0000  0.0000  0.0000 </r>
        <r>  0.0000  0.0020  0.0929  0.1219  0.0000  0.0000  0.0000  0.0000  0.0000 </r>
       </set>
       <set comment="band 5">
        <r>  0.1873  0.0065  0.0065  0.0065  0.0000  0.0000  0.0000  0.0000  0.0000 </r>
        <r>  0.1873  0.0065  0.0065  0.0065  0.0000  0.0000  0.0000  0.0000  0.0000 </r>
       </set>
       <set comment="band 6">
        <r>  0.0000  0.0015  0.0376  0.0539  0.0000  0.0000  0.0000  0.0000  0.0000 </r>
        <r>  0.0000  0.0015  0.0376  0.0539  0.0000  0.0000  0.0000  0.0000  0.0000 </r>
       </set>
       <set comment="band 7">
        <r>  0.0000  0.0605  0.0244  0.0081  0.0000  0.0000  0.0000  0.0000  0.0000 </r>
        <r>  0.0000  0.0605  0.0244  0.0081  0.0000  0.0000  0.0000  0.0000  0.0000 </r>
       </set>
       <set comment="band 8">
        <r>  0.0065  0.0160  0.0160  0.0160  0.0000  0.0000  0.0000  0.0000  0.0000 </r>
        <r>  0.0065  0.0160  0.0160  0.0160  0.0000  0.0000  0.0000  0.0000  0.0000 </r>
       </set>
       <set comment="band 9">
        <r>  0.0000  0.0001  0.0160  0.0114  0.0000  0.0000  0.0000  0.0000  0.0000 </r>
        <r>  0.0000  0.0001  0.0161  0.0114  0.0000  0.0000  0.0000  0.0000  0.0000 </r>
       </set>
      </set>
      <set comment="kpoint 81">
       <set comment="band 1">
        <r>  0.2243  0.0049  0.0049  0.0049  0.0000  0.0000  0.0000  0.0000  0.0000 </r>
        <r>  0.2243  0.0049  0.0049  0.0049  0.0000  0.0000  0.0000  0.0000  0.0000 </r>
       </set>
       <set comment="band 2">
        <r>  0.1051  0.0313  0.0313  0.0313  0.0000  0.0000  0.0000  0.0000  0.0000 </r>
        <r>  0.1051  0.0313  0.0313  0.0313  0.0000  0.0000  0.0000  0.0000  0.0000 </r>
       </set>
       <set comment="band 3">
        <r>  0.0000  0.1424  0.0515  0.0226  0.0000  0.0000  0.0000  0.0000  0.0000 </r>
        <r>  0.0000  0.1424  0.0515  0.0226  0.0000  0.0000  0.0000  0.0000  0.0000 </r>
       </set>
       <set comment="band 4">
        <r>  0.0000  0.0020  0.0928  0.1218  0.0000  0.0000  0.0000  0.0000  0.0000 </r>
        <r>  0.0000  0.0020  0.0928  0.1218  0.0000  0.0000  0.0000  0.0000  0.0000 </r>
       </set>
       <set comment="band 5">
        <r>  0.1862  0.0068  0.0068  0.0068  0.0000  0.0000  0.0000  0.0000  0.0000 </r>
        <r>  0.1862  0.0068  0.0068  0.0068  0.0000  0.0000  0.0000  0.0000  0.0000 </r>
       </set>
       <set comment="band 6">
        <r>  0.0000  0.0015  0.0382  0.0547  0.0000  0.0000  0.0000  0.0000  0.0000 </r>
        <r>  0.0000  0.0015  0.0382  0.0547  0.0000  0.0000  0.0000  0.0000  0.0000 </r>
       </set>
       <set comment="band 7">
        <r>  0.0000  0.0615  0.0248  0.0083  0.0000  0.0000  0.0000  0.0000  0.0000 </r>
        <r>  0.0000  0.0615  0.0248  0.0083  0.0000  0.0000  0.0000  0.0000  0.0000 </r>
       </set>
       <set comment="band 8">
        <r>  0.0059  0.0169  0.0169  0.0169  0.0000  0.0000  0.0000  0.0000  0.0000 </r>
        <r>  0.0059  0.0169  0.0169  0.0169  0.0000  0.0000  0.0000  0.0000  0.0000 </r>
       </set>
       <set comment="band 9">
        <r>  0.0000  0.0007  0.0234  0.0155  0.0000  0.0000  0.0000  0.0000  0.0000 </r>
        <r>  0.0000  0.0007  0.0234  0.0155  0.0000  0.0000  0.0000  0.0000  0.0000 </r>
       </set>
      </set>
      <set comment="kpoint 82">
       <set comment="band 1">
        <r>  0.2209  0.0050  0.0050  0.0050  0.0000  0.0000  0.0000  0.0000  0.0000 </r>
        <r>  0.2209  0.0050  0.0050  0.0050  0.0000  0.0000  0.0000  0.0000  0.0000 </r>
       </set>
       <set comment="band 2">
        <r>  0.1074  0.0317  0.0317  0.0317  0.0000  0.0000  0.0000  0.0000  0.0000 </r>
        <r>  0.1074  0.0317  0.0317  0.0317  0.0000  0.0000  0.0000  0.0000  0.0000 </r>
       </set>
       <set comment="band 3">
        <r>  0.0000  0.1422  0.0515  0.0226  0.0000  0.0000  0.0000  0.0000  0.0000 </r>
        <r>  0.0000  0.1422  0.0515  0.0226  0.0000  0.0000  0.0000  0.0000  0.0000 </r>
       </set>
       <set comment="band 4">
        <r>  0.0000  0.0020  0.0927  0.1216  0.0000  0.0000  0.0000  0.0000  0.0000 </r>
        <r>  0.0000  0.0020  0.0927  0.1216  0.0000  0.0000  0.0000  0.0000  0.0000 </r>
       </set>
       <set comment="band 5">
        <r>  0.1843  0.0074  0.0074  0.0074  0.0000  0.0000  0.0000  0.0000  0.0000 </r>
        <r>  0.1843  0.0074  0.0074  0.0074  0.0000  0.0000  0.0000  0.0000  0.0000 </r>
       </set>
       <set comment="band 6">
        <r>  0.0000  0.0016  0.0393  0.0562  0.0000  0.0000  0.0000  0.0000  0.0000 </r>
        <r>  0.0000  0.0016  0.0393  0.0562  0.0000  0.0000  0.0000  0.0000  0.0000 </r>
       </set>
       <set comment="band 7">
        <r>  0.0000  0.0632  0.0254  0.0085  0.0000  0.0000  0.0000  0.0000  0.0000 </r>
        <r>  0.0000  0.0632  0.0254  0.0085  0.0000  0.0000  0.0000  0.0000  0.0000 </r>
       </set>
       <set comment="band 8">
        <r>  0.0050  0.0186  0.0186  0.0186  0.0000  0.0000  0.0000  0.0000  0.0000 </r>
        <r>  0.0050  0.0186  0.0186  0.0186  0.0000  0.0000  0.0000  0.0000  0.0000 </r>
       </set>
       <set comment="band 9">
        <r>  0.0000  0.0012  0.0262  0.0155  0.0000  0.0000  0.0000  0.0000  0.0000 </r>
        <r>  0.0000  0.0012  0.0262  0.0154  0.0000  0.0000  0.0000  0.0000  0.0000 </r>
       </set>
      </set>
      <set comment="kpoint 83">
       <set comment="band 1">
        <r>  0.2182  0.0049  0.0049  0.0049  0.0000  0.0000  0.0000  0.0000  0.0000 </r>
        <r>  0.2182  0.0049  0.0049  0.0049  0.0000  0.0000  0.0000  0.0000  0.0000 </r>
       </set>
       <set comment="band 2">
        <r>  0.1086  0.0323  0.0323  0.0323  0.0000  0.0000  0.0000  0.0000  0.0000 </r>
        <r>  0.1086  0.0323  0.0323  0.0323  0.0000  0.0000  0.0000  0.0000  0.0000 </r>
       </set>
       <set comment="band 3">
        <r>  0.0000  0.1419  0.0514  0.0225  0.0000  0.0000  0.0000  0.0000  0.0000 </r>
        <r>  0.0000  0.1419  0.0514  0.0225  0.0000  0.0000  0.0000  0.0000  0.0000 </r>
       </set>
       <set comment="band 4">
        <r>  0.0000  0.0020  0.0924  0.1214  0.0000  0.0000  0.0000  0.0000  0.0000 </r>
        <r>  0.0000  0.0020  0.0924  0.1214  0.0000  0.0000  0.0000  0.0000  0.0000 </r>
       </set>
       <set comment="band 5">
        <r>  0.1817  0.0082  0.0082  0.0082  0.0000  0.0000  0.0000  0.0000  0.0000 </r>
        <r>  0.1817  0.0082  0.0082  0.0082  0.0000  0.0000  0.0000  0.0000  0.0000 </r>
       </set>
       <set comment="band 6">
        <r>  0.0000  0.0016  0.0412  0.0582  0.0000  0.0000  0.0000  0.0000  0.0000 </r>
        <r>  0.0000  0.0016  0.0412  0.0582  0.0000  0.0000  0.0000  0.0000  0.0000 </r>
       </set>
       <set comment="band 7">
        <r>  0.0000  0.0658  0.0261  0.0091  0.0000  0.0000  0.0000  0.0000  0.0000 </r>
        <r>  0.0000  0.0658  0.0261  0.0091  0.0000  0.0000  0.0000  0.0000  0.0000 </r>
       </set>
       <set comment="band 8">
        <r>  0.0041  0.0216  0.0215  0.0215  0.0000  0.0000  0.0000  0.0000  0.0000 </r>
        <r>  0.0040  0.0215  0.0215  0.0214  0.0000  0.0000  0.0000  0.0000  0.0000 </r>
       </set>
       <set comment="band 9">
        <r>  0.0000  0.0017  0.0263  0.0144  0.0000  0.0000  0.0000  0.0000  0.0000 </r>
        <r>  0.0000  0.0017  0.0264  0.0144  0.0000  0.0000  0.0000  0.0000  0.0000 </r>
       </set>
      </set>
      <set comment="kpoint 84">
       <set comment="band 1">
        <r>  0.2164  0.0046  0.0046  0.0046  0.0000  0.0000  0.0000  0.0000  0.0000 </r>
        <r>  0.2164  0.0046  0.0046  0.0046  0.0000  0.0000  0.0000  0.0000  0.0000 </r>
       </set>
       <set comment="band 2">
        <r>  0.1084  0.0333  0.0333  0.0333  0.0000  0.0000  0.0000  0.0000  0.0000 </r>
        <r>  0.1084  0.0333  0.0333  0.0333  0.0000  0.0000  0.0000  0.0000  0.0000 </r>
       </set>
       <set comment="band 3">
        <r>  0.0000  0.1415  0.0514  0.0224  0.0000  0.0000  0.0000  0.0000  0.0000 </r>
        <r>  0.0000  0.1415  0.0514  0.0224  0.0000  0.0000  0.0000  0.0000  0.0000 </r>
       </set>
       <set comment="band 4">
        <r>  0.0000  0.0020  0.0921  0.1212  0.0000  0.0000  0.0000  0.0000  0.0000 </r>
        <r>  0.0000  0.0020  0.0921  0.1212  0.0000  0.0000  0.0000  0.0000  0.0000 </r>
       </set>
       <set comment="band 5">
        <r>  0.1783  0.0092  0.0092  0.0092  0.0000  0.0000  0.0000  0.0000  0.0000 </r>
        <r>  0.1783  0.0092  0.0092  0.0092  0.0000  0.0000  0.0000  0.0000  0.0000 </r>
       </set>
       <set comment="band 6">
        <r>  0.0000  0.0016  0.0434  0.0611  0.0000  0.0000  0.0000  0.0000  0.0000 </r>
        <r>  0.0000  0.0016  0.0434  0.0611  0.0000  0.0000  0.0000  0.0000  0.0000 </r>
       </set>
       <set comment="band 7">
        <r>  0.0000  0.0691  0.0273  0.0096  0.0000  0.0000  0.0000  0.0000  0.0000 </r>
        <r>  0.0000  0.0691  0.0273  0.0096  0.0000  0.0000  0.0000  0.0000  0.0000 </r>
       </set>
       <set comment="band 8">
        <r>  0.0044  0.0274  0.0265  0.0266  0.0000  0.0000  0.0000  0.0000  0.0000 </r>
        <r>  0.0042  0.0271  0.0267  0.0262  0.0000  0.0000  0.0000  0.0000  0.0000 </r>
       </set>
       <set comment="band 9">
        <r>  0.0000  0.0018  0.0249  0.0134  0.0000  0.0000  0.0000  0.0000  0.0000 </r>
        <r>  0.0000  0.0018  0.0250  0.0134  0.0000  0.0000  0.0000  0.0000  0.0000 </r>
       </set>
      </set>
      <set comment="kpoint 85">
       <set comment="band 1">
        <r>  0.2154  0.0042  0.0042  0.0042  0.0000  0.0000  0.0000  0.0000  0.0000 </r>
        <r>  0.2154  0.0042  0.0042  0.0042  0.0000  0.0000  0.0000  0.0000  0.0000 </r>
       </set>
       <set comment="band 2">
        <r>  0.1070  0.0347  0.0347  0.0347  0.0000  0.0000  0.0000  0.0000  0.0000 </r>
        <r>  0.1070  0.0347  0.0347  0.0347  0.0000  0.0000  0.0000  0.0000  0.0000 </r>
       </set>
       <set comment="band 3">
        <r>  0.0000  0.1412  0.0514  0.0222  0.0000  0.0000  0.0000  0.0000  0.0000 </r>
        <r>  0.0000  0.1412  0.0514  0.0222  0.0000  0.0000  0.0000  0.0000  0.0000 </r>
       </set>
       <set comment="band 4">
        <r>  0.0000  0.0020  0.0918  0.1209  0.0000  0.0000  0.0000  0.0000  0.0000 </r>
        <r>  0.0000  0.0020  0.0918  0.1209  0.0000  0.0000  0.0000  0.0000  0.0000 </r>
       </set>
       <set comment="band 5">
        <r>  0.1741  0.0105  0.0105  0.0105  0.0000  0.0000  0.0000  0.0000  0.0000 </r>
        <r>  0.1741  0.0105  0.0105  0.0105  0.0000  0.0000  0.0000  0.0000  0.0000 </r>
       </set>
       <set comment="band 6">
        <r>  0.0000  0.0017  0.0460  0.0647  0.0000  0.0000  0.0000  0.0000  0.0000 </r>
        <r>  0.0000  0.0017  0.0460  0.0647  0.0000  0.0000  0.0000  0.0000  0.0000 </r>
       </set>
       <set comment="band 7">
        <r>  0.0000  0.0733  0.0289  0.0103  0.0000  0.0000  0.0000  0.0000  0.0000 </r>
        <r>  0.0000  0.0733  0.0289  0.0103  0.0000  0.0000  0.0000  0.0000  0.0000 </r>
       </set>
       <set comment="band 8">
        <r>  0.0120  0.0398  0.0342  0.0338  0.0000  0.0000  0.0000  0.0000  0.0000 </r>
        <r>  0.0119  0.0388  0.0353  0.0335  0.0000  0.0000  0.0000  0.0000  0.0000 </r>
       </set>
       <set comment="band 9">
        <r>  0.0000  0.0017  0.0224  0.0118  0.0000  0.0000  0.0000  0.0000  0.0000 </r>
        <r>  0.0000  0.0017  0.0224  0.0118  0.0000  0.0000  0.0000  0.0000  0.0000 </r>
       </set>
      </set>
      <set comment="kpoint 86">
       <set comment="band 1">
        <r>  0.2149  0.0037  0.0037  0.0037  0.0000  0.0000  0.0000  0.0000  0.0000 </r>
        <r>  0.2149  0.0037  0.0037  0.0037  0.0000  0.0000  0.0000  0.0000  0.0000 </r>
       </set>
       <set comment="band 2">
        <r>  0.1044  0.0363  0.0363  0.0363  0.0000  0.0000  0.0000  0.0000  0.0000 </r>
        <r>  0.1044  0.0363  0.0363  0.0363  0.0000  0.0000  0.0000  0.0000  0.0000 </r>
       </set>
       <set comment="band 3">
        <r>  0.0000  0.1408  0.0513  0.0221  0.0000  0.0000  0.0000  0.0000  0.0000 </r>
        <r>  0.0000  0.1408  0.0513  0.0221  0.0000  0.0000  0.0000  0.0000  0.0000 </r>
       </set>
       <set comment="band 4">
        <r>  0.0000  0.0020  0.0915  0.1207  0.0000  0.0000  0.0000  0.0000  0.0000 </r>
        <r>  0.0000  0.0020  0.0915  0.1207  0.0000  0.0000  0.0000  0.0000  0.0000 </r>
       </set>
       <set comment="band 5">
        <r>  0.1691  0.0120  0.0120  0.0120  0.0000  0.0000  0.0000  0.0000  0.0000 </r>
        <r>  0.1691  0.0120  0.0120  0.0120  0.0000  0.0000  0.0000  0.0000  0.0000 </r>
       </set>
       <set comment="band 6">
        <r>  0.0000  0.0018  0.0491  0.0691  0.0000  0.0000  0.0000  0.0000  0.0000 </r>
        <r>  0.0000  0.0018  0.0491  0.0691  0.0000  0.0000  0.0000  0.0000  0.0000 </r>
       </set>
       <set comment="band 7">
        <r>  0.0000  0.0781  0.0309  0.0109  0.0000  0.0000  0.0000  0.0000  0.0000 </r>
        <r>  0.0000  0.0781  0.0309  0.0109  0.0000  0.0000  0.0000  0.0000  0.0000 </r>
       </set>
       <set comment="band 8">
        <r>  0.0341  0.0506  0.0336  0.0326  0.0000  0.0000  0.0000  0.0000  0.0000 </r>
        <r>  0.0341  0.0492  0.0354  0.0323  0.0000  0.0000  0.0000  0.0000  0.0000 </r>
       </set>
       <set comment="band 9">
        <r>  0.0000  0.0015  0.0190  0.0098  0.0000  0.0000  0.0000  0.0000  0.0000 </r>
        <r>  0.0000  0.0015  0.0190  0.0098  0.0000  0.0000  0.0000  0.0000  0.0000 </r>
       </set>
      </set>
      <set comment="kpoint 87">
       <set comment="band 1">
        <r>  0.2149  0.0032  0.0032  0.0032  0.0000  0.0000  0.0000  0.0000  0.0000 </r>
        <r>  0.2149  0.0032  0.0032  0.0032  0.0000  0.0000  0.0000  0.0000  0.0000 </r>
       </set>
       <set comment="band 2">
        <r>  0.1008  0.0381  0.0381  0.0381  0.0000  0.0000  0.0000  0.0000  0.0000 </r>
        <r>  0.1008  0.0381  0.0381  0.0381  0.0000  0.0000  0.0000  0.0000  0.0000 </r>
       </set>
       <set comment="band 3">
        <r>  0.0000  0.1404  0.0513  0.0220  0.0000  0.0000  0.0000  0.0000  0.0000 </r>
        <r>  0.0000  0.1404  0.0513  0.0220  0.0000  0.0000  0.0000  0.0000  0.0000 </r>
       </set>
       <set comment="band 4">
        <r>  0.0000  0.0021  0.0911  0.1205  0.0000  0.0000  0.0000  0.0000  0.0000 </r>
        <r>  0.0000  0.0021  0.0911  0.1205  0.0000  0.0000  0.0000  0.0000  0.0000 </r>
       </set>
       <set comment="band 5">
        <r>  0.1633  0.0138  0.0138  0.0138  0.0000  0.0000  0.0000  0.0000  0.0000 </r>
        <r>  0.1633  0.0138  0.0138  0.0138  0.0000  0.0000  0.0000  0.0000  0.0000 </r>
       </set>
       <set comment="band 6">
        <r>  0.0000  0.0021  0.0522  0.0740  0.0000  0.0000  0.0000  0.0000  0.0000 </r>
        <r>  0.0000  0.0021  0.0522  0.0740  0.0000  0.0000  0.0000  0.0000  0.0000 </r>
       </set>
       <set comment="band 7">
        <r>  0.0000  0.0834  0.0333  0.0115  0.0000  0.0000  0.0000  0.0000  0.0000 </r>
        <r>  0.0000  0.0834  0.0333  0.0115  0.0000  0.0000  0.0000  0.0000  0.0000 </r>
       </set>
       <set comment="band 8">
        <r>  0.0789  0.0531  0.0449  0.0435  0.0000  0.0000  0.0000  0.0000  0.0000 </r>
        <r>  0.0784  0.0519  0.0454  0.0431  0.0000  0.0000  0.0000  0.0000  0.0000 </r>
       </set>
       <set comment="band 9">
        <r>  0.0000  0.0013  0.0149  0.0075  0.0000  0.0000  0.0000  0.0000  0.0000 </r>
        <r>  0.0000  0.0013  0.0149  0.0075  0.0000  0.0000  0.0000  0.0000  0.0000 </r>
       </set>
      </set>
      <set comment="kpoint 88">
       <set comment="band 1">
        <r>  0.2151  0.0027  0.0027  0.0027  0.0000  0.0000  0.0000  0.0000  0.0000 </r>
        <r>  0.2151  0.0027  0.0027  0.0027  0.0000  0.0000  0.0000  0.0000  0.0000 </r>
       </set>
       <set comment="band 2">
        <r>  0.0962  0.0402  0.0402  0.0402  0.0000  0.0000  0.0000  0.0000  0.0000 </r>
        <r>  0.0962  0.0402  0.0402  0.0402  0.0000  0.0000  0.0000  0.0000  0.0000 </r>
       </set>
       <set comment="band 3">
        <r>  0.0000  0.1400  0.0513  0.0218  0.0000  0.0000  0.0000  0.0000  0.0000 </r>
        <r>  0.0000  0.1400  0.0513  0.0218  0.0000  0.0000  0.0000  0.0000  0.0000 </r>
       </set>
       <set comment="band 4">
        <r>  0.0000  0.0021  0.0908  0.1203  0.0000  0.0000  0.0000  0.0000  0.0000 </r>
        <r>  0.0000  0.0021  0.0908  0.1203  0.0000  0.0000  0.0000  0.0000  0.0000 </r>
       </set>
       <set comment="band 5">
        <r>  0.1564  0.0158  0.0158  0.0158  0.0000  0.0000  0.0000  0.0000  0.0000 </r>
        <r>  0.1564  0.0158  0.0158  0.0158  0.0000  0.0000  0.0000  0.0000  0.0000 </r>
       </set>
       <set comment="band 6">
        <r>  0.0000  0.0022  0.0554  0.0787  0.0000  0.0000  0.0000  0.0000  0.0000 </r>
        <r>  0.0000  0.0022  0.0554  0.0787  0.0000  0.0000  0.0000  0.0000  0.0000 </r>
       </set>
       <set comment="band 7">
        <r>  0.0000  0.0887  0.0355  0.0122  0.0000  0.0000  0.0000  0.0000  0.0000 </r>
        <r>  0.0000  0.0887  0.0355  0.0122  0.0000  0.0000  0.0000  0.0000  0.0000 </r>
       </set>
       <set comment="band 8">
        <r>  0.1159  0.0492  0.0481  0.0482  0.0000  0.0000  0.0000  0.0000  0.0000 </r>
        <r>  0.1159  0.0490  0.0483  0.0479  0.0000  0.0000  0.0000  0.0000  0.0000 </r>
       </set>
       <set comment="band 9">
        <r>  0.0000  0.0008  0.0106  0.0055  0.0000  0.0000  0.0000  0.0000  0.0000 </r>
        <r>  0.0000  0.0008  0.0106  0.0055  0.0000  0.0000  0.0000  0.0000  0.0000 </r>
       </set>
      </set>
      <set comment="kpoint 89">
       <set comment="band 1">
        <r>  0.2155  0.0022  0.0022  0.0022  0.0000  0.0000  0.0000  0.0000  0.0000 </r>
        <r>  0.2155  0.0022  0.0022  0.0022  0.0000  0.0000  0.0000  0.0000  0.0000 </r>
       </set>
       <set comment="band 2">
        <r>  0.0906  0.0425  0.0425  0.0425  0.0000  0.0000  0.0000  0.0000  0.0000 </r>
        <r>  0.0906  0.0425  0.0425  0.0425  0.0000  0.0000  0.0000  0.0000  0.0000 </r>
       </set>
       <set comment="band 3">
        <r>  0.0000  0.1397  0.0514  0.0216  0.0000  0.0000  0.0000  0.0000  0.0000 </r>
        <r>  0.0000  0.1397  0.0514  0.0216  0.0000  0.0000  0.0000  0.0000  0.0000 </r>
       </set>
       <set comment="band 4">
        <r>  0.0000  0.0021  0.0905  0.1202  0.0000  0.0000  0.0000  0.0000  0.0000 </r>
        <r>  0.0000  0.0021  0.0905  0.1202  0.0000  0.0000  0.0000  0.0000  0.0000 </r>
       </set>
       <set comment="band 5">
        <r>  0.1483  0.0182  0.0182  0.0182  0.0000  0.0000  0.0000  0.0000  0.0000 </r>
        <r>  0.1483  0.0182  0.0182  0.0182  0.0000  0.0000  0.0000  0.0000  0.0000 </r>
       </set>
       <set comment="band 6">
        <r>  0.0000  0.0024  0.0582  0.0828  0.0000  0.0000  0.0000  0.0000  0.0000 </r>
        <r>  0.0000  0.0024  0.0582  0.0828  0.0000  0.0000  0.0000  0.0000  0.0000 </r>
       </set>
       <set comment="band 7">
        <r>  0.0000  0.0932  0.0374  0.0128  0.0000  0.0000  0.0000  0.0000  0.0000 </r>
        <r>  0.0000  0.0932  0.0374  0.0128  0.0000  0.0000  0.0000  0.0000  0.0000 </r>
       </set>
       <set comment="band 8">
        <r>  0.1386  0.0452  0.0450  0.0453  0.0000  0.0000  0.0000  0.0000  0.0000 </r>
        <r>  0.1388  0.0452  0.0451  0.0451  0.0000  0.0000  0.0000  0.0000  0.0000 </r>
       </set>
       <set comment="band 9">
        <r>  0.0000  0.0005  0.0068  0.0037  0.0000  0.0000  0.0000  0.0000  0.0000 </r>
        <r>  0.0000  0.0005  0.0068  0.0037  0.0000  0.0000  0.0000  0.0000  0.0000 </r>
       </set>
      </set>
      <set comment="kpoint 90">
       <set comment="band 1">
        <r>  0.2159  0.0017  0.0017  0.0017  0.0000  0.0000  0.0000  0.0000  0.0000 </r>
        <r>  0.2159  0.0017  0.0017  0.0017  0.0000  0.0000  0.0000  0.0000  0.0000 </r>
       </set>
       <set comment="band 2">
        <r>  0.0838  0.0452  0.0452  0.0452  0.0000  0.0000  0.0000  0.0000  0.0000 </r>
        <r>  0.0838  0.0452  0.0452  0.0452  0.0000  0.0000  0.0000  0.0000  0.0000 </r>
       </set>
       <set comment="band 3">
        <r>  0.0000  0.1396  0.0515  0.0215  0.0000  0.0000  0.0000  0.0000  0.0000 </r>
        <r>  0.0000  0.1396  0.0515  0.0215  0.0000  0.0000  0.0000  0.0000  0.0000 </r>
       </set>
       <set comment="band 4">
        <r>  0.0000  0.0022  0.0902  0.1202  0.0000  0.0000  0.0000  0.0000  0.0000 </r>
        <r>  0.0000  0.0022  0.0902  0.1202  0.0000  0.0000  0.0000  0.0000  0.0000 </r>
       </set>
       <set comment="band 5">
        <r>  0.1388  0.0210  0.0210  0.0210  0.0000  0.0000  0.0000  0.0000  0.0000 </r>
        <r>  0.1388  0.0210  0.0210  0.0210  0.0000  0.0000  0.0000  0.0000  0.0000 </r>
       </set>
       <set comment="band 6">
        <r>  0.0000  0.0024  0.0602  0.0858  0.0000  0.0000  0.0000  0.0000  0.0000 </r>
        <r>  0.0000  0.0024  0.0602  0.0858  0.0000  0.0000  0.0000  0.0000  0.0000 </r>
       </set>
       <set comment="band 7">
        <r>  0.0000  0.0965  0.0388  0.0131  0.0000  0.0000  0.0000  0.0000  0.0000 </r>
        <r>  0.0000  0.0965  0.0388  0.0131  0.0000  0.0000  0.0000  0.0000  0.0000 </r>
       </set>
       <set comment="band 8">
        <r>  0.1583  0.0414  0.0414  0.0416  0.0000  0.0000  0.0000  0.0000  0.0000 </r>
        <r>  0.1585  0.0415  0.0415  0.0415  0.0000  0.0000  0.0000  0.0000  0.0000 </r>
       </set>
       <set comment="band 9">
        <r>  0.0000  0.0002  0.0040  0.0024  0.0000  0.0000  0.0000  0.0000  0.0000 </r>
        <r>  0.0000  0.0002  0.0040  0.0024  0.0000  0.0000  0.0000  0.0000  0.0000 </r>
       </set>
      </set>
      <set comment="kpoint 91">
       <set comment="band 1">
        <r>  0.2164  0.0013  0.0013  0.0013  0.0000  0.0000  0.0000  0.0000  0.0000 </r>
        <r>  0.2164  0.0013  0.0013  0.0013  0.0000  0.0000  0.0000  0.0000  0.0000 </r>
       </set>
       <set comment="band 2">
        <r>  0.0757  0.0482  0.0482  0.0482  0.0000  0.0000  0.0000  0.0000  0.0000 </r>
        <r>  0.0757  0.0482  0.0482  0.0482  0.0000  0.0000  0.0000  0.0000  0.0000 </r>
       </set>
       <set comment="band 3">
        <r>  0.0000  0.1395  0.0517  0.0214  0.0000  0.0000  0.0000  0.0000  0.0000 </r>
        <r>  0.0000  0.1395  0.0517  0.0214  0.0000  0.0000  0.0000  0.0000  0.0000 </r>
       </set>
       <set comment="band 4">
        <r>  0.0000  0.0022  0.0900  0.1204  0.0000  0.0000  0.0000  0.0000  0.0000 </r>
        <r>  0.0000  0.0022  0.0900  0.1204  0.0000  0.0000  0.0000  0.0000  0.0000 </r>
       </set>
       <set comment="band 5">
        <r>  0.1273  0.0241  0.0241  0.0241  0.0000  0.0000  0.0000  0.0000  0.0000 </r>
        <r>  0.1273  0.0241  0.0241  0.0241  0.0000  0.0000  0.0000  0.0000  0.0000 </r>
       </set>
       <set comment="band 6">
        <r>  0.0000  0.0025  0.0612  0.0876  0.0000  0.0000  0.0000  0.0000  0.0000 </r>
        <r>  0.0000  0.0025  0.0612  0.0876  0.0000  0.0000  0.0000  0.0000  0.0000 </r>
       </set>
       <set comment="band 7">
        <r>  0.0000  0.0984  0.0397  0.0133  0.0000  0.0000  0.0000  0.0000  0.0000 </r>
        <r>  0.0000  0.0984  0.0397  0.0133  0.0000  0.0000  0.0000  0.0000  0.0000 </r>
       </set>
       <set comment="band 8">
        <r>  0.1782  0.0375  0.0375  0.0376  0.0000  0.0000  0.0000  0.0000  0.0000 </r>
        <r>  0.1784  0.0375  0.0375  0.0376  0.0000  0.0000  0.0000  0.0000  0.0000 </r>
       </set>
       <set comment="band 9">
        <r>  0.0000  0.0001  0.0023  0.0015  0.0000  0.0000  0.0000  0.0000  0.0000 </r>
        <r>  0.0000  0.0001  0.0023  0.0015  0.0000  0.0000  0.0000  0.0000  0.0000 </r>
       </set>
      </set>
      <set comment="kpoint 92">
       <set comment="band 1">
        <r>  0.2169  0.0009  0.0009  0.0009  0.0000  0.0000  0.0000  0.0000  0.0000 </r>
        <r>  0.2169  0.0009  0.0009  0.0009  0.0000  0.0000  0.0000  0.0000  0.0000 </r>
       </set>
       <set comment="band 2">
        <r>  0.0658  0.0516  0.0516  0.0516  0.0000  0.0000  0.0000  0.0000  0.0000 </r>
        <r>  0.0658  0.0516  0.0516  0.0516  0.0000  0.0000  0.0000  0.0000  0.0000 </r>
       </set>
       <set comment="band 3">
        <r>  0.0000  0.1396  0.0519  0.0212  0.0000  0.0000  0.0000  0.0000  0.0000 </r>
        <r>  0.0000  0.1396  0.0519  0.0212  0.0000  0.0000  0.0000  0.0000  0.0000 </r>
       </set>
       <set comment="band 4">
        <r>  0.0000  0.0023  0.0899  0.1206  0.0000  0.0000  0.0000  0.0000  0.0000 </r>
        <r>  0.0000  0.0023  0.0899  0.1206  0.0000  0.0000  0.0000  0.0000  0.0000 </r>
       </set>
       <set comment="band 5">
        <r>  0.1127  0.0279  0.0279  0.0279  0.0000  0.0000  0.0000  0.0000  0.0000 </r>
        <r>  0.1127  0.0279  0.0279  0.0279  0.0000  0.0000  0.0000  0.0000  0.0000 </r>
       </set>
       <set comment="band 6">
        <r>  0.0000  0.0025  0.0616  0.0884  0.0000  0.0000  0.0000  0.0000  0.0000 </r>
        <r>  0.0000  0.0025  0.0616  0.0884  0.0000  0.0000  0.0000  0.0000  0.0000 </r>
       </set>
       <set comment="band 7">
        <r>  0.0000  0.0992  0.0401  0.0132  0.0000  0.0000  0.0000  0.0000  0.0000 </r>
        <r>  0.0000  0.0992  0.0401  0.0132  0.0000  0.0000  0.0000  0.0000  0.0000 </r>
       </set>
       <set comment="band 8">
        <r>  0.2008  0.0329  0.0329  0.0329  0.0000  0.0000  0.0000  0.0000  0.0000 </r>
        <r>  0.2009  0.0329  0.0329  0.0329  0.0000  0.0000  0.0000  0.0000  0.0000 </r>
       </set>
       <set comment="band 9">
        <r>  0.0000  0.0000  0.0014  0.0011  0.0000  0.0000  0.0000  0.0000  0.0000 </r>
        <r>  0.0000  0.0000  0.0014  0.0011  0.0000  0.0000  0.0000  0.0000  0.0000 </r>
       </set>
      </set>
      <set comment="kpoint 93">
       <set comment="band 1">
        <r>  0.2174  0.0006  0.0006  0.0006  0.0000  0.0000  0.0000  0.0000  0.0000 </r>
        <r>  0.2174  0.0006  0.0006  0.0006  0.0000  0.0000  0.0000  0.0000  0.0000 </r>
       </set>
       <set comment="band 2">
        <r>  0.0539  0.0555  0.0555  0.0555  0.0000  0.0000  0.0000  0.0000  0.0000 </r>
        <r>  0.0539  0.0555  0.0555  0.0555  0.0000  0.0000  0.0000  0.0000  0.0000 </r>
       </set>
       <set comment="band 3">
        <r>  0.0000  0.1398  0.0523  0.0211  0.0000  0.0000  0.0000  0.0000  0.0000 </r>
        <r>  0.0000  0.1398  0.0523  0.0211  0.0000  0.0000  0.0000  0.0000  0.0000 </r>
       </set>
       <set comment="band 4">
        <r>  0.0000  0.0023  0.0898  0.1211  0.0000  0.0000  0.0000  0.0000  0.0000 </r>
        <r>  0.0000  0.0023  0.0898  0.1211  0.0000  0.0000  0.0000  0.0000  0.0000 </r>
       </set>
       <set comment="band 5">
        <r>  0.0932  0.0324  0.0324  0.0324  0.0000  0.0000  0.0000  0.0000  0.0000 </r>
        <r>  0.0932  0.0324  0.0324  0.0324  0.0000  0.0000  0.0000  0.0000  0.0000 </r>
       </set>
       <set comment="band 6">
        <r>  0.0000  0.0020  0.0632  0.0873  0.0000  0.0000  0.0000  0.0000  0.0000 </r>
        <r>  0.0000  0.0020  0.0632  0.0873  0.0000  0.0000  0.0000  0.0000  0.0000 </r>
       </set>
       <set comment="band 7">
        <r>  0.0000  0.0996  0.0385  0.0144  0.0000  0.0000  0.0000  0.0000  0.0000 </r>
        <r>  0.0000  0.0996  0.0385  0.0144  0.0000  0.0000  0.0000  0.0000  0.0000 </r>
       </set>
       <set comment="band 8">
        <r>  0.2289  0.0271  0.0271  0.0272  0.0000  0.0000  0.0000  0.0000  0.0000 </r>
        <r>  0.2293  0.0271  0.0271  0.0272  0.0000  0.0000  0.0000  0.0000  0.0000 </r>
       </set>
       <set comment="band 9">
        <r>  0.0000  0.0000  0.0009  0.0009  0.0000  0.0000  0.0000  0.0000  0.0000 </r>
        <r>  0.0000  0.0000  0.0009  0.0009  0.0000  0.0000  0.0000  0.0000  0.0000 </r>
       </set>
      </set>
      <set comment="kpoint 94">
       <set comment="band 1">
        <r>  0.2177  0.0003  0.0003  0.0003  0.0000  0.0000  0.0000  0.0000  0.0000 </r>
        <r>  0.2177  0.0003  0.0003  0.0003  0.0000  0.0000  0.0000  0.0000  0.0000 </r>
       </set>
       <set comment="band 2">
        <r>  0.0394  0.0601  0.0601  0.0601  0.0000  0.0000  0.0000  0.0000  0.0000 </r>
        <r>  0.0394  0.0601  0.0601  0.0601  0.0000  0.0000  0.0000  0.0000  0.0000 </r>
       </set>
       <set comment="band 3">
        <r>  0.0000  0.1401  0.0526  0.0210  0.0000  0.0000  0.0000  0.0000  0.0000 </r>
        <r>  0.0000  0.1401  0.0526  0.0210  0.0000  0.0000  0.0000  0.0000  0.0000 </r>
       </set>
       <set comment="band 4">
        <r>  0.0000  0.0024  0.0899  0.1215  0.0000  0.0000  0.0000  0.0000  0.0000 </r>
        <r>  0.0000  0.0024  0.0899  0.1215  0.0000  0.0000  0.0000  0.0000  0.0000 </r>
       </set>
       <set comment="band 5">
        <r>  0.0657  0.0380  0.0380  0.0380  0.0000  0.0000  0.0000  0.0000  0.0000 </r>
        <r>  0.0657  0.0380  0.0380  0.0380  0.0000  0.0000  0.0000  0.0000  0.0000 </r>
       </set>
       <set comment="band 6">
        <r>  0.0000  0.0023  0.0618  0.0877  0.0000  0.0000  0.0000  0.0000  0.0000 </r>
        <r>  0.0000  0.0023  0.0618  0.0877  0.0000  0.0000  0.0000  0.0000  0.0000 </r>
       </set>
       <set comment="band 7">
        <r>  0.0000  0.0989  0.0394  0.0135  0.0000  0.0000  0.0000  0.0000  0.0000 </r>
        <r>  0.0000  0.0989  0.0394  0.0135  0.0000  0.0000  0.0000  0.0000  0.0000 </r>
       </set>
       <set comment="band 8">
        <r>  0.2672  0.0195  0.0195  0.0195  0.0000  0.0000  0.0000  0.0000  0.0000 </r>
        <r>  0.2674  0.0195  0.0195  0.0195  0.0000  0.0000  0.0000  0.0000  0.0000 </r>
       </set>
       <set comment="band 9">
        <r>  0.0000  0.0000  0.0006  0.0007  0.0000  0.0000  0.0000  0.0000  0.0000 </r>
        <r>  0.0000  0.0000  0.0006  0.0007  0.0000  0.0000  0.0000  0.0000  0.0000 </r>
       </set>
      </set>
      <set comment="kpoint 95">
       <set comment="band 1">
        <r>  0.2180  0.0001  0.0001  0.0001  0.0000  0.0000  0.0000  0.0000  0.0000 </r>
        <r>  0.2180  0.0001  0.0001  0.0001  0.0000  0.0000  0.0000  0.0000  0.0000 </r>
       </set>
       <set comment="band 2">
        <r>  0.0227  0.0651  0.0651  0.0651  0.0000  0.0000  0.0000  0.0000  0.0000 </r>
        <r>  0.0227  0.0651  0.0651  0.0651  0.0000  0.0000  0.0000  0.0000  0.0000 </r>
       </set>
       <set comment="band 3">
        <r>  0.0000  0.1405  0.0528  0.0210  0.0000  0.0000  0.0000  0.0000  0.0000 </r>
        <r>  0.0000  0.1405  0.0528  0.0210  0.0000  0.0000  0.0000  0.0000  0.0000 </r>
       </set>
       <set comment="band 4">
        <r>  0.0000  0.0024  0.0901  0.1219  0.0000  0.0000  0.0000  0.0000  0.0000 </r>
        <r>  0.0000  0.0024  0.0901  0.1219  0.0000  0.0000  0.0000  0.0000  0.0000 </r>
       </set>
       <set comment="band 5">
        <r>  0.0303  0.0446  0.0446  0.0446  0.0000  0.0000  0.0000  0.0000  0.0000 </r>
        <r>  0.0303  0.0446  0.0446  0.0446  0.0000  0.0000  0.0000  0.0000  0.0000 </r>
       </set>
       <set comment="band 6">
        <r>  0.0000  0.0025  0.0606  0.0877  0.0000  0.0000  0.0000  0.0000  0.0000 </r>
        <r>  0.0000  0.0025  0.0606  0.0877  0.0000  0.0000  0.0000  0.0000  0.0000 </r>
       </set>
       <set comment="band 7">
        <r>  0.0000  0.0981  0.0399  0.0128  0.0000  0.0000  0.0000  0.0000  0.0000 </r>
        <r>  0.0000  0.0981  0.0399  0.0128  0.0000  0.0000  0.0000  0.0000  0.0000 </r>
       </set>
       <set comment="band 8">
        <r>  0.3159  0.0100  0.0100  0.0100  0.0000  0.0000  0.0000  0.0000  0.0000 </r>
        <r>  0.3159  0.0100  0.0100  0.0100  0.0000  0.0000  0.0000  0.0000  0.0000 </r>
       </set>
       <set comment="band 9">
        <r>  0.0005  0.0003  0.0001  0.0004  0.0000  0.0000  0.0000  0.0000  0.0000 </r>
        <r>  0.0005  0.0002  0.0002  0.0005  0.0000  0.0000  0.0000  0.0000  0.0000 </r>
       </set>
      </set>
      <set comment="kpoint 96">
       <set comment="band 1">
        <r>  0.2181  0.0000  0.0000  0.0000  0.0000  0.0000  0.0000  0.0000  0.0000 </r>
        <r>  0.2181  0.0000  0.0000  0.0000  0.0000  0.0000  0.0000  0.0000  0.0000 </r>
       </set>
       <set comment="band 2">
        <r>  0.0070  0.0697  0.0697  0.0697  0.0000  0.0000  0.0000  0.0000  0.0000 </r>
        <r>  0.0070  0.0697  0.0697  0.0697  0.0000  0.0000  0.0000  0.0000  0.0000 </r>
       </set>
       <set comment="band 3">
        <r>  0.0000  0.1406  0.0537  0.0205  0.0000  0.0000  0.0000  0.0000  0.0000 </r>
        <r>  0.0000  0.1406  0.0537  0.0206  0.0000  0.0000  0.0000  0.0000  0.0000 </r>
       </set>
       <set comment="band 4">
        <r>  0.0000  0.0026  0.0896  0.1227  0.0000  0.0000  0.0000  0.0000  0.0000 </r>
        <r>  0.0000  0.0026  0.0896  0.1227  0.0000  0.0000  0.0000  0.0000  0.0000 </r>
       </set>
       <set comment="band 5">
        <r>  0.0042  0.0495  0.0491  0.0490  0.0000  0.0000  0.0000  0.0000  0.0000 </r>
        <r>  0.0042  0.0495  0.0491  0.0490  0.0000  0.0000  0.0000  0.0000  0.0000 </r>
       </set>
       <set comment="band 6">
        <r>  0.0000  0.0031  0.0583  0.0887  0.0000  0.0000  0.0000  0.0000  0.0000 </r>
        <r>  0.0000  0.0031  0.0583  0.0887  0.0000  0.0000  0.0000  0.0000  0.0000 </r>
       </set>
       <set comment="band 7">
        <r>  0.0000  0.0967  0.0419  0.0116  0.0000  0.0000  0.0000  0.0000  0.0000 </r>
        <r>  0.0000  0.0967  0.0419  0.0116  0.0000  0.0000  0.0000  0.0000  0.0000 </r>
       </set>
       <set comment="band 8">
        <r>  0.3551  0.0022  0.0022  0.0022  0.0000  0.0000  0.0000  0.0000  0.0000 </r>
        <r>  0.3551  0.0022  0.0022  0.0022  0.0000  0.0000  0.0000  0.0000  0.0000 </r>
       </set>
       <set comment="band 9">
        <r>  0.0979  0.0007  0.0007  0.0006  0.0000  0.0000  0.0000  0.0000  0.0000 </r>
        <r>  0.0979  0.0007  0.0007  0.0007  0.0000  0.0000  0.0000  0.0000  0.0000 </r>
       </set>
      </set>
      <set comment="kpoint 97">
       <set comment="band 1">
        <r>  0.2182  0.0000  0.0000  0.0000  0.0000  0.0000  0.0000  0.0000  0.0000 </r>
        <r>  0.2182  0.0000  0.0000  0.0000  0.0000  0.0000  0.0000  0.0000  0.0000 </r>
       </set>
       <set comment="band 2">
        <r>  0.0000  0.0990  0.0752  0.0409  0.0000  0.0000  0.0000  0.0000  0.0000 </r>
        <r>  0.0000  0.0990  0.0752  0.0409  0.0000  0.0000  0.0000  0.0000  0.0000 </r>
       </set>
       <set comment="band 3">
        <r>  0.0000  0.0350  0.0083  0.1718  0.0000  0.0000  0.0000  0.0000  0.0000 </r>
        <r>  0.0000  0.0350  0.0083  0.1718  0.0000  0.0000  0.0000  0.0000  0.0000 </r>
       </set>
       <set comment="band 4">
        <r>  0.0000  0.0810  0.1316  0.0024  0.0000  0.0000  0.0000  0.0000  0.0000 </r>
        <r>  0.0000  0.0810  0.1316  0.0024  0.0000  0.0000  0.0000  0.0000  0.0000 </r>
       </set>
       <set comment="band 5">
        <r>  0.0000  0.0971  0.0506  0.0021  0.0000  0.0000  0.0000  0.0000  0.0000 </r>
        <r>  0.0000  0.0971  0.0506  0.0021  0.0000  0.0000  0.0000  0.0000  0.0000 </r>
       </set>
       <set comment="band 6">
        <r>  0.0000  0.0066  0.0329  0.1103  0.0000  0.0000  0.0000  0.0000  0.0000 </r>
        <r>  0.0000  0.0066  0.0329  0.1103  0.0000  0.0000  0.0000  0.0000  0.0000 </r>
       </set>
       <set comment="band 7">
        <r>  0.0000  0.0461  0.0664  0.0374  0.0000  0.0000  0.0000  0.0000  0.0000 </r>
        <r>  0.0000  0.0461  0.0664  0.0374  0.0000  0.0000  0.0000  0.0000  0.0000 </r>
       </set>
       <set comment="band 8">
        <r>  0.3654  0.0000  0.0000  0.0000  0.0000  0.0000  0.0000  0.0000  0.0000 </r>
        <r>  0.3654  0.0000  0.0000  0.0000  0.0000  0.0000  0.0000  0.0000  0.0000 </r>
       </set>
       <set comment="band 9">
        <r>  0.1014  0.0000  0.0000  0.0000  0.0000  0.0000  0.0000  0.0000  0.0000 </r>
        <r>  0.1014  0.0000  0.0000  0.0000  0.0000  0.0000  0.0000  0.0000  0.0000 </r>
       </set>
      </set>
      <set comment="kpoint 98">
       <set comment="band 1">
        <r>  0.2182  0.0000  0.0000  0.0000  0.0000  0.0000  0.0000  0.0000  0.0000 </r>
        <r>  0.2182  0.0000  0.0000  0.0000  0.0000  0.0000  0.0000  0.0000  0.0000 </r>
       </set>
       <set comment="band 2">
        <r>  0.0000  0.0990  0.0752  0.0409  0.0000  0.0000  0.0000  0.0000  0.0000 </r>
        <r>  0.0000  0.0990  0.0752  0.0409  0.0000  0.0000  0.0000  0.0000  0.0000 </r>
       </set>
       <set comment="band 3">
        <r>  0.0000  0.0350  0.0083  0.1718  0.0000  0.0000  0.0000  0.0000  0.0000 </r>
        <r>  0.0000  0.0350  0.0083  0.1718  0.0000  0.0000  0.0000  0.0000  0.0000 </r>
       </set>
       <set comment="band 4">
        <r>  0.0000  0.0810  0.1316  0.0024  0.0000  0.0000  0.0000  0.0000  0.0000 </r>
        <r>  0.0000  0.0810  0.1316  0.0024  0.0000  0.0000  0.0000  0.0000  0.0000 </r>
       </set>
       <set comment="band 5">
        <r>  0.0000  0.0971  0.0506  0.0021  0.0000  0.0000  0.0000  0.0000  0.0000 </r>
        <r>  0.0000  0.0971  0.0506  0.0021  0.0000  0.0000  0.0000  0.0000  0.0000 </r>
       </set>
       <set comment="band 6">
        <r>  0.0000  0.0066  0.0329  0.1103  0.0000  0.0000  0.0000  0.0000  0.0000 </r>
        <r>  0.0000  0.0066  0.0329  0.1103  0.0000  0.0000  0.0000  0.0000  0.0000 </r>
       </set>
       <set comment="band 7">
        <r>  0.0000  0.0461  0.0664  0.0374  0.0000  0.0000  0.0000  0.0000  0.0000 </r>
        <r>  0.0000  0.0461  0.0664  0.0374  0.0000  0.0000  0.0000  0.0000  0.0000 </r>
       </set>
       <set comment="band 8">
        <r>  0.3654  0.0000  0.0000  0.0000  0.0000  0.0000  0.0000  0.0000  0.0000 </r>
        <r>  0.3654  0.0000  0.0000  0.0000  0.0000  0.0000  0.0000  0.0000  0.0000 </r>
       </set>
       <set comment="band 9">
        <r>  0.1014  0.0000  0.0000  0.0000  0.0000  0.0000  0.0000  0.0000  0.0000 </r>
        <r>  0.1014  0.0000  0.0000  0.0000  0.0000  0.0000  0.0000  0.0000  0.0000 </r>
       </set>
      </set>
      <set comment="kpoint 99">
       <set comment="band 1">
        <r>  0.2181  0.0001  0.0000  0.0001  0.0000  0.0000  0.0000  0.0000  0.0000 </r>
        <r>  0.2181  0.0001  0.0000  0.0001  0.0000  0.0000  0.0000  0.0000  0.0000 </r>
       </set>
       <set comment="band 2">
        <r>  0.0065  0.1037  0.0023  0.1037  0.0000  0.0000  0.0000  0.0000  0.0000 </r>
        <r>  0.0065  0.1037  0.0023  0.1037  0.0000  0.0000  0.0000  0.0000  0.0000 </r>
       </set>
       <set comment="band 3">
        <r>  0.0000  0.0012  0.2118  0.0012  0.0000  0.0000  0.0000  0.0000  0.0000 </r>
        <r>  0.0000  0.0012  0.2117  0.0012  0.0000  0.0000  0.0000  0.0000  0.0000 </r>
       </set>
       <set comment="band 4">
        <r>  0.0000  0.1076  0.0000  0.1076  0.0000  0.0000  0.0000  0.0000  0.0000 </r>
        <r>  0.0000  0.1076  0.0000  0.1076  0.0000  0.0000  0.0000  0.0000  0.0000 </r>
       </set>
       <set comment="band 5">
        <r>  0.0000  0.0749  0.0000  0.0749  0.0000  0.0000  0.0000  0.0000  0.0000 </r>
        <r>  0.0000  0.0749  0.0000  0.0749  0.0000  0.0000  0.0000  0.0000  0.0000 </r>
       </set>
       <set comment="band 6">
        <r>  0.0011  0.0728  0.0034  0.0728  0.0000  0.0000  0.0000  0.0000  0.0000 </r>
        <r>  0.0011  0.0728  0.0034  0.0728  0.0000  0.0000  0.0000  0.0000  0.0000 </r>
       </set>
       <set comment="band 7">
        <r>  0.0020  0.0013  0.1469  0.0013  0.0000  0.0000  0.0000  0.0000  0.0000 </r>
        <r>  0.0020  0.0013  0.1469  0.0013  0.0000  0.0000  0.0000  0.0000  0.0000 </r>
       </set>
       <set comment="band 8">
        <r>  0.3566  0.0027  0.0005  0.0027  0.0000  0.0000  0.0000  0.0000  0.0000 </r>
        <r>  0.3566  0.0027  0.0005  0.0027  0.0000  0.0000  0.0000  0.0000  0.0000 </r>
       </set>
       <set comment="band 9">
        <r>  0.0998  0.0009  0.0000  0.0009  0.0000  0.0000  0.0000  0.0000  0.0000 </r>
        <r>  0.0997  0.0009  0.0000  0.0010  0.0000  0.0000  0.0000  0.0000  0.0000 </r>
       </set>
      </set>
      <set comment="kpoint 100">
       <set comment="band 1">
        <r>  0.2180  0.0002  0.0000  0.0002  0.0000  0.0000  0.0000  0.0000  0.0000 </r>
        <r>  0.2180  0.0002  0.0000  0.0002  0.0000  0.0000  0.0000  0.0000  0.0000 </r>
       </set>
       <set comment="band 2">
        <r>  0.0218  0.0948  0.0076  0.0948  0.0000  0.0000  0.0000  0.0000  0.0000 </r>
        <r>  0.0218  0.0948  0.0076  0.0948  0.0000  0.0000  0.0000  0.0000  0.0000 </r>
       </set>
       <set comment="band 3">
        <r>  0.0001  0.0046  0.2027  0.0046  0.0000  0.0000  0.0000  0.0000  0.0000 </r>
        <r>  0.0001  0.0046  0.2027  0.0046  0.0000  0.0000  0.0000  0.0000  0.0000 </r>
       </set>
       <set comment="band 4">
        <r>  0.0000  0.1078  0.0000  0.1078  0.0000  0.0000  0.0000  0.0000  0.0000 </r>
        <r>  0.0000  0.1078  0.0000  0.1078  0.0000  0.0000  0.0000  0.0000  0.0000 </r>
       </set>
       <set comment="band 5">
        <r>  0.0000  0.0749  0.0000  0.0749  0.0000  0.0000  0.0000  0.0000  0.0000 </r>
        <r>  0.0000  0.0749  0.0000  0.0749  0.0000  0.0000  0.0000  0.0000  0.0000 </r>
       </set>
       <set comment="band 6">
        <r>  0.0040  0.0670  0.0125  0.0670  0.0000  0.0000  0.0000  0.0000  0.0000 </r>
        <r>  0.0040  0.0670  0.0125  0.0670  0.0000  0.0000  0.0000  0.0000  0.0000 </r>
       </set>
       <set comment="band 7">
        <r>  0.0210  0.0025  0.1369  0.0025  0.0000  0.0000  0.0000  0.0000  0.0000 </r>
        <r>  0.0210  0.0025  0.1369  0.0025  0.0000  0.0000  0.0000  0.0000  0.0000 </r>
       </set>
       <set comment="band 8">
        <r>  0.3216  0.0110  0.0050  0.0110  0.0000  0.0000  0.0000  0.0000  0.0000 </r>
        <r>  0.3215  0.0110  0.0050  0.0110  0.0000  0.0000  0.0000  0.0000  0.0000 </r>
       </set>
       <set comment="band 9">
        <r>  0.0001  0.0005  0.0000  0.0004  0.0000  0.0000  0.0000  0.0000  0.0000 </r>
        <r>  0.0001  0.0004  0.0000  0.0006  0.0000  0.0000  0.0000  0.0000  0.0000 </r>
       </set>
      </set>
      <set comment="kpoint 101">
       <set comment="band 1">
        <r>  0.2177  0.0005  0.0000  0.0005  0.0000  0.0000  0.0000  0.0000  0.0000 </r>
        <r>  0.2177  0.0005  0.0000  0.0005  0.0000  0.0000  0.0000  0.0000  0.0000 </r>
       </set>
       <set comment="band 2">
        <r>  0.0392  0.0850  0.0131  0.0850  0.0000  0.0000  0.0000  0.0000  0.0000 </r>
        <r>  0.0392  0.0850  0.0131  0.0850  0.0000  0.0000  0.0000  0.0000  0.0000 </r>
       </set>
       <set comment="band 3">
        <r>  0.0005  0.0091  0.1901  0.0091  0.0000  0.0000  0.0000  0.0000  0.0000 </r>
        <r>  0.0005  0.0091  0.1901  0.0091  0.0000  0.0000  0.0000  0.0000  0.0000 </r>
       </set>
       <set comment="band 4">
        <r>  0.0000  0.1081  0.0000  0.1081  0.0000  0.0000  0.0000  0.0000  0.0000 </r>
        <r>  0.0000  0.1081  0.0000  0.1081  0.0000  0.0000  0.0000  0.0000  0.0000 </r>
       </set>
       <set comment="band 5">
        <r>  0.0000  0.0748  0.0000  0.0748  0.0000  0.0000  0.0000  0.0000  0.0000 </r>
        <r>  0.0000  0.0748  0.0000  0.0748  0.0000  0.0000  0.0000  0.0000  0.0000 </r>
       </set>
       <set comment="band 6">
        <r>  0.0082  0.0589  0.0252  0.0589  0.0000  0.0000  0.0000  0.0000  0.0000 </r>
        <r>  0.0082  0.0589  0.0252  0.0589  0.0000  0.0000  0.0000  0.0000  0.0000 </r>
       </set>
       <set comment="band 7">
        <r>  0.0536  0.0019  0.1237  0.0019  0.0000  0.0000  0.0000  0.0000  0.0000 </r>
        <r>  0.0536  0.0019  0.1237  0.0019  0.0000  0.0000  0.0000  0.0000  0.0000 </r>
       </set>
       <set comment="band 8">
        <r>  0.2700  0.0223  0.0121  0.0223  0.0000  0.0000  0.0000  0.0000  0.0000 </r>
        <r>  0.2700  0.0223  0.0121  0.0223  0.0000  0.0000  0.0000  0.0000  0.0000 </r>
       </set>
       <set comment="band 9">
        <r>  0.0000  0.0006  0.0000  0.0007  0.0000  0.0000  0.0000  0.0000  0.0000 </r>
        <r>  0.0000  0.0007  0.0000  0.0007  0.0000  0.0000  0.0000  0.0000  0.0000 </r>
       </set>
      </set>
      <set comment="kpoint 102">
       <set comment="band 1">
        <r>  0.2174  0.0008  0.0000  0.0008  0.0000  0.0000  0.0000  0.0000  0.0000 </r>
        <r>  0.2174  0.0008  0.0000  0.0008  0.0000  0.0000  0.0000  0.0000  0.0000 </r>
       </set>
       <set comment="band 2">
        <r>  0.0555  0.0760  0.0179  0.0760  0.0000  0.0000  0.0000  0.0000  0.0000 </r>
        <r>  0.0555  0.0760  0.0179  0.0760  0.0000  0.0000  0.0000  0.0000  0.0000 </r>
       </set>
       <set comment="band 3">
        <r>  0.0012  0.0139  0.1760  0.0139  0.0000  0.0000  0.0000  0.0000  0.0000 </r>
        <r>  0.0012  0.0139  0.1760  0.0139  0.0000  0.0000  0.0000  0.0000  0.0000 </r>
       </set>
       <set comment="band 4">
        <r>  0.0000  0.1085  0.0000  0.1085  0.0000  0.0000  0.0000  0.0000  0.0000 </r>
        <r>  0.0000  0.1085  0.0000  0.1085  0.0000  0.0000  0.0000  0.0000  0.0000 </r>
       </set>
       <set comment="band 5">
        <r>  0.0000  0.0748  0.0000  0.0748  0.0000  0.0000  0.0000  0.0000  0.0000 </r>
        <r>  0.0000  0.0748  0.0000  0.0748  0.0000  0.0000  0.0000  0.0000  0.0000 </r>
       </set>
       <set comment="band 6">
        <r>  0.0129  0.0499  0.0391  0.0499  0.0000  0.0000  0.0000  0.0000  0.0000 </r>
        <r>  0.0129  0.0499  0.0391  0.0499  0.0000  0.0000  0.0000  0.0000  0.0000 </r>
       </set>
       <set comment="band 7">
        <r>  0.0799  0.0010  0.1136  0.0010  0.0000  0.0000  0.0000  0.0000  0.0000 </r>
        <r>  0.0799  0.0010  0.1136  0.0010  0.0000  0.0000  0.0000  0.0000  0.0000 </r>
       </set>
       <set comment="band 8">
        <r>  0.2244  0.0334  0.0163  0.0334  0.0000  0.0000  0.0000  0.0000  0.0000 </r>
        <r>  0.2245  0.0334  0.0163  0.0334  0.0000  0.0000  0.0000  0.0000  0.0000 </r>
       </set>
       <set comment="band 9">
        <r>  0.0000  0.0007  0.0000  0.0007  0.0000  0.0000  0.0000  0.0000  0.0000 </r>
        <r>  0.0000  0.0007  0.0000  0.0007  0.0000  0.0000  0.0000  0.0000  0.0000 </r>
       </set>
      </set>
      <set comment="kpoint 103">
       <set comment="band 1">
        <r>  0.2170  0.0012  0.0000  0.0012  0.0000  0.0000  0.0000  0.0000  0.0000 </r>
        <r>  0.2170  0.0012  0.0000  0.0012  0.0000  0.0000  0.0000  0.0000  0.0000 </r>
       </set>
       <set comment="band 2">
        <r>  0.0698  0.0683  0.0217  0.0683  0.0000  0.0000  0.0000  0.0000  0.0000 </r>
        <r>  0.0698  0.0683  0.0217  0.0683  0.0000  0.0000  0.0000  0.0000  0.0000 </r>
       </set>
       <set comment="band 3">
        <r>  0.0023  0.0183  0.1621  0.0183  0.0000  0.0000  0.0000  0.0000  0.0000 </r>
        <r>  0.0023  0.0183  0.1621  0.0183  0.0000  0.0000  0.0000  0.0000  0.0000 </r>
       </set>
       <set comment="band 4">
        <r>  0.0000  0.1090  0.0000  0.1090  0.0000  0.0000  0.0000  0.0000  0.0000 </r>
        <r>  0.0000  0.1090  0.0000  0.1090  0.0000  0.0000  0.0000  0.0000  0.0000 </r>
       </set>
       <set comment="band 5">
        <r>  0.0000  0.0747  0.0000  0.0747  0.0000  0.0000  0.0000  0.0000  0.0000 </r>
        <r>  0.0000  0.0747  0.0000  0.0747  0.0000  0.0000  0.0000  0.0000  0.0000 </r>
       </set>
       <set comment="band 6">
        <r>  0.0174  0.0410  0.0524  0.0410  0.0000  0.0000  0.0000  0.0000  0.0000 </r>
        <r>  0.0175  0.0410  0.0524  0.0410  0.0000  0.0000  0.0000  0.0000  0.0000 </r>
       </set>
       <set comment="band 7">
        <r>  0.0959  0.0005  0.1073  0.0005  0.0000  0.0000  0.0000  0.0000  0.0000 </r>
        <r>  0.0959  0.0005  0.1073  0.0005  0.0000  0.0000  0.0000  0.0000  0.0000 </r>
       </set>
       <set comment="band 8">
        <r>  0.1882  0.0430  0.0166  0.0430  0.0000  0.0000  0.0000  0.0000  0.0000 </r>
        <r>  0.1882  0.0430  0.0166  0.0430  0.0000  0.0000  0.0000  0.0000  0.0000 </r>
       </set>
       <set comment="band 9">
        <r>  0.0000  0.0005  0.0000  0.0005  0.0000  0.0000  0.0000  0.0000  0.0000 </r>
        <r>  0.0000  0.0006  0.0000  0.0005  0.0000  0.0000  0.0000  0.0000  0.0000 </r>
       </set>
      </set>
      <set comment="kpoint 104">
       <set comment="band 1">
        <r>  0.2165  0.0018  0.0000  0.0018  0.0000  0.0000  0.0000  0.0000  0.0000 </r>
        <r>  0.2165  0.0018  0.0000  0.0018  0.0000  0.0000  0.0000  0.0000  0.0000 </r>
       </set>
       <set comment="band 2">
        <r>  0.0824  0.0615  0.0248  0.0615  0.0000  0.0000  0.0000  0.0000  0.0000 </r>
        <r>  0.0824  0.0615  0.0248  0.0615  0.0000  0.0000  0.0000  0.0000  0.0000 </r>
       </set>
       <set comment="band 3">
        <r>  0.0037  0.0220  0.1492  0.0220  0.0000  0.0000  0.0000  0.0000  0.0000 </r>
        <r>  0.0037  0.0220  0.1492  0.0220  0.0000  0.0000  0.0000  0.0000  0.0000 </r>
       </set>
       <set comment="band 4">
        <r>  0.0000  0.1094  0.0000  0.1094  0.0000  0.0000  0.0000  0.0000  0.0000 </r>
        <r>  0.0000  0.1094  0.0000  0.1094  0.0000  0.0000  0.0000  0.0000  0.0000 </r>
       </set>
       <set comment="band 5">
        <r>  0.0000  0.0746  0.0000  0.0746  0.0000  0.0000  0.0000  0.0000  0.0000 </r>
        <r>  0.0000  0.0746  0.0000  0.0746  0.0000  0.0000  0.0000  0.0000  0.0000 </r>
       </set>
       <set comment="band 6">
        <r>  0.1045  0.0002  0.1033  0.0002  0.0000  0.0000  0.0000  0.0000  0.0000 </r>
        <r>  0.1045  0.0002  0.1033  0.0002  0.0000  0.0000  0.0000  0.0000  0.0000 </r>
       </set>
       <set comment="band 7">
        <r>  0.0216  0.0329  0.0643  0.0329  0.0000  0.0000  0.0000  0.0000  0.0000 </r>
        <r>  0.0216  0.0329  0.0643  0.0329  0.0000  0.0000  0.0000  0.0000  0.0000 </r>
       </set>
       <set comment="band 8">
        <r>  0.1563  0.0501  0.0134  0.0501  0.0000  0.0000  0.0000  0.0000  0.0000 </r>
        <r>  0.1564  0.0501  0.0134  0.0501  0.0000  0.0000  0.0000  0.0000  0.0000 </r>
       </set>
       <set comment="band 9">
        <r>  0.0000  0.0003  0.0000  0.0003  0.0000  0.0000  0.0000  0.0000  0.0000 </r>
        <r>  0.0000  0.0003  0.0000  0.0003  0.0000  0.0000  0.0000  0.0000  0.0000 </r>
       </set>
      </set>
      <set comment="kpoint 105">
       <set comment="band 1">
        <r>  0.2160  0.0024  0.0001  0.0024  0.0000  0.0000  0.0000  0.0000  0.0000 </r>
        <r>  0.2160  0.0024  0.0001  0.0024  0.0000  0.0000  0.0000  0.0000  0.0000 </r>
       </set>
       <set comment="band 2">
        <r>  0.0935  0.0557  0.0273  0.0557  0.0000  0.0000  0.0000  0.0000  0.0000 </r>
        <r>  0.0935  0.0557  0.0273  0.0557  0.0000  0.0000  0.0000  0.0000  0.0000 </r>
       </set>
       <set comment="band 3">
        <r>  0.0053  0.0251  0.1378  0.0251  0.0000  0.0000  0.0000  0.0000  0.0000 </r>
        <r>  0.0053  0.0251  0.1378  0.0251  0.0000  0.0000  0.0000  0.0000  0.0000 </r>
       </set>
       <set comment="band 4">
        <r>  0.0000  0.1097  0.0000  0.1097  0.0000  0.0000  0.0000  0.0000  0.0000 </r>
        <r>  0.0000  0.1097  0.0000  0.1097  0.0000  0.0000  0.0000  0.0000  0.0000 </r>
       </set>
       <set comment="band 5">
        <r>  0.1081  0.0001  0.1005  0.0001  0.0000  0.0000  0.0000  0.0000  0.0000 </r>
        <r>  0.1081  0.0001  0.1005  0.0001  0.0000  0.0000  0.0000  0.0000  0.0000 </r>
       </set>
       <set comment="band 6">
        <r>  0.0000  0.0745  0.0000  0.0745  0.0000  0.0000  0.0000  0.0000  0.0000 </r>
        <r>  0.0000  0.0745  0.0000  0.0745  0.0000  0.0000  0.0000  0.0000  0.0000 </r>
       </set>
       <set comment="band 7">
        <r>  0.0252  0.0259  0.0744  0.0259  0.0000  0.0000  0.0000  0.0000  0.0000 </r>
        <r>  0.0252  0.0259  0.0744  0.0259  0.0000  0.0000  0.0000  0.0000  0.0000 </r>
       </set>
       <set comment="band 8">
        <r>  0.1257  0.0530  0.0080  0.0531  0.0000  0.0000  0.0000  0.0000  0.0000 </r>
        <r>  0.1257  0.0531  0.0080  0.0531  0.0000  0.0000  0.0000  0.0000  0.0000 </r>
       </set>
       <set comment="band 9">
        <r>  0.0000  0.0001  0.0000  0.0001  0.0000  0.0000  0.0000  0.0000  0.0000 </r>
        <r>  0.0000  0.0001  0.0000  0.0001  0.0000  0.0000  0.0000  0.0000  0.0000 </r>
       </set>
      </set>
      <set comment="kpoint 106">
       <set comment="band 1">
        <r>  0.2154  0.0030  0.0001  0.0030  0.0000  0.0000  0.0000  0.0000  0.0000 </r>
        <r>  0.2154  0.0030  0.0001  0.0030  0.0000  0.0000  0.0000  0.0000  0.0000 </r>
       </set>
       <set comment="band 2">
        <r>  0.1034  0.0504  0.0295  0.0504  0.0000  0.0000  0.0000  0.0000  0.0000 </r>
        <r>  0.1034  0.0504  0.0295  0.0504  0.0000  0.0000  0.0000  0.0000  0.0000 </r>
       </set>
       <set comment="band 3">
        <r>  0.0070  0.0275  0.1278  0.0275  0.0000  0.0000  0.0000  0.0000  0.0000 </r>
        <r>  0.0070  0.0275  0.1278  0.0275  0.0000  0.0000  0.0000  0.0000  0.0000 </r>
       </set>
       <set comment="band 4">
        <r>  0.0000  0.1098  0.0000  0.1098  0.0000  0.0000  0.0000  0.0000  0.0000 </r>
        <r>  0.0000  0.1098  0.0000  0.1098  0.0000  0.0000  0.0000  0.0000  0.0000 </r>
       </set>
       <set comment="band 5">
        <r>  0.1080  0.0001  0.0980  0.0001  0.0000  0.0000  0.0000  0.0000  0.0000 </r>
        <r>  0.1080  0.0001  0.0980  0.0001  0.0000  0.0000  0.0000  0.0000  0.0000 </r>
       </set>
       <set comment="band 6">
        <r>  0.0000  0.0744  0.0000  0.0744  0.0000  0.0000  0.0000  0.0000  0.0000 </r>
        <r>  0.0000  0.0744  0.0000  0.0744  0.0000  0.0000  0.0000  0.0000  0.0000 </r>
       </set>
       <set comment="band 7">
        <r>  0.0281  0.0200  0.0825  0.0200  0.0000  0.0000  0.0000  0.0000  0.0000 </r>
        <r>  0.0281  0.0200  0.0825  0.0200  0.0000  0.0000  0.0000  0.0000  0.0000 </r>
       </set>
       <set comment="band 8">
        <r>  0.0995  0.0517  0.0028  0.0517  0.0000  0.0000  0.0000  0.0000  0.0000 </r>
        <r>  0.0995  0.0518  0.0028  0.0517  0.0000  0.0000  0.0000  0.0000  0.0000 </r>
       </set>
       <set comment="band 9">
        <r>  0.0000  0.0000  0.0000  0.0000  0.0000  0.0000  0.0000  0.0000  0.0000 </r>
        <r>  0.0000  0.0000  0.0000  0.0000  0.0000  0.0000  0.0000  0.0000  0.0000 </r>
       </set>
      </set>
      <set comment="kpoint 107">
       <set comment="band 1">
        <r>  0.2149  0.0038  0.0002  0.0038  0.0000  0.0000  0.0000  0.0000  0.0000 </r>
        <r>  0.2149  0.0038  0.0002  0.0038  0.0000  0.0000  0.0000  0.0000  0.0000 </r>
       </set>
       <set comment="band 2">
        <r>  0.1124  0.0457  0.0313  0.0457  0.0000  0.0000  0.0000  0.0000  0.0000 </r>
        <r>  0.1124  0.0457  0.0313  0.0457  0.0000  0.0000  0.0000  0.0000  0.0000 </r>
       </set>
       <set comment="band 3">
        <r>  0.0086  0.0293  0.1192  0.0293  0.0000  0.0000  0.0000  0.0000  0.0000 </r>
        <r>  0.0086  0.0293  0.1192  0.0293  0.0000  0.0000  0.0000  0.0000  0.0000 </r>
       </set>
       <set comment="band 4">
        <r>  0.0000  0.1098  0.0000  0.1098  0.0000  0.0000  0.0000  0.0000  0.0000 </r>
        <r>  0.0000  0.1098  0.0000  0.1098  0.0000  0.0000  0.0000  0.0000  0.0000 </r>
       </set>
       <set comment="band 5">
        <r>  0.1051  0.0001  0.0950  0.0001  0.0000  0.0000  0.0000  0.0000  0.0000 </r>
        <r>  0.1051  0.0001  0.0950  0.0001  0.0000  0.0000  0.0000  0.0000  0.0000 </r>
       </set>
       <set comment="band 6">
        <r>  0.0000  0.0743  0.0000  0.0743  0.0000  0.0000  0.0000  0.0000  0.0000 </r>
        <r>  0.0000  0.0743  0.0000  0.0743  0.0000  0.0000  0.0000  0.0000  0.0000 </r>
       </set>
       <set comment="band 7">
        <r>  0.0303  0.0151  0.0890  0.0151  0.0000  0.0000  0.0000  0.0000  0.0000 </r>
        <r>  0.0303  0.0151  0.0890  0.0151  0.0000  0.0000  0.0000  0.0000  0.0000 </r>
       </set>
       <set comment="band 8">
        <r>  0.0826  0.0487  0.0002  0.0487  0.0000  0.0000  0.0000  0.0000  0.0000 </r>
        <r>  0.0825  0.0487  0.0002  0.0487  0.0000  0.0000  0.0000  0.0000  0.0000 </r>
       </set>
       <set comment="band 9">
        <r>  0.0000  0.0000  0.0000  0.0000  0.0000  0.0000  0.0000  0.0000  0.0000 </r>
        <r>  0.0000  0.0000  0.0000  0.0000  0.0000  0.0000  0.0000  0.0000  0.0000 </r>
       </set>
      </set>
      <set comment="kpoint 108">
       <set comment="band 1">
        <r>  0.2143  0.0045  0.0003  0.0045  0.0000  0.0000  0.0000  0.0000  0.0000 </r>
        <r>  0.2143  0.0045  0.0003  0.0045  0.0000  0.0000  0.0000  0.0000  0.0000 </r>
       </set>
       <set comment="band 2">
        <r>  0.1207  0.0413  0.0329  0.0413  0.0000  0.0000  0.0000  0.0000  0.0000 </r>
        <r>  0.1207  0.0413  0.0329  0.0413  0.0000  0.0000  0.0000  0.0000  0.0000 </r>
       </set>
       <set comment="band 3">
        <r>  0.0101  0.0308  0.1118  0.0307  0.0000  0.0000  0.0000  0.0000  0.0000 </r>
        <r>  0.0101  0.0308  0.1118  0.0307  0.0000  0.0000  0.0000  0.0000  0.0000 </r>
       </set>
       <set comment="band 4">
        <r>  0.0000  0.1096  0.0000  0.1096  0.0000  0.0000  0.0000  0.0000  0.0000 </r>
        <r>  0.0000  0.1096  0.0000  0.1096  0.0000  0.0000  0.0000  0.0000  0.0000 </r>
       </set>
       <set comment="band 5">
        <r>  0.0999  0.0002  0.0910  0.0002  0.0000  0.0000  0.0000  0.0000  0.0000 </r>
        <r>  0.0999  0.0002  0.0910  0.0002  0.0000  0.0000  0.0000  0.0000  0.0000 </r>
       </set>
       <set comment="band 6">
        <r>  0.0000  0.0742  0.0000  0.0742  0.0000  0.0000  0.0000  0.0000  0.0000 </r>
        <r>  0.0000  0.0742  0.0000  0.0742  0.0000  0.0000  0.0000  0.0000  0.0000 </r>
       </set>
       <set comment="band 7">
        <r>  0.0319  0.0111  0.0939  0.0111  0.0000  0.0000  0.0000  0.0000  0.0000 </r>
        <r>  0.0319  0.0111  0.0939  0.0111  0.0000  0.0000  0.0000  0.0000  0.0000 </r>
       </set>
       <set comment="band 8">
        <r>  0.0745  0.0461  0.0005  0.0461  0.0000  0.0000  0.0000  0.0000  0.0000 </r>
        <r>  0.0745  0.0461  0.0005  0.0461  0.0000  0.0000  0.0000  0.0000  0.0000 </r>
       </set>
       <set comment="band 9">
        <r>  0.0000  0.0002  0.0000  0.0002  0.0000  0.0000  0.0000  0.0000  0.0000 </r>
        <r>  0.0000  0.0002  0.0000  0.0002  0.0000  0.0000  0.0000  0.0000  0.0000 </r>
       </set>
      </set>
      <set comment="kpoint 109">
       <set comment="band 1">
        <r>  0.2139  0.0053  0.0005  0.0053  0.0000  0.0000  0.0000  0.0000  0.0000 </r>
        <r>  0.2139  0.0053  0.0005  0.0053  0.0000  0.0000  0.0000  0.0000  0.0000 </r>
       </set>
       <set comment="band 2">
        <r>  0.1283  0.0373  0.0343  0.0373  0.0000  0.0000  0.0000  0.0000  0.0000 </r>
        <r>  0.1283  0.0373  0.0343  0.0373  0.0000  0.0000  0.0000  0.0000  0.0000 </r>
       </set>
       <set comment="band 3">
        <r>  0.0113  0.0319  0.1053  0.0319  0.0000  0.0000  0.0000  0.0000  0.0000 </r>
        <r>  0.0113  0.0319  0.1053  0.0319  0.0000  0.0000  0.0000  0.0000  0.0000 </r>
       </set>
       <set comment="band 4">
        <r>  0.0000  0.1091  0.0000  0.1091  0.0000  0.0000  0.0000  0.0000  0.0000 </r>
        <r>  0.0000  0.1091  0.0000  0.1091  0.0000  0.0000  0.0000  0.0000  0.0000 </r>
       </set>
       <set comment="band 5">
        <r>  0.0931  0.0004  0.0858  0.0004  0.0000  0.0000  0.0000  0.0000  0.0000 </r>
        <r>  0.0931  0.0004  0.0858  0.0004  0.0000  0.0000  0.0000  0.0000  0.0000 </r>
       </set>
       <set comment="band 6">
        <r>  0.0000  0.0741  0.0000  0.0741  0.0000  0.0000  0.0000  0.0000  0.0000 </r>
        <r>  0.0000  0.0741  0.0000  0.0741  0.0000  0.0000  0.0000  0.0000  0.0000 </r>
       </set>
       <set comment="band 7">
        <r>  0.0330  0.0079  0.0974  0.0079  0.0000  0.0000  0.0000  0.0000  0.0000 </r>
        <r>  0.0330  0.0079  0.0974  0.0079  0.0000  0.0000  0.0000  0.0000  0.0000 </r>
       </set>
       <set comment="band 8">
        <r>  0.0725  0.0445  0.0033  0.0445  0.0000  0.0000  0.0000  0.0000  0.0000 </r>
        <r>  0.0725  0.0445  0.0033  0.0445  0.0000  0.0000  0.0000  0.0000  0.0000 </r>
       </set>
       <set comment="band 9">
        <r>  0.0000  0.0006  0.0000  0.0006  0.0000  0.0000  0.0000  0.0000  0.0000 </r>
        <r>  0.0000  0.0006  0.0000  0.0006  0.0000  0.0000  0.0000  0.0000  0.0000 </r>
       </set>
      </set>
      <set comment="kpoint 110">
       <set comment="band 1">
        <r>  0.2135  0.0061  0.0007  0.0061  0.0000  0.0000  0.0000  0.0000  0.0000 </r>
        <r>  0.2135  0.0061  0.0007  0.0061  0.0000  0.0000  0.0000  0.0000  0.0000 </r>
       </set>
       <set comment="band 2">
        <r>  0.1354  0.0335  0.0356  0.0335  0.0000  0.0000  0.0000  0.0000  0.0000 </r>
        <r>  0.1354  0.0335  0.0356  0.0335  0.0000  0.0000  0.0000  0.0000  0.0000 </r>
       </set>
       <set comment="band 3">
        <r>  0.0123  0.0329  0.0996  0.0329  0.0000  0.0000  0.0000  0.0000  0.0000 </r>
        <r>  0.0123  0.0329  0.0996  0.0329  0.0000  0.0000  0.0000  0.0000  0.0000 </r>
       </set>
       <set comment="band 4">
        <r>  0.0000  0.1085  0.0000  0.1085  0.0000  0.0000  0.0000  0.0000  0.0000 </r>
        <r>  0.0000  0.1085  0.0000  0.1085  0.0000  0.0000  0.0000  0.0000  0.0000 </r>
       </set>
       <set comment="band 5">
        <r>  0.0857  0.0007  0.0796  0.0007  0.0000  0.0000  0.0000  0.0000  0.0000 </r>
        <r>  0.0857  0.0007  0.0796  0.0007  0.0000  0.0000  0.0000  0.0000  0.0000 </r>
       </set>
       <set comment="band 6">
        <r>  0.0000  0.0740  0.0000  0.0740  0.0000  0.0000  0.0000  0.0000  0.0000 </r>
        <r>  0.0000  0.0740  0.0000  0.0740  0.0000  0.0000  0.0000  0.0000  0.0000 </r>
       </set>
       <set comment="band 7">
        <r>  0.0336  0.0053  0.0997  0.0053  0.0000  0.0000  0.0000  0.0000  0.0000 </r>
        <r>  0.0336  0.0053  0.0997  0.0053  0.0000  0.0000  0.0000  0.0000  0.0000 </r>
       </set>
       <set comment="band 8">
        <r>  0.0734  0.0437  0.0078  0.0437  0.0000  0.0000  0.0000  0.0000  0.0000 </r>
        <r>  0.0735  0.0437  0.0078  0.0437  0.0000  0.0000  0.0000  0.0000  0.0000 </r>
       </set>
       <set comment="band 9">
        <r>  0.0000  0.0012  0.0000  0.0011  0.0000  0.0000  0.0000  0.0000  0.0000 </r>
        <r>  0.0000  0.0011  0.0000  0.0011  0.0000  0.0000  0.0000  0.0000  0.0000 </r>
       </set>
      </set>
      <set comment="kpoint 111">
       <set comment="band 1">
        <r>  0.2133  0.0069  0.0010  0.0069  0.0000  0.0000  0.0000  0.0000  0.0000 </r>
        <r>  0.2133  0.0069  0.0010  0.0069  0.0000  0.0000  0.0000  0.0000  0.0000 </r>
       </set>
       <set comment="band 2">
        <r>  0.1420  0.0300  0.0367  0.0300  0.0000  0.0000  0.0000  0.0000  0.0000 </r>
        <r>  0.1420  0.0300  0.0367  0.0300  0.0000  0.0000  0.0000  0.0000  0.0000 </r>
       </set>
       <set comment="band 3">
        <r>  0.0129  0.0338  0.0945  0.0338  0.0000  0.0000  0.0000  0.0000  0.0000 </r>
        <r>  0.0129  0.0338  0.0945  0.0338  0.0000  0.0000  0.0000  0.0000  0.0000 </r>
       </set>
       <set comment="band 4">
        <r>  0.0000  0.1077  0.0000  0.1077  0.0000  0.0000  0.0000  0.0000  0.0000 </r>
        <r>  0.0000  0.1077  0.0000  0.1077  0.0000  0.0000  0.0000  0.0000  0.0000 </r>
       </set>
       <set comment="band 5">
        <r>  0.0785  0.0010  0.0730  0.0010  0.0000  0.0000  0.0000  0.0000  0.0000 </r>
        <r>  0.0785  0.0010  0.0730  0.0010  0.0000  0.0000  0.0000  0.0000  0.0000 </r>
       </set>
       <set comment="band 6">
        <r>  0.0000  0.0739  0.0000  0.0739  0.0000  0.0000  0.0000  0.0000  0.0000 </r>
        <r>  0.0000  0.0739  0.0000  0.0739  0.0000  0.0000  0.0000  0.0000  0.0000 </r>
       </set>
       <set comment="band 7">
        <r>  0.0336  0.0034  0.1010  0.0034  0.0000  0.0000  0.0000  0.0000  0.0000 </r>
        <r>  0.0336  0.0034  0.1010  0.0034  0.0000  0.0000  0.0000  0.0000  0.0000 </r>
       </set>
       <set comment="band 8">
        <r>  0.0755  0.0436  0.0131  0.0436  0.0000  0.0000  0.0000  0.0000  0.0000 </r>
        <r>  0.0755  0.0436  0.0131  0.0437  0.0000  0.0000  0.0000  0.0000  0.0000 </r>
       </set>
       <set comment="band 9">
        <r>  0.0000  0.0018  0.0000  0.0018  0.0000  0.0000  0.0000  0.0000  0.0000 </r>
        <r>  0.0000  0.0018  0.0000  0.0018  0.0000  0.0000  0.0000  0.0000  0.0000 </r>
       </set>
      </set>
      <set comment="kpoint 112">
       <set comment="band 1">
        <r>  0.2132  0.0076  0.0015  0.0076  0.0000  0.0000  0.0000  0.0000  0.0000 </r>
        <r>  0.2132  0.0076  0.0015  0.0076  0.0000  0.0000  0.0000  0.0000  0.0000 </r>
       </set>
       <set comment="band 2">
        <r>  0.1481  0.0268  0.0378  0.0268  0.0000  0.0000  0.0000  0.0000  0.0000 </r>
        <r>  0.1481  0.0268  0.0378  0.0268  0.0000  0.0000  0.0000  0.0000  0.0000 </r>
       </set>
       <set comment="band 3">
        <r>  0.0130  0.0347  0.0898  0.0347  0.0000  0.0000  0.0000  0.0000  0.0000 </r>
        <r>  0.0130  0.0347  0.0898  0.0347  0.0000  0.0000  0.0000  0.0000  0.0000 </r>
       </set>
       <set comment="band 4">
        <r>  0.0000  0.1068  0.0000  0.1068  0.0000  0.0000  0.0000  0.0000  0.0000 </r>
        <r>  0.0000  0.1068  0.0000  0.1068  0.0000  0.0000  0.0000  0.0000  0.0000 </r>
       </set>
       <set comment="band 5">
        <r>  0.0722  0.0013  0.0666  0.0013  0.0000  0.0000  0.0000  0.0000  0.0000 </r>
        <r>  0.0722  0.0013  0.0666  0.0013  0.0000  0.0000  0.0000  0.0000  0.0000 </r>
       </set>
       <set comment="band 6">
        <r>  0.0000  0.0739  0.0000  0.0738  0.0000  0.0000  0.0000  0.0000  0.0000 </r>
        <r>  0.0000  0.0739  0.0000  0.0739  0.0000  0.0000  0.0000  0.0000  0.0000 </r>
       </set>
       <set comment="band 7">
        <r>  0.0332  0.0019  0.1011  0.0019  0.0000  0.0000  0.0000  0.0000  0.0000 </r>
        <r>  0.0333  0.0019  0.1011  0.0019  0.0000  0.0000  0.0000  0.0000  0.0000 </r>
       </set>
       <set comment="band 8">
        <r>  0.0773  0.0442  0.0185  0.0442  0.0000  0.0000  0.0000  0.0000  0.0000 </r>
        <r>  0.0773  0.0442  0.0184  0.0442  0.0000  0.0000  0.0000  0.0000  0.0000 </r>
       </set>
       <set comment="band 9">
        <r>  0.0000  0.0025  0.0000  0.0025  0.0000  0.0000  0.0000  0.0000  0.0000 </r>
        <r>  0.0000  0.0025  0.0000  0.0025  0.0000  0.0000  0.0000  0.0000  0.0000 </r>
       </set>
      </set>
      <set comment="kpoint 113">
       <set comment="band 1">
        <r>  0.2134  0.0082  0.0021  0.0082  0.0000  0.0000  0.0000  0.0000  0.0000 </r>
        <r>  0.2134  0.0082  0.0021  0.0082  0.0000  0.0000  0.0000  0.0000  0.0000 </r>
       </set>
       <set comment="band 2">
        <r>  0.1538  0.0237  0.0387  0.0237  0.0000  0.0000  0.0000  0.0000  0.0000 </r>
        <r>  0.1538  0.0237  0.0387  0.0237  0.0000  0.0000  0.0000  0.0000  0.0000 </r>
       </set>
       <set comment="band 3">
        <r>  0.0127  0.0357  0.0855  0.0357  0.0000  0.0000  0.0000  0.0000  0.0000 </r>
        <r>  0.0127  0.0357  0.0855  0.0357  0.0000  0.0000  0.0000  0.0000  0.0000 </r>
       </set>
       <set comment="band 4">
        <r>  0.0000  0.1059  0.0000  0.1059  0.0000  0.0000  0.0000  0.0000  0.0000 </r>
        <r>  0.0000  0.1059  0.0000  0.1059  0.0000  0.0000  0.0000  0.0000  0.0000 </r>
       </set>
       <set comment="band 5">
        <r>  0.0671  0.0015  0.0609  0.0015  0.0000  0.0000  0.0000  0.0000  0.0000 </r>
        <r>  0.0671  0.0015  0.0609  0.0015  0.0000  0.0000  0.0000  0.0000  0.0000 </r>
       </set>
       <set comment="band 6">
        <r>  0.0000  0.0739  0.0000  0.0739  0.0000  0.0000  0.0000  0.0000  0.0000 </r>
        <r>  0.0000  0.0739  0.0000  0.0739  0.0000  0.0000  0.0000  0.0000  0.0000 </r>
       </set>
       <set comment="band 7">
        <r>  0.0323  0.0008  0.0999  0.0008  0.0000  0.0000  0.0000  0.0000  0.0000 </r>
        <r>  0.0323  0.0008  0.0999  0.0008  0.0000  0.0000  0.0000  0.0000  0.0000 </r>
       </set>
       <set comment="band 8">
        <r>  0.0782  0.0453  0.0233  0.0453  0.0000  0.0000  0.0000  0.0000  0.0000 </r>
        <r>  0.0783  0.0453  0.0233  0.0453  0.0000  0.0000  0.0000  0.0000  0.0000 </r>
       </set>
       <set comment="band 9">
        <r>  0.0000  0.0032  0.0000  0.0032  0.0000  0.0000  0.0000  0.0000  0.0000 </r>
        <r>  0.0000  0.0033  0.0000  0.0032  0.0000  0.0000  0.0000  0.0000  0.0000 </r>
       </set>
      </set>
      <set comment="kpoint 114">
       <set comment="band 1">
        <r>  0.2138  0.0087  0.0030  0.0087  0.0000  0.0000  0.0000  0.0000  0.0000 </r>
        <r>  0.2138  0.0087  0.0030  0.0087  0.0000  0.0000  0.0000  0.0000  0.0000 </r>
       </set>
       <set comment="band 2">
        <r>  0.1591  0.0208  0.0396  0.0208  0.0000  0.0000  0.0000  0.0000  0.0000 </r>
        <r>  0.1591  0.0208  0.0396  0.0208  0.0000  0.0000  0.0000  0.0000  0.0000 </r>
       </set>
       <set comment="band 3">
        <r>  0.0119  0.0369  0.0813  0.0369  0.0000  0.0000  0.0000  0.0000  0.0000 </r>
        <r>  0.0119  0.0369  0.0813  0.0369  0.0000  0.0000  0.0000  0.0000  0.0000 </r>
       </set>
       <set comment="band 4">
        <r>  0.0000  0.1050  0.0000  0.1050  0.0000  0.0000  0.0000  0.0000  0.0000 </r>
        <r>  0.0000  0.1050  0.0000  0.1050  0.0000  0.0000  0.0000  0.0000  0.0000 </r>
       </set>
       <set comment="band 5">
        <r>  0.0631  0.0016  0.0559  0.0016  0.0000  0.0000  0.0000  0.0000  0.0000 </r>
        <r>  0.0631  0.0016  0.0559  0.0016  0.0000  0.0000  0.0000  0.0000  0.0000 </r>
       </set>
       <set comment="band 6">
        <r>  0.0000  0.0739  0.0000  0.0739  0.0000  0.0000  0.0000  0.0000  0.0000 </r>
        <r>  0.0000  0.0739  0.0000  0.0739  0.0000  0.0000  0.0000  0.0000  0.0000 </r>
       </set>
       <set comment="band 7">
        <r>  0.0307  0.0001  0.0972  0.0001  0.0000  0.0000  0.0000  0.0000  0.0000 </r>
        <r>  0.0307  0.0001  0.0972  0.0001  0.0000  0.0000  0.0000  0.0000  0.0000 </r>
       </set>
       <set comment="band 8">
        <r>  0.0781  0.0469  0.0275  0.0470  0.0000  0.0000  0.0000  0.0000  0.0000 </r>
        <r>  0.0781  0.0469  0.0275  0.0469  0.0000  0.0000  0.0000  0.0000  0.0000 </r>
       </set>
       <set comment="band 9">
        <r>  0.0000  0.0040  0.0000  0.0040  0.0000  0.0000  0.0000  0.0000  0.0000 </r>
        <r>  0.0000  0.0040  0.0000  0.0040  0.0000  0.0000  0.0000  0.0000  0.0000 </r>
       </set>
      </set>
      <set comment="kpoint 115">
       <set comment="band 1">
        <r>  0.2145  0.0090  0.0042  0.0090  0.0000  0.0000  0.0000  0.0000  0.0000 </r>
        <r>  0.2145  0.0090  0.0042  0.0090  0.0000  0.0000  0.0000  0.0000  0.0000 </r>
       </set>
       <set comment="band 2">
        <r>  0.1641  0.0181  0.0404  0.0181  0.0000  0.0000  0.0000  0.0000  0.0000 </r>
        <r>  0.1641  0.0181  0.0404  0.0181  0.0000  0.0000  0.0000  0.0000  0.0000 </r>
       </set>
       <set comment="band 3">
        <r>  0.0106  0.0384  0.0771  0.0384  0.0000  0.0000  0.0000  0.0000  0.0000 </r>
        <r>  0.0106  0.0384  0.0771  0.0384  0.0000  0.0000  0.0000  0.0000  0.0000 </r>
       </set>
       <set comment="band 4">
        <r>  0.0000  0.1040  0.0000  0.1040  0.0000  0.0000  0.0000  0.0000  0.0000 </r>
        <r>  0.0000  0.1040  0.0000  0.1040  0.0000  0.0000  0.0000  0.0000  0.0000 </r>
       </set>
       <set comment="band 5">
        <r>  0.0601  0.0017  0.0517  0.0017  0.0000  0.0000  0.0000  0.0000  0.0000 </r>
        <r>  0.0601  0.0017  0.0517  0.0017  0.0000  0.0000  0.0000  0.0000  0.0000 </r>
       </set>
       <set comment="band 6">
        <r>  0.0000  0.0741  0.0000  0.0740  0.0000  0.0000  0.0000  0.0000  0.0000 </r>
        <r>  0.0000  0.0741  0.0000  0.0740  0.0000  0.0000  0.0000  0.0000  0.0000 </r>
       </set>
       <set comment="band 7">
        <r>  0.0279  0.0000  0.0919  0.0000  0.0000  0.0000  0.0000  0.0000  0.0000 </r>
        <r>  0.0279  0.0000  0.0919  0.0000  0.0000  0.0000  0.0000  0.0000  0.0000 </r>
       </set>
       <set comment="band 8">
        <r>  0.0768  0.0490  0.0309  0.0490  0.0000  0.0000  0.0000  0.0000  0.0000 </r>
        <r>  0.0769  0.0490  0.0309  0.0489  0.0000  0.0000  0.0000  0.0000  0.0000 </r>
       </set>
       <set comment="band 9">
        <r>  0.0000  0.0046  0.0000  0.0047  0.0000  0.0000  0.0000  0.0000  0.0000 </r>
        <r>  0.0000  0.0047  0.0000  0.0046  0.0000  0.0000  0.0000  0.0000  0.0000 </r>
       </set>
      </set>
      <set comment="kpoint 116">
       <set comment="band 1">
        <r>  0.2154  0.0091  0.0058  0.0091  0.0000  0.0000  0.0000  0.0000  0.0000 </r>
        <r>  0.2154  0.0091  0.0058  0.0091  0.0000  0.0000  0.0000  0.0000  0.0000 </r>
       </set>
       <set comment="band 2">
        <r>  0.1687  0.0156  0.0411  0.0156  0.0000  0.0000  0.0000  0.0000  0.0000 </r>
        <r>  0.1687  0.0156  0.0411  0.0156  0.0000  0.0000  0.0000  0.0000  0.0000 </r>
       </set>
       <set comment="band 3">
        <r>  0.0088  0.0402  0.0727  0.0402  0.0000  0.0000  0.0000  0.0000  0.0000 </r>
        <r>  0.0088  0.0402  0.0727  0.0402  0.0000  0.0000  0.0000  0.0000  0.0000 </r>
       </set>
       <set comment="band 4">
        <r>  0.0000  0.1032  0.0000  0.1032  0.0000  0.0000  0.0000  0.0000  0.0000 </r>
        <r>  0.0000  0.1032  0.0000  0.1032  0.0000  0.0000  0.0000  0.0000  0.0000 </r>
       </set>
       <set comment="band 5">
        <r>  0.0578  0.0016  0.0482  0.0016  0.0000  0.0000  0.0000  0.0000  0.0000 </r>
        <r>  0.0578  0.0016  0.0482  0.0016  0.0000  0.0000  0.0000  0.0000  0.0000 </r>
       </set>
       <set comment="band 6">
        <r>  0.0000  0.0744  0.0000  0.0742  0.0000  0.0000  0.0000  0.0000  0.0000 </r>
        <r>  0.0000  0.0744  0.0000  0.0743  0.0000  0.0000  0.0000  0.0000  0.0000 </r>
       </set>
       <set comment="band 7">
        <r>  0.0225  0.0011  0.0807  0.0011  0.0000  0.0000  0.0000  0.0000  0.0000 </r>
        <r>  0.0226  0.0011  0.0806  0.0011  0.0000  0.0000  0.0000  0.0000  0.0000 </r>
       </set>
       <set comment="band 8">
        <r>  0.0747  0.0516  0.0336  0.0515  0.0000  0.0000  0.0000  0.0000  0.0000 </r>
        <r>  0.0748  0.0515  0.0335  0.0514  0.0000  0.0000  0.0000  0.0000  0.0000 </r>
       </set>
       <set comment="band 9">
        <r>  0.0000  0.0051  0.0000  0.0053  0.0000  0.0000  0.0000  0.0000  0.0000 </r>
        <r>  0.0000  0.0053  0.0000  0.0051  0.0000  0.0000  0.0000  0.0000  0.0000 </r>
       </set>
      </set>
      <set comment="kpoint 117">
       <set comment="band 1">
        <r>  0.2164  0.0088  0.0080  0.0088  0.0000  0.0000  0.0000  0.0000  0.0000 </r>
        <r>  0.2164  0.0088  0.0080  0.0088  0.0000  0.0000  0.0000  0.0000  0.0000 </r>
       </set>
       <set comment="band 2">
        <r>  0.1729  0.0133  0.0418  0.0133  0.0000  0.0000  0.0000  0.0000  0.0000 </r>
        <r>  0.1729  0.0133  0.0418  0.0133  0.0000  0.0000  0.0000  0.0000  0.0000 </r>
       </set>
       <set comment="band 3">
        <r>  0.0067  0.0425  0.0679  0.0425  0.0000  0.0000  0.0000  0.0000  0.0000 </r>
        <r>  0.0067  0.0425  0.0679  0.0425  0.0000  0.0000  0.0000  0.0000  0.0000 </r>
       </set>
       <set comment="band 4">
        <r>  0.0000  0.1024  0.0000  0.1024  0.0000  0.0000  0.0000  0.0000  0.0000 </r>
        <r>  0.0000  0.1024  0.0000  0.1024  0.0000  0.0000  0.0000  0.0000  0.0000 </r>
       </set>
       <set comment="band 5">
        <r>  0.0561  0.0015  0.0454  0.0015  0.0000  0.0000  0.0000  0.0000  0.0000 </r>
        <r>  0.0561  0.0015  0.0454  0.0015  0.0000  0.0000  0.0000  0.0000  0.0000 </r>
       </set>
       <set comment="band 6">
        <r>  0.0000  0.0747  0.0000  0.0747  0.0000  0.0000  0.0000  0.0000  0.0000 </r>
        <r>  0.0000  0.0747  0.0000  0.0747  0.0000  0.0000  0.0000  0.0000  0.0000 </r>
       </set>
       <set comment="band 7">
        <r>  0.0104  0.0076  0.0504  0.0077  0.0000  0.0000  0.0000  0.0000  0.0000 </r>
        <r>  0.0104  0.0077  0.0504  0.0076  0.0000  0.0000  0.0000  0.0000  0.0000 </r>
       </set>
       <set comment="band 8">
        <r>  0.0716  0.0564  0.0354  0.0523  0.0000  0.0000  0.0000  0.0000  0.0000 </r>
        <r>  0.0715  0.0562  0.0354  0.0523  0.0000  0.0000  0.0000  0.0000  0.0000 </r>
       </set>
       <set comment="band 9">
        <r>  0.0395  0.0364  0.0767  0.0366  0.0000  0.0000  0.0000  0.0000  0.0000 </r>
        <r>  0.0395  0.0366  0.0768  0.0364  0.0000  0.0000  0.0000  0.0000  0.0000 </r>
       </set>
      </set>
      <set comment="kpoint 118">
       <set comment="band 1">
        <r>  0.2173  0.0082  0.0109  0.0082  0.0000  0.0000  0.0000  0.0000  0.0000 </r>
        <r>  0.2173  0.0082  0.0109  0.0082  0.0000  0.0000  0.0000  0.0000  0.0000 </r>
       </set>
       <set comment="band 2">
        <r>  0.1768  0.0111  0.0424  0.0111  0.0000  0.0000  0.0000  0.0000  0.0000 </r>
        <r>  0.1768  0.0111  0.0424  0.0111  0.0000  0.0000  0.0000  0.0000  0.0000 </r>
       </set>
       <set comment="band 3">
        <r>  0.0044  0.0454  0.0626  0.0454  0.0000  0.0000  0.0000  0.0000  0.0000 </r>
        <r>  0.0044  0.0454  0.0626  0.0454  0.0000  0.0000  0.0000  0.0000  0.0000 </r>
       </set>
       <set comment="band 4">
        <r>  0.0000  0.1016  0.0000  0.1016  0.0000  0.0000  0.0000  0.0000  0.0000 </r>
        <r>  0.0000  0.1016  0.0000  0.1016  0.0000  0.0000  0.0000  0.0000  0.0000 </r>
       </set>
       <set comment="band 5">
        <r>  0.0549  0.0014  0.0430  0.0014  0.0000  0.0000  0.0000  0.0000  0.0000 </r>
        <r>  0.0549  0.0014  0.0430  0.0014  0.0000  0.0000  0.0000  0.0000  0.0000 </r>
       </set>
       <set comment="band 6">
        <r>  0.0006  0.0297  0.0027  0.0297  0.0000  0.0000  0.0000  0.0000  0.0000 </r>
        <r>  0.0006  0.0297  0.0027  0.0297  0.0000  0.0000  0.0000  0.0000  0.0000 </r>
       </set>
       <set comment="band 7">
        <r>  0.0000  0.0752  0.0000  0.0752  0.0000  0.0000  0.0000  0.0000  0.0000 </r>
        <r>  0.0000  0.0752  0.0000  0.0752  0.0000  0.0000  0.0000  0.0000  0.0000 </r>
       </set>
       <set comment="band 8">
        <r>  0.0520  0.0121  0.1220  0.0122  0.0000  0.0000  0.0000  0.0000  0.0000 </r>
        <r>  0.0520  0.0121  0.1219  0.0121  0.0000  0.0000  0.0000  0.0000  0.0000 </r>
       </set>
       <set comment="band 9">
        <r>  0.0679  0.0601  0.0363  0.0551  0.0000  0.0000  0.0000  0.0000  0.0000 </r>
        <r>  0.0675  0.0599  0.0365  0.0556  0.0000  0.0000  0.0000  0.0000  0.0000 </r>
       </set>
      </set>
      <set comment="kpoint 119">
       <set comment="band 1">
        <r>  0.2178  0.0073  0.0144  0.0073  0.0000  0.0000  0.0000  0.0000  0.0000 </r>
        <r>  0.2178  0.0073  0.0144  0.0073  0.0000  0.0000  0.0000  0.0000  0.0000 </r>
       </set>
       <set comment="band 2">
        <r>  0.1803  0.0092  0.0429  0.0092  0.0000  0.0000  0.0000  0.0000  0.0000 </r>
        <r>  0.1803  0.0092  0.0429  0.0092  0.0000  0.0000  0.0000  0.0000  0.0000 </r>
       </set>
       <set comment="band 3">
        <r>  0.0023  0.0488  0.0566  0.0488  0.0000  0.0000  0.0000  0.0000  0.0000 </r>
        <r>  0.0023  0.0488  0.0566  0.0488  0.0000  0.0000  0.0000  0.0000  0.0000 </r>
       </set>
       <set comment="band 4">
        <r>  0.0000  0.1010  0.0000  0.1010  0.0000  0.0000  0.0000  0.0000  0.0000 </r>
        <r>  0.0000  0.1010  0.0000  0.1010  0.0000  0.0000  0.0000  0.0000  0.0000 </r>
       </set>
       <set comment="band 5">
        <r>  0.0540  0.0012  0.0411  0.0012  0.0000  0.0000  0.0000  0.0000  0.0000 </r>
        <r>  0.0540  0.0012  0.0411  0.0012  0.0000  0.0000  0.0000  0.0000  0.0000 </r>
       </set>
       <set comment="band 6">
        <r>  0.0106  0.0375  0.0030  0.0375  0.0000  0.0000  0.0000  0.0000  0.0000 </r>
        <r>  0.0106  0.0375  0.0030  0.0375  0.0000  0.0000  0.0000  0.0000  0.0000 </r>
       </set>
       <set comment="band 7">
        <r>  0.0000  0.0759  0.0000  0.0759  0.0000  0.0000  0.0000  0.0000  0.0000 </r>
        <r>  0.0000  0.0759  0.0000  0.0759  0.0000  0.0000  0.0000  0.0000  0.0000 </r>
       </set>
       <set comment="band 8">
        <r>  0.0444  0.0021  0.1192  0.0021  0.0000  0.0000  0.0000  0.0000  0.0000 </r>
        <r>  0.0445  0.0021  0.1191  0.0020  0.0000  0.0000  0.0000  0.0000  0.0000 </r>
       </set>
       <set comment="band 9">
        <r>  0.0629  0.0655  0.0363  0.0565  0.0000  0.0000  0.0000  0.0000  0.0000 </r>
        <r>  0.0626  0.0652  0.0366  0.0571  0.0000  0.0000  0.0000  0.0000  0.0000 </r>
       </set>
      </set>
      <set comment="kpoint 120">
       <set comment="band 1">
        <r>  0.2176  0.0062  0.0186  0.0062  0.0000  0.0000  0.0000  0.0000  0.0000 </r>
        <r>  0.2176  0.0062  0.0186  0.0062  0.0000  0.0000  0.0000  0.0000  0.0000 </r>
       </set>
       <set comment="band 2">
        <r>  0.1835  0.0074  0.0434  0.0074  0.0000  0.0000  0.0000  0.0000  0.0000 </r>
        <r>  0.1835  0.0074  0.0434  0.0074  0.0000  0.0000  0.0000  0.0000  0.0000 </r>
       </set>
       <set comment="band 3">
        <r>  0.0008  0.0528  0.0501  0.0528  0.0000  0.0000  0.0000  0.0000  0.0000 </r>
        <r>  0.0008  0.0528  0.0501  0.0528  0.0000  0.0000  0.0000  0.0000  0.0000 </r>
       </set>
       <set comment="band 4">
        <r>  0.0000  0.1004  0.0000  0.1004  0.0000  0.0000  0.0000  0.0000  0.0000 </r>
        <r>  0.0000  0.1004  0.0000  0.1004  0.0000  0.0000  0.0000  0.0000  0.0000 </r>
       </set>
       <set comment="band 5">
        <r>  0.0534  0.0010  0.0395  0.0010  0.0000  0.0000  0.0000  0.0000  0.0000 </r>
        <r>  0.0534  0.0010  0.0395  0.0010  0.0000  0.0000  0.0000  0.0000  0.0000 </r>
       </set>
       <set comment="band 6">
        <r>  0.0182  0.0369  0.0086  0.0369  0.0000  0.0000  0.0000  0.0000  0.0000 </r>
        <r>  0.0182  0.0369  0.0086  0.0369  0.0000  0.0000  0.0000  0.0000  0.0000 </r>
       </set>
       <set comment="band 7">
        <r>  0.0000  0.0770  0.0000  0.0770  0.0000  0.0000  0.0000  0.0000  0.0000 </r>
        <r>  0.0000  0.0770  0.0000  0.0770  0.0000  0.0000  0.0000  0.0000  0.0000 </r>
       </set>
       <set comment="band 8">
        <r>  0.0389  0.0003  0.1108  0.0003  0.0000  0.0000  0.0000  0.0000  0.0000 </r>
        <r>  0.0390  0.0003  0.1106  0.0003  0.0000  0.0000  0.0000  0.0000  0.0000 </r>
       </set>
       <set comment="band 9">
        <r>  0.0570  0.0712  0.0354  0.0578  0.0000  0.0000  0.0000  0.0000  0.0000 </r>
        <r>  0.0567  0.0707  0.0358  0.0583  0.0000  0.0000  0.0000  0.0000  0.0000 </r>
       </set>
      </set>
      <set comment="kpoint 121">
       <set comment="band 1">
        <r>  0.2163  0.0049  0.0233  0.0049  0.0000  0.0000  0.0000  0.0000  0.0000 </r>
        <r>  0.2163  0.0049  0.0233  0.0049  0.0000  0.0000  0.0000  0.0000  0.0000 </r>
       </set>
       <set comment="band 2">
        <r>  0.1864  0.0058  0.0438  0.0058  0.0000  0.0000  0.0000  0.0000  0.0000 </r>
        <r>  0.1864  0.0058  0.0438  0.0058  0.0000  0.0000  0.0000  0.0000  0.0000 </r>
       </set>
       <set comment="band 3">
        <r>  0.0000  0.0573  0.0430  0.0573  0.0000  0.0000  0.0000  0.0000  0.0000 </r>
        <r>  0.0000  0.0573  0.0430  0.0573  0.0000  0.0000  0.0000  0.0000  0.0000 </r>
       </set>
       <set comment="band 4">
        <r>  0.0000  0.0999  0.0000  0.0999  0.0000  0.0000  0.0000  0.0000  0.0000 </r>
        <r>  0.0000  0.0999  0.0000  0.0999  0.0000  0.0000  0.0000  0.0000  0.0000 </r>
       </set>
       <set comment="band 5">
        <r>  0.0529  0.0008  0.0382  0.0008  0.0000  0.0000  0.0000  0.0000  0.0000 </r>
        <r>  0.0529  0.0008  0.0382  0.0008  0.0000  0.0000  0.0000  0.0000  0.0000 </r>
       </set>
       <set comment="band 6">
        <r>  0.0239  0.0345  0.0126  0.0345  0.0000  0.0000  0.0000  0.0000  0.0000 </r>
        <r>  0.0239  0.0345  0.0126  0.0345  0.0000  0.0000  0.0000  0.0000  0.0000 </r>
       </set>
       <set comment="band 7">
        <r>  0.0000  0.0784  0.0000  0.0784  0.0000  0.0000  0.0000  0.0000  0.0000 </r>
        <r>  0.0000  0.0784  0.0000  0.0783  0.0000  0.0000  0.0000  0.0000  0.0000 </r>
       </set>
       <set comment="band 8">
        <r>  0.0350  0.0000  0.1038  0.0000  0.0000  0.0000  0.0000  0.0000  0.0000 </r>
        <r>  0.0353  0.0000  0.1033  0.0000  0.0000  0.0000  0.0000  0.0000  0.0000 </r>
       </set>
       <set comment="band 9">
        <r>  0.0503  0.0770  0.0338  0.0586  0.0000  0.0000  0.0000  0.0000  0.0000 </r>
        <r>  0.0499  0.0763  0.0341  0.0589  0.0000  0.0000  0.0000  0.0000  0.0000 </r>
       </set>
      </set>
      <set comment="kpoint 122">
       <set comment="band 1">
        <r>  0.2163  0.0049  0.0233  0.0049  0.0000  0.0000  0.0000  0.0000  0.0000 </r>
        <r>  0.2163  0.0049  0.0233  0.0049  0.0000  0.0000  0.0000  0.0000  0.0000 </r>
       </set>
       <set comment="band 2">
        <r>  0.1864  0.0058  0.0438  0.0058  0.0000  0.0000  0.0000  0.0000  0.0000 </r>
        <r>  0.1864  0.0058  0.0438  0.0058  0.0000  0.0000  0.0000  0.0000  0.0000 </r>
       </set>
       <set comment="band 3">
        <r>  0.0000  0.0573  0.0430  0.0573  0.0000  0.0000  0.0000  0.0000  0.0000 </r>
        <r>  0.0000  0.0573  0.0430  0.0573  0.0000  0.0000  0.0000  0.0000  0.0000 </r>
       </set>
       <set comment="band 4">
        <r>  0.0000  0.0999  0.0000  0.0999  0.0000  0.0000  0.0000  0.0000  0.0000 </r>
        <r>  0.0000  0.0999  0.0000  0.0999  0.0000  0.0000  0.0000  0.0000  0.0000 </r>
       </set>
       <set comment="band 5">
        <r>  0.0529  0.0008  0.0382  0.0008  0.0000  0.0000  0.0000  0.0000  0.0000 </r>
        <r>  0.0529  0.0008  0.0382  0.0008  0.0000  0.0000  0.0000  0.0000  0.0000 </r>
       </set>
       <set comment="band 6">
        <r>  0.0239  0.0345  0.0126  0.0345  0.0000  0.0000  0.0000  0.0000  0.0000 </r>
        <r>  0.0239  0.0345  0.0126  0.0345  0.0000  0.0000  0.0000  0.0000  0.0000 </r>
       </set>
       <set comment="band 7">
        <r>  0.0000  0.0784  0.0000  0.0784  0.0000  0.0000  0.0000  0.0000  0.0000 </r>
        <r>  0.0000  0.0784  0.0000  0.0783  0.0000  0.0000  0.0000  0.0000  0.0000 </r>
       </set>
       <set comment="band 8">
        <r>  0.0350  0.0000  0.1038  0.0000  0.0000  0.0000  0.0000  0.0000  0.0000 </r>
        <r>  0.0353  0.0000  0.1033  0.0000  0.0000  0.0000  0.0000  0.0000  0.0000 </r>
       </set>
       <set comment="band 9">
        <r>  0.0503  0.0770  0.0338  0.0586  0.0000  0.0000  0.0000  0.0000  0.0000 </r>
        <r>  0.0499  0.0763  0.0341  0.0589  0.0000  0.0000  0.0000  0.0000  0.0000 </r>
       </set>
      </set>
      <set comment="kpoint 123">
       <set comment="band 1">
        <r>  0.2169  0.0068  0.0211  0.0043  0.0000  0.0000  0.0000  0.0000  0.0000 </r>
        <r>  0.2169  0.0068  0.0211  0.0043  0.0000  0.0000  0.0000  0.0000  0.0000 </r>
       </set>
       <set comment="band 2">
        <r>  0.1856  0.0077  0.0433  0.0054  0.0000  0.0000  0.0000  0.0000  0.0000 </r>
        <r>  0.1856  0.0077  0.0433  0.0054  0.0000  0.0000  0.0000  0.0000  0.0000 </r>
       </set>
       <set comment="band 3">
        <r>  0.0003  0.0537  0.0462  0.0567  0.0000  0.0000  0.0000  0.0000  0.0000 </r>
        <r>  0.0003  0.0537  0.0462  0.0567  0.0000  0.0000  0.0000  0.0000  0.0000 </r>
       </set>
       <set comment="band 4">
        <r>  0.0004  0.0977  0.0013  0.0990  0.0000  0.0000  0.0000  0.0000  0.0000 </r>
        <r>  0.0004  0.0977  0.0013  0.0990  0.0000  0.0000  0.0000  0.0000  0.0000 </r>
       </set>
       <set comment="band 5">
        <r>  0.0521  0.0001  0.0377  0.0051  0.0000  0.0000  0.0000  0.0000  0.0000 </r>
        <r>  0.0521  0.0001  0.0377  0.0051  0.0000  0.0000  0.0000  0.0000  0.0000 </r>
       </set>
       <set comment="band 6">
        <r>  0.0212  0.0319  0.0108  0.0397  0.0000  0.0000  0.0000  0.0000  0.0000 </r>
        <r>  0.0212  0.0319  0.0108  0.0397  0.0000  0.0000  0.0000  0.0000  0.0000 </r>
       </set>
       <set comment="band 7">
        <r>  0.0122  0.0604  0.0250  0.0551  0.0000  0.0000  0.0000  0.0000  0.0000 </r>
        <r>  0.0122  0.0604  0.0250  0.0551  0.0000  0.0000  0.0000  0.0000  0.0000 </r>
       </set>
       <set comment="band 8">
        <r>  0.0362  0.0264  0.0253  0.0621  0.0000  0.0000  0.0000  0.0000  0.0000 </r>
        <r>  0.0364  0.0268  0.0256  0.0624  0.0000  0.0000  0.0000  0.0000  0.0000 </r>
       </set>
       <set comment="band 9">
        <r>  0.0248  0.0186  0.0818  0.0209  0.0000  0.0000  0.0000  0.0000  0.0000 </r>
        <r>  0.0248  0.0185  0.0818  0.0210  0.0000  0.0000  0.0000  0.0000  0.0000 </r>
       </set>
      </set>
      <set comment="kpoint 124">
       <set comment="band 1">
        <r>  0.2170  0.0090  0.0190  0.0037  0.0000  0.0000  0.0000  0.0000  0.0000 </r>
        <r>  0.2170  0.0090  0.0190  0.0037  0.0000  0.0000  0.0000  0.0000  0.0000 </r>
       </set>
       <set comment="band 2">
        <r>  0.1856  0.0099  0.0421  0.0049  0.0000  0.0000  0.0000  0.0000  0.0000 </r>
        <r>  0.1856  0.0099  0.0421  0.0049  0.0000  0.0000  0.0000  0.0000  0.0000 </r>
       </set>
       <set comment="band 3">
        <r>  0.0007  0.0501  0.0495  0.0565  0.0000  0.0000  0.0000  0.0000  0.0000 </r>
        <r>  0.0007  0.0501  0.0495  0.0565  0.0000  0.0000  0.0000  0.0000  0.0000 </r>
       </set>
       <set comment="band 4">
        <r>  0.0014  0.0925  0.0048  0.0958  0.0000  0.0000  0.0000  0.0000  0.0000 </r>
        <r>  0.0014  0.0925  0.0048  0.0958  0.0000  0.0000  0.0000  0.0000  0.0000 </r>
       </set>
       <set comment="band 5">
        <r>  0.0494  0.0019  0.0358  0.0121  0.0000  0.0000  0.0000  0.0000  0.0000 </r>
        <r>  0.0494  0.0019  0.0358  0.0121  0.0000  0.0000  0.0000  0.0000  0.0000 </r>
       </set>
       <set comment="band 6">
        <r>  0.0171  0.0269  0.0080  0.0475  0.0000  0.0000  0.0000  0.0000  0.0000 </r>
        <r>  0.0171  0.0269  0.0080  0.0475  0.0000  0.0000  0.0000  0.0000  0.0000 </r>
       </set>
       <set comment="band 7">
        <r>  0.0223  0.0555  0.0379  0.0388  0.0000  0.0000  0.0000  0.0000  0.0000 </r>
        <r>  0.0223  0.0555  0.0379  0.0388  0.0000  0.0000  0.0000  0.0000  0.0000 </r>
       </set>
       <set comment="band 8">
        <r>  0.0359  0.0214  0.0257  0.0530  0.0000  0.0000  0.0000  0.0000  0.0000 </r>
        <r>  0.0358  0.0214  0.0257  0.0530  0.0000  0.0000  0.0000  0.0000  0.0000 </r>
       </set>
       <set comment="band 9">
        <r>  0.0181  0.0262  0.0731  0.0321  0.0000  0.0000  0.0000  0.0000  0.0000 </r>
        <r>  0.0180  0.0261  0.0732  0.0322  0.0000  0.0000  0.0000  0.0000  0.0000 </r>
       </set>
      </set>
      <set comment="kpoint 125">
       <set comment="band 1">
        <r>  0.2167  0.0114  0.0168  0.0032  0.0000  0.0000  0.0000  0.0000  0.0000 </r>
        <r>  0.2167  0.0114  0.0168  0.0032  0.0000  0.0000  0.0000  0.0000  0.0000 </r>
       </set>
       <set comment="band 2">
        <r>  0.1864  0.0126  0.0403  0.0044  0.0000  0.0000  0.0000  0.0000  0.0000 </r>
        <r>  0.1864  0.0126  0.0403  0.0044  0.0000  0.0000  0.0000  0.0000  0.0000 </r>
       </set>
       <set comment="band 3">
        <r>  0.0012  0.0464  0.0528  0.0566  0.0000  0.0000  0.0000  0.0000  0.0000 </r>
        <r>  0.0012  0.0464  0.0528  0.0566  0.0000  0.0000  0.0000  0.0000  0.0000 </r>
       </set>
       <set comment="band 4">
        <r>  0.0023  0.0853  0.0099  0.0917  0.0000  0.0000  0.0000  0.0000  0.0000 </r>
        <r>  0.0023  0.0853  0.0099  0.0917  0.0000  0.0000  0.0000  0.0000  0.0000 </r>
       </set>
       <set comment="band 5">
        <r>  0.0454  0.0049  0.0328  0.0206  0.0000  0.0000  0.0000  0.0000  0.0000 </r>
        <r>  0.0454  0.0049  0.0328  0.0206  0.0000  0.0000  0.0000  0.0000  0.0000 </r>
       </set>
       <set comment="band 6">
        <r>  0.0093  0.0156  0.0030  0.0623  0.0000  0.0000  0.0000  0.0000  0.0000 </r>
        <r>  0.0093  0.0156  0.0030  0.0623  0.0000  0.0000  0.0000  0.0000  0.0000 </r>
       </set>
       <set comment="band 7">
        <r>  0.0337  0.0622  0.0459  0.0208  0.0000  0.0000  0.0000  0.0000  0.0000 </r>
        <r>  0.0337  0.0622  0.0459  0.0208  0.0000  0.0000  0.0000  0.0000  0.0000 </r>
       </set>
       <set comment="band 8">
        <r>  0.0375  0.0205  0.0265  0.0466  0.0000  0.0000  0.0000  0.0000  0.0000 </r>
        <r>  0.0375  0.0206  0.0265  0.0465  0.0000  0.0000  0.0000  0.0000  0.0000 </r>
       </set>
       <set comment="band 9">
        <r>  0.0139  0.0282  0.0716  0.0375  0.0000  0.0000  0.0000  0.0000  0.0000 </r>
        <r>  0.0138  0.0280  0.0716  0.0376  0.0000  0.0000  0.0000  0.0000  0.0000 </r>
       </set>
      </set>
      <set comment="kpoint 126">
       <set comment="band 1">
        <r>  0.2160  0.0140  0.0148  0.0027  0.0000  0.0000  0.0000  0.0000  0.0000 </r>
        <r>  0.2160  0.0140  0.0148  0.0027  0.0000  0.0000  0.0000  0.0000  0.0000 </r>
       </set>
       <set comment="band 2">
        <r>  0.1880  0.0156  0.0377  0.0039  0.0000  0.0000  0.0000  0.0000  0.0000 </r>
        <r>  0.1880  0.0156  0.0377  0.0039  0.0000  0.0000  0.0000  0.0000  0.0000 </r>
       </set>
       <set comment="band 3">
        <r>  0.0018  0.0426  0.0561  0.0572  0.0000  0.0000  0.0000  0.0000  0.0000 </r>
        <r>  0.0018  0.0426  0.0561  0.0572  0.0000  0.0000  0.0000  0.0000  0.0000 </r>
       </set>
       <set comment="band 4">
        <r>  0.0028  0.0772  0.0160  0.0881  0.0000  0.0000  0.0000  0.0000  0.0000 </r>
        <r>  0.0028  0.0772  0.0160  0.0881  0.0000  0.0000  0.0000  0.0000  0.0000 </r>
       </set>
       <set comment="band 5">
        <r>  0.0404  0.0079  0.0294  0.0297  0.0000  0.0000  0.0000  0.0000  0.0000 </r>
        <r>  0.0404  0.0079  0.0294  0.0297  0.0000  0.0000  0.0000  0.0000  0.0000 </r>
       </set>
       <set comment="band 6">
        <r>  0.0000  0.0000  0.0022  0.0816  0.0000  0.0000  0.0000  0.0000  0.0000 </r>
        <r>  0.0000  0.0000  0.0022  0.0816  0.0000  0.0000  0.0000  0.0000  0.0000 </r>
       </set>
       <set comment="band 7">
        <r>  0.0457  0.0748  0.0476  0.0001  0.0000  0.0000  0.0000  0.0000  0.0000 </r>
        <r>  0.0457  0.0748  0.0476  0.0001  0.0000  0.0000  0.0000  0.0000  0.0000 </r>
       </set>
       <set comment="band 8">
        <r>  0.0402  0.0209  0.0279  0.0402  0.0000  0.0000  0.0000  0.0000  0.0000 </r>
        <r>  0.0402  0.0210  0.0280  0.0402  0.0000  0.0000  0.0000  0.0000  0.0000 </r>
       </set>
       <set comment="band 9">
        <r>  0.0106  0.0282  0.0723  0.0407  0.0000  0.0000  0.0000  0.0000  0.0000 </r>
        <r>  0.0105  0.0281  0.0723  0.0408  0.0000  0.0000  0.0000  0.0000  0.0000 </r>
       </set>
      </set>
      <set comment="kpoint 127">
       <set comment="band 1">
        <r>  0.2150  0.0167  0.0128  0.0022  0.0000  0.0000  0.0000  0.0000  0.0000 </r>
        <r>  0.2150  0.0167  0.0128  0.0022  0.0000  0.0000  0.0000  0.0000  0.0000 </r>
       </set>
       <set comment="band 2">
        <r>  0.1900  0.0192  0.0343  0.0032  0.0000  0.0000  0.0000  0.0000  0.0000 </r>
        <r>  0.1900  0.0192  0.0343  0.0032  0.0000  0.0000  0.0000  0.0000  0.0000 </r>
       </set>
       <set comment="band 3">
        <r>  0.0025  0.0388  0.0594  0.0581  0.0000  0.0000  0.0000  0.0000  0.0000 </r>
        <r>  0.0025  0.0388  0.0594  0.0581  0.0000  0.0000  0.0000  0.0000  0.0000 </r>
       </set>
       <set comment="band 4">
        <r>  0.0026  0.0687  0.0228  0.0852  0.0000  0.0000  0.0000  0.0000  0.0000 </r>
        <r>  0.0026  0.0687  0.0228  0.0852  0.0000  0.0000  0.0000  0.0000  0.0000 </r>
       </set>
       <set comment="band 5">
        <r>  0.0336  0.0096  0.0251  0.0399  0.0000  0.0000  0.0000  0.0000  0.0000 </r>
        <r>  0.0336  0.0096  0.0251  0.0399  0.0000  0.0000  0.0000  0.0000  0.0000 </r>
       </set>
       <set comment="band 6">
        <r>  0.0101  0.0102  0.0160  0.0676  0.0000  0.0000  0.0000  0.0000  0.0000 </r>
        <r>  0.0101  0.0102  0.0160  0.0676  0.0000  0.0000  0.0000  0.0000  0.0000 </r>
       </set>
       <set comment="band 7">
        <r>  0.0449  0.0229  0.0303  0.0327  0.0000  0.0000  0.0000  0.0000  0.0000 </r>
        <r>  0.0449  0.0229  0.0303  0.0327  0.0000  0.0000  0.0000  0.0000  0.0000 </r>
       </set>
       <set comment="band 8">
        <r>  0.0380  0.0623  0.0337  0.0133  0.0000  0.0000  0.0000  0.0000  0.0000 </r>
        <r>  0.0380  0.0624  0.0337  0.0133  0.0000  0.0000  0.0000  0.0000  0.0000 </r>
       </set>
       <set comment="band 9">
        <r>  0.0078  0.0273  0.0739  0.0426  0.0000  0.0000  0.0000  0.0000  0.0000 </r>
        <r>  0.0078  0.0271  0.0739  0.0427  0.0000  0.0000  0.0000  0.0000  0.0000 </r>
       </set>
      </set>
      <set comment="kpoint 128">
       <set comment="band 1">
        <r>  0.2137  0.0195  0.0110  0.0018  0.0000  0.0000  0.0000  0.0000  0.0000 </r>
        <r>  0.2137  0.0195  0.0110  0.0018  0.0000  0.0000  0.0000  0.0000  0.0000 </r>
       </set>
       <set comment="band 2">
        <r>  0.1923  0.0233  0.0303  0.0025  0.0000  0.0000  0.0000  0.0000  0.0000 </r>
        <r>  0.1923  0.0233  0.0303  0.0025  0.0000  0.0000  0.0000  0.0000  0.0000 </r>
       </set>
       <set comment="band 3">
        <r>  0.0032  0.0350  0.0627  0.0595  0.0000  0.0000  0.0000  0.0000  0.0000 </r>
        <r>  0.0032  0.0350  0.0627  0.0595  0.0000  0.0000  0.0000  0.0000  0.0000 </r>
       </set>
       <set comment="band 4">
        <r>  0.0019  0.0601  0.0301  0.0834  0.0000  0.0000  0.0000  0.0000  0.0000 </r>
        <r>  0.0019  0.0601  0.0301  0.0834  0.0000  0.0000  0.0000  0.0000  0.0000 </r>
       </set>
       <set comment="band 5">
        <r>  0.0218  0.0083  0.0175  0.0544  0.0000  0.0000  0.0000  0.0000  0.0000 </r>
        <r>  0.0218  0.0083  0.0175  0.0544  0.0000  0.0000  0.0000  0.0000  0.0000 </r>
       </set>
       <set comment="band 6">
        <r>  0.0186  0.0177  0.0217  0.0552  0.0000  0.0000  0.0000  0.0000  0.0000 </r>
        <r>  0.0186  0.0177  0.0217  0.0552  0.0000  0.0000  0.0000  0.0000  0.0000 </r>
       </set>
       <set comment="band 7">
        <r>  0.0549  0.0278  0.0360  0.0204  0.0000  0.0000  0.0000  0.0000  0.0000 </r>
        <r>  0.0549  0.0279  0.0360  0.0204  0.0000  0.0000  0.0000  0.0000  0.0000 </r>
       </set>
       <set comment="band 8">
        <r>  0.0317  0.0529  0.0277  0.0252  0.0000  0.0000  0.0000  0.0000  0.0000 </r>
        <r>  0.0316  0.0530  0.0277  0.0253  0.0000  0.0000  0.0000  0.0000  0.0000 </r>
       </set>
       <set comment="band 9">
        <r>  0.0056  0.0260  0.0759  0.0433  0.0000  0.0000  0.0000  0.0000  0.0000 </r>
        <r>  0.0055  0.0254  0.0756  0.0438  0.0000  0.0000  0.0000  0.0000  0.0000 </r>
       </set>
      </set>
      <set comment="kpoint 129">
       <set comment="band 1">
        <r>  0.2121  0.0223  0.0092  0.0014  0.0000  0.0000  0.0000  0.0000  0.0000 </r>
        <r>  0.2121  0.0223  0.0092  0.0014  0.0000  0.0000  0.0000  0.0000  0.0000 </r>
       </set>
       <set comment="band 2">
        <r>  0.1945  0.0277  0.0257  0.0018  0.0000  0.0000  0.0000  0.0000  0.0000 </r>
        <r>  0.1945  0.0277  0.0257  0.0018  0.0000  0.0000  0.0000  0.0000  0.0000 </r>
       </set>
       <set comment="band 3">
        <r>  0.0038  0.0312  0.0661  0.0614  0.0000  0.0000  0.0000  0.0000  0.0000 </r>
        <r>  0.0038  0.0312  0.0661  0.0614  0.0000  0.0000  0.0000  0.0000  0.0000 </r>
       </set>
       <set comment="band 4">
        <r>  0.0010  0.0514  0.0380  0.0825  0.0000  0.0000  0.0000  0.0000  0.0000 </r>
        <r>  0.0010  0.0514  0.0380  0.0825  0.0000  0.0000  0.0000  0.0000  0.0000 </r>
       </set>
       <set comment="band 5">
        <r>  0.0242  0.0213  0.0231  0.0474  0.0000  0.0000  0.0000  0.0000  0.0000 </r>
        <r>  0.0242  0.0212  0.0231  0.0474  0.0000  0.0000  0.0000  0.0000  0.0000 </r>
       </set>
       <set comment="band 6">
        <r>  0.0000  0.0000  0.0005  0.0764  0.0000  0.0000  0.0000  0.0000  0.0000 </r>
        <r>  0.0000  0.0000  0.0005  0.0764  0.0000  0.0000  0.0000  0.0000  0.0000 </r>
       </set>
       <set comment="band 7">
        <r>  0.0746  0.0392  0.0512  0.0000  0.0000  0.0000  0.0000  0.0000  0.0000 </r>
        <r>  0.0746  0.0392  0.0512  0.0000  0.0000  0.0000  0.0000  0.0000  0.0000 </r>
       </set>
       <set comment="band 8">
        <r>  0.0280  0.0476  0.0259  0.0330  0.0000  0.0000  0.0000  0.0000  0.0000 </r>
        <r>  0.0280  0.0476  0.0259  0.0330  0.0000  0.0000  0.0000  0.0000  0.0000 </r>
       </set>
       <set comment="band 9">
        <r>  0.0037  0.0243  0.0773  0.0435  0.0000  0.0000  0.0000  0.0000  0.0000 </r>
        <r>  0.0036  0.0240  0.0773  0.0436  0.0000  0.0000  0.0000  0.0000  0.0000 </r>
       </set>
      </set>
      <set comment="kpoint 130">
       <set comment="band 1">
        <r>  0.2104  0.0251  0.0076  0.0011  0.0000  0.0000  0.0000  0.0000  0.0000 </r>
        <r>  0.2104  0.0251  0.0076  0.0011  0.0000  0.0000  0.0000  0.0000  0.0000 </r>
       </set>
       <set comment="band 2">
        <r>  0.1963  0.0322  0.0209  0.0012  0.0000  0.0000  0.0000  0.0000  0.0000 </r>
        <r>  0.1963  0.0322  0.0209  0.0012  0.0000  0.0000  0.0000  0.0000  0.0000 </r>
       </set>
       <set comment="band 3">
        <r>  0.0042  0.0273  0.0695  0.0637  0.0000  0.0000  0.0000  0.0000  0.0000 </r>
        <r>  0.0042  0.0273  0.0695  0.0637  0.0000  0.0000  0.0000  0.0000  0.0000 </r>
       </set>
       <set comment="band 4">
        <r>  0.0003  0.0429  0.0461  0.0825  0.0000  0.0000  0.0000  0.0000  0.0000 </r>
        <r>  0.0003  0.0429  0.0461  0.0825  0.0000  0.0000  0.0000  0.0000  0.0000 </r>
       </set>
       <set comment="band 5">
        <r>  0.0287  0.0233  0.0227  0.0413  0.0000  0.0000  0.0000  0.0000  0.0000 </r>
        <r>  0.0287  0.0233  0.0227  0.0413  0.0000  0.0000  0.0000  0.0000  0.0000 </r>
       </set>
       <set comment="band 6">
        <r>  0.0196  0.0100  0.0087  0.0524  0.0000  0.0000  0.0000  0.0000  0.0000 </r>
        <r>  0.0196  0.0100  0.0087  0.0524  0.0000  0.0000  0.0000  0.0000  0.0000 </r>
       </set>
       <set comment="band 7">
        <r>  0.0533  0.0321  0.0413  0.0253  0.0000  0.0000  0.0000  0.0000  0.0000 </r>
        <r>  0.0533  0.0321  0.0413  0.0253  0.0000  0.0000  0.0000  0.0000  0.0000 </r>
       </set>
       <set comment="band 8">
        <r>  0.0255  0.0438  0.0261  0.0392  0.0000  0.0000  0.0000  0.0000  0.0000 </r>
        <r>  0.0255  0.0439  0.0260  0.0393  0.0000  0.0000  0.0000  0.0000  0.0000 </r>
       </set>
       <set comment="band 9">
        <r>  0.0022  0.0227  0.0791  0.0420  0.0000  0.0000  0.0000  0.0000  0.0000 </r>
        <r>  0.0021  0.0218  0.0783  0.0428  0.0000  0.0000  0.0000  0.0000  0.0000 </r>
       </set>
      </set>
      <set comment="kpoint 131">
       <set comment="band 1">
        <r>  0.2086  0.0278  0.0062  0.0008  0.0000  0.0000  0.0000  0.0000  0.0000 </r>
        <r>  0.2086  0.0278  0.0062  0.0008  0.0000  0.0000  0.0000  0.0000  0.0000 </r>
       </set>
       <set comment="band 2">
        <r>  0.1974  0.0365  0.0161  0.0007  0.0000  0.0000  0.0000  0.0000  0.0000 </r>
        <r>  0.1974  0.0365  0.0161  0.0007  0.0000  0.0000  0.0000  0.0000  0.0000 </r>
       </set>
       <set comment="band 3">
        <r>  0.0045  0.0235  0.0730  0.0665  0.0000  0.0000  0.0000  0.0000  0.0000 </r>
        <r>  0.0045  0.0235  0.0730  0.0665  0.0000  0.0000  0.0000  0.0000  0.0000 </r>
       </set>
       <set comment="band 4">
        <r>  0.0000  0.0347  0.0542  0.0830  0.0000  0.0000  0.0000  0.0000  0.0000 </r>
        <r>  0.0000  0.0347  0.0542  0.0830  0.0000  0.0000  0.0000  0.0000  0.0000 </r>
       </set>
       <set comment="band 5">
        <r>  0.0325  0.0249  0.0213  0.0358  0.0000  0.0000  0.0000  0.0000  0.0000 </r>
        <r>  0.0325  0.0249  0.0213  0.0358  0.0000  0.0000  0.0000  0.0000  0.0000 </r>
       </set>
       <set comment="band 6">
        <r>  0.0300  0.0157  0.0129  0.0391  0.0000  0.0000  0.0000  0.0000  0.0000 </r>
        <r>  0.0300  0.0157  0.0129  0.0391  0.0000  0.0000  0.0000  0.0000  0.0000 </r>
       </set>
       <set comment="band 7">
        <r>  0.0411  0.0289  0.0356  0.0394  0.0000  0.0000  0.0000  0.0000  0.0000 </r>
        <r>  0.0411  0.0289  0.0356  0.0394  0.0000  0.0000  0.0000  0.0000  0.0000 </r>
       </set>
       <set comment="band 8">
        <r>  0.0235  0.0403  0.0278  0.0453  0.0000  0.0000  0.0000  0.0000  0.0000 </r>
        <r>  0.0234  0.0406  0.0276  0.0455  0.0000  0.0000  0.0000  0.0000  0.0000 </r>
       </set>
       <set comment="band 9">
        <r>  0.0011  0.0211  0.0797  0.0398  0.0000  0.0000  0.0000  0.0000  0.0000 </r>
        <r>  0.0010  0.0201  0.0785  0.0407  0.0000  0.0000  0.0000  0.0000  0.0000 </r>
       </set>
      </set>
      <set comment="kpoint 132">
       <set comment="band 1">
        <r>  0.2067  0.0305  0.0049  0.0006  0.0000  0.0000  0.0000  0.0000  0.0000 </r>
        <r>  0.2067  0.0305  0.0049  0.0006  0.0000  0.0000  0.0000  0.0000  0.0000 </r>
       </set>
       <set comment="band 2">
        <r>  0.1978  0.0403  0.0118  0.0003  0.0000  0.0000  0.0000  0.0000  0.0000 </r>
        <r>  0.1978  0.0403  0.0118  0.0003  0.0000  0.0000  0.0000  0.0000  0.0000 </r>
       </set>
       <set comment="band 3">
        <r>  0.0046  0.0197  0.0767  0.0699  0.0000  0.0000  0.0000  0.0000  0.0000 </r>
        <r>  0.0046  0.0197  0.0767  0.0699  0.0000  0.0000  0.0000  0.0000  0.0000 </r>
       </set>
       <set comment="band 4">
        <r>  0.0001  0.0272  0.0620  0.0842  0.0000  0.0000  0.0000  0.0000  0.0000 </r>
        <r>  0.0001  0.0272  0.0620  0.0842  0.0000  0.0000  0.0000  0.0000  0.0000 </r>
       </set>
       <set comment="band 5">
        <r>  0.0361  0.0263  0.0193  0.0306  0.0000  0.0000  0.0000  0.0000  0.0000 </r>
        <r>  0.0361  0.0263  0.0193  0.0306  0.0000  0.0000  0.0000  0.0000  0.0000 </r>
       </set>
       <set comment="band 6">
        <r>  0.0352  0.0189  0.0134  0.0312  0.0000  0.0000  0.0000  0.0000  0.0000 </r>
        <r>  0.0352  0.0189  0.0134  0.0312  0.0000  0.0000  0.0000  0.0000  0.0000 </r>
       </set>
       <set comment="band 7">
        <r>  0.0340  0.0278  0.0336  0.0479  0.0000  0.0000  0.0000  0.0000  0.0000 </r>
        <r>  0.0340  0.0278  0.0336  0.0479  0.0000  0.0000  0.0000  0.0000  0.0000 </r>
       </set>
       <set comment="band 8">
        <r>  0.0213  0.0364  0.0308  0.0524  0.0000  0.0000  0.0000  0.0000  0.0000 </r>
        <r>  0.0212  0.0365  0.0308  0.0524  0.0000  0.0000  0.0000  0.0000  0.0000 </r>
       </set>
       <set comment="band 9">
        <r>  0.0003  0.0198  0.0784  0.0365  0.0000  0.0000  0.0000  0.0000  0.0000 </r>
        <r>  0.0003  0.0191  0.0777  0.0370  0.0000  0.0000  0.0000  0.0000  0.0000 </r>
       </set>
      </set>
      <set comment="kpoint 133">
       <set comment="band 1">
        <r>  0.2049  0.0331  0.0037  0.0004  0.0000  0.0000  0.0000  0.0000  0.0000 </r>
        <r>  0.2049  0.0331  0.0037  0.0004  0.0000  0.0000  0.0000  0.0000  0.0000 </r>
       </set>
       <set comment="band 2">
        <r>  0.1976  0.0433  0.0081  0.0001  0.0000  0.0000  0.0000  0.0000  0.0000 </r>
        <r>  0.1976  0.0433  0.0081  0.0001  0.0000  0.0000  0.0000  0.0000  0.0000 </r>
       </set>
       <set comment="band 3">
        <r>  0.0043  0.0160  0.0806  0.0738  0.0000  0.0000  0.0000  0.0000  0.0000 </r>
        <r>  0.0043  0.0160  0.0806  0.0738  0.0000  0.0000  0.0000  0.0000  0.0000 </r>
       </set>
       <set comment="band 4">
        <r>  0.0005  0.0205  0.0693  0.0859  0.0000  0.0000  0.0000  0.0000  0.0000 </r>
        <r>  0.0005  0.0205  0.0693  0.0859  0.0000  0.0000  0.0000  0.0000  0.0000 </r>
       </set>
       <set comment="band 5">
        <r>  0.0394  0.0277  0.0166  0.0252  0.0000  0.0000  0.0000  0.0000  0.0000 </r>
        <r>  0.0394  0.0277  0.0166  0.0252  0.0000  0.0000  0.0000  0.0000  0.0000 </r>
       </set>
       <set comment="band 6">
        <r>  0.0389  0.0216  0.0125  0.0249  0.0000  0.0000  0.0000  0.0000  0.0000 </r>
        <r>  0.0389  0.0216  0.0125  0.0249  0.0000  0.0000  0.0000  0.0000  0.0000 </r>
       </set>
       <set comment="band 7">
        <r>  0.0285  0.0268  0.0334  0.0548  0.0000  0.0000  0.0000  0.0000  0.0000 </r>
        <r>  0.0285  0.0268  0.0334  0.0548  0.0000  0.0000  0.0000  0.0000  0.0000 </r>
       </set>
       <set comment="band 8">
        <r>  0.0191  0.0320  0.0366  0.0609  0.0000  0.0000  0.0000  0.0000  0.0000 </r>
        <r>  0.0190  0.0320  0.0366  0.0609  0.0000  0.0000  0.0000  0.0000  0.0000 </r>
       </set>
       <set comment="band 9">
        <r>  0.0000  0.0188  0.0747  0.0312  0.0000  0.0000  0.0000  0.0000  0.0000 </r>
        <r>  0.0000  0.0186  0.0744  0.0313  0.0000  0.0000  0.0000  0.0000  0.0000 </r>
       </set>
      </set>
      <set comment="kpoint 134">
       <set comment="band 1">
        <r>  0.2031  0.0356  0.0027  0.0002  0.0000  0.0000  0.0000  0.0000  0.0000 </r>
        <r>  0.2031  0.0356  0.0027  0.0002  0.0000  0.0000  0.0000  0.0000  0.0000 </r>
       </set>
       <set comment="band 2">
        <r>  0.1971  0.0454  0.0052  0.0000  0.0000  0.0000  0.0000  0.0000  0.0000 </r>
        <r>  0.1972  0.0454  0.0052  0.0000  0.0000  0.0000  0.0000  0.0000  0.0000 </r>
       </set>
       <set comment="band 3">
        <r>  0.0038  0.0122  0.0846  0.0783  0.0000  0.0000  0.0000  0.0000  0.0000 </r>
        <r>  0.0038  0.0122  0.0846  0.0783  0.0000  0.0000  0.0000  0.0000  0.0000 </r>
       </set>
       <set comment="band 4">
        <r>  0.0009  0.0147  0.0761  0.0882  0.0000  0.0000  0.0000  0.0000  0.0000 </r>
        <r>  0.0009  0.0147  0.0761  0.0882  0.0000  0.0000  0.0000  0.0000  0.0000 </r>
       </set>
       <set comment="band 5">
        <r>  0.0426  0.0292  0.0135  0.0198  0.0000  0.0000  0.0000  0.0000  0.0000 </r>
        <r>  0.0426  0.0292  0.0135  0.0198  0.0000  0.0000  0.0000  0.0000  0.0000 </r>
       </set>
       <set comment="band 6">
        <r>  0.0420  0.0242  0.0106  0.0191  0.0000  0.0000  0.0000  0.0000  0.0000 </r>
        <r>  0.0420  0.0242  0.0106  0.0191  0.0000  0.0000  0.0000  0.0000  0.0000 </r>
       </set>
       <set comment="band 7">
        <r>  0.0235  0.0252  0.0347  0.0616  0.0000  0.0000  0.0000  0.0000  0.0000 </r>
        <r>  0.0235  0.0252  0.0347  0.0617  0.0000  0.0000  0.0000  0.0000  0.0000 </r>
       </set>
       <set comment="band 8">
        <r>  0.0164  0.0263  0.0468  0.0722  0.0000  0.0000  0.0000  0.0000  0.0000 </r>
        <r>  0.0164  0.0264  0.0466  0.0724  0.0000  0.0000  0.0000  0.0000  0.0000 </r>
       </set>
       <set comment="band 9">
        <r>  0.0003  0.0191  0.0670  0.0229  0.0000  0.0000  0.0000  0.0000  0.0000 </r>
        <r>  0.0003  0.0189  0.0665  0.0231  0.0000  0.0000  0.0000  0.0000  0.0000 </r>
       </set>
      </set>
      <set comment="kpoint 135">
       <set comment="band 1">
        <r>  0.2014  0.0380  0.0018  0.0001  0.0000  0.0000  0.0000  0.0000  0.0000 </r>
        <r>  0.2014  0.0380  0.0018  0.0001  0.0000  0.0000  0.0000  0.0000  0.0000 </r>
       </set>
       <set comment="band 2">
        <r>  0.1966  0.0467  0.0031  0.0000  0.0000  0.0000  0.0000  0.0000  0.0000 </r>
        <r>  0.1966  0.0467  0.0031  0.0000  0.0000  0.0000  0.0000  0.0000  0.0000 </r>
       </set>
       <set comment="band 3">
        <r>  0.0029  0.0087  0.0887  0.0832  0.0000  0.0000  0.0000  0.0000  0.0000 </r>
        <r>  0.0029  0.0087  0.0887  0.0832  0.0000  0.0000  0.0000  0.0000  0.0000 </r>
       </set>
       <set comment="band 4">
        <r>  0.0011  0.0098  0.0824  0.0909  0.0000  0.0000  0.0000  0.0000  0.0000 </r>
        <r>  0.0011  0.0098  0.0824  0.0909  0.0000  0.0000  0.0000  0.0000  0.0000 </r>
       </set>
       <set comment="band 5">
        <r>  0.0456  0.0308  0.0100  0.0143  0.0000  0.0000  0.0000  0.0000  0.0000 </r>
        <r>  0.0456  0.0308  0.0100  0.0143  0.0000  0.0000  0.0000  0.0000  0.0000 </r>
       </set>
       <set comment="band 6">
        <r>  0.0448  0.0267  0.0082  0.0137  0.0000  0.0000  0.0000  0.0000  0.0000 </r>
        <r>  0.0448  0.0267  0.0082  0.0137  0.0000  0.0000  0.0000  0.0000  0.0000 </r>
       </set>
       <set comment="band 7">
        <r>  0.0186  0.0226  0.0380  0.0696  0.0000  0.0000  0.0000  0.0000  0.0000 </r>
        <r>  0.0186  0.0226  0.0380  0.0696  0.0000  0.0000  0.0000  0.0000  0.0000 </r>
       </set>
       <set comment="band 8">
        <r>  0.0129  0.0187  0.0646  0.0871  0.0000  0.0000  0.0000  0.0000  0.0000 </r>
        <r>  0.0128  0.0189  0.0639  0.0876  0.0000  0.0000  0.0000  0.0000  0.0000 </r>
       </set>
       <set comment="band 9">
        <r>  0.0014  0.0205  0.0517  0.0115  0.0000  0.0000  0.0000  0.0000  0.0000 </r>
        <r>  0.0015  0.0204  0.0514  0.0116  0.0000  0.0000  0.0000  0.0000  0.0000 </r>
       </set>
      </set>
      <set comment="kpoint 136">
       <set comment="band 1">
        <r>  0.1999  0.0402  0.0010  0.0001  0.0000  0.0000  0.0000  0.0000  0.0000 </r>
        <r>  0.1998  0.0402  0.0010  0.0001  0.0000  0.0000  0.0000  0.0000  0.0000 </r>
       </set>
       <set comment="band 2">
        <r>  0.1962  0.0472  0.0016  0.0000  0.0000  0.0000  0.0000  0.0000  0.0000 </r>
        <r>  0.1962  0.0472  0.0016  0.0000  0.0000  0.0000  0.0000  0.0000  0.0000 </r>
       </set>
       <set comment="band 3">
        <r>  0.0019  0.0053  0.0927  0.0883  0.0000  0.0000  0.0000  0.0000  0.0000 </r>
        <r>  0.0019  0.0053  0.0927  0.0883  0.0000  0.0000  0.0000  0.0000  0.0000 </r>
       </set>
       <set comment="band 4">
        <r>  0.0010  0.0057  0.0880  0.0937  0.0000  0.0000  0.0000  0.0000  0.0000 </r>
        <r>  0.0010  0.0057  0.0880  0.0937  0.0000  0.0000  0.0000  0.0000  0.0000 </r>
       </set>
       <set comment="band 5">
        <r>  0.0483  0.0323  0.0064  0.0090  0.0000  0.0000  0.0000  0.0000  0.0000 </r>
        <r>  0.0483  0.0323  0.0064  0.0090  0.0000  0.0000  0.0000  0.0000  0.0000 </r>
       </set>
       <set comment="band 6">
        <r>  0.0474  0.0291  0.0055  0.0086  0.0000  0.0000  0.0000  0.0000  0.0000 </r>
        <r>  0.0474  0.0291  0.0055  0.0086  0.0000  0.0000  0.0000  0.0000  0.0000 </r>
       </set>
       <set comment="band 7">
        <r>  0.0134  0.0183  0.0452  0.0808  0.0000  0.0000  0.0000  0.0000  0.0000 </r>
        <r>  0.0134  0.0182  0.0452  0.0808  0.0000  0.0000  0.0000  0.0000  0.0000 </r>
       </set>
       <set comment="band 8">
        <r>  0.0080  0.0098  0.0898  0.1022  0.0000  0.0000  0.0000  0.0000  0.0000 </r>
        <r>  0.0080  0.0100  0.0894  0.1024  0.0000  0.0000  0.0000  0.0000  0.0000 </r>
       </set>
       <set comment="band 9">
        <r>  0.0034  0.0217  0.0288  0.0014  0.0000  0.0000  0.0000  0.0000  0.0000 </r>
        <r>  0.0034  0.0217  0.0289  0.0014  0.0000  0.0000  0.0000  0.0000  0.0000 </r>
       </set>
      </set>
      <set comment="kpoint 137">
       <set comment="band 1">
        <r>  0.1985  0.0421  0.0005  0.0000  0.0000  0.0000  0.0000  0.0000  0.0000 </r>
        <r>  0.1985  0.0421  0.0005  0.0000  0.0000  0.0000  0.0000  0.0000  0.0000 </r>
       </set>
       <set comment="band 2">
        <r>  0.1960  0.0471  0.0007  0.0000  0.0000  0.0000  0.0000  0.0000  0.0000 </r>
        <r>  0.1960  0.0471  0.0007  0.0000  0.0000  0.0000  0.0000  0.0000  0.0000 </r>
       </set>
       <set comment="band 3">
        <r>  0.0010  0.0026  0.0959  0.0929  0.0000  0.0000  0.0000  0.0000  0.0000 </r>
        <r>  0.0010  0.0026  0.0959  0.0929  0.0000  0.0000  0.0000  0.0000  0.0000 </r>
       </set>
       <set comment="band 4">
        <r>  0.0006  0.0027  0.0928  0.0963  0.0000  0.0000  0.0000  0.0000  0.0000 </r>
        <r>  0.0006  0.0027  0.0928  0.0963  0.0000  0.0000  0.0000  0.0000  0.0000 </r>
       </set>
       <set comment="band 5">
        <r>  0.0505  0.0336  0.0031  0.0043  0.0000  0.0000  0.0000  0.0000  0.0000 </r>
        <r>  0.0505  0.0336  0.0031  0.0043  0.0000  0.0000  0.0000  0.0000  0.0000 </r>
       </set>
       <set comment="band 6">
        <r>  0.0496  0.0314  0.0028  0.0042  0.0000  0.0000  0.0000  0.0000  0.0000 </r>
        <r>  0.0496  0.0314  0.0028  0.0042  0.0000  0.0000  0.0000  0.0000  0.0000 </r>
       </set>
       <set comment="band 7">
        <r>  0.0076  0.0113  0.0611  0.0980  0.0000  0.0000  0.0000  0.0000  0.0000 </r>
        <r>  0.0076  0.0113  0.0610  0.0980  0.0000  0.0000  0.0000  0.0000  0.0000 </r>
       </set>
       <set comment="band 8">
        <r>  0.0035  0.0036  0.1112  0.1088  0.0000  0.0000  0.0000  0.0000  0.0000 </r>
        <r>  0.0035  0.0037  0.1106  0.1091  0.0000  0.0000  0.0000  0.0000  0.0000 </r>
       </set>
       <set comment="band 9">
        <r>  0.0043  0.0178  0.0102  0.0015  0.0000  0.0000  0.0000  0.0000  0.0000 </r>
        <r>  0.0042  0.0180  0.0107  0.0016  0.0000  0.0000  0.0000  0.0000  0.0000 </r>
       </set>
      </set>
      <set comment="kpoint 138">
       <set comment="band 1">
        <r>  0.1975  0.0439  0.0001  0.0000  0.0000  0.0000  0.0000  0.0000  0.0000 </r>
        <r>  0.1974  0.0439  0.0001  0.0000  0.0000  0.0000  0.0000  0.0000  0.0000 </r>
       </set>
       <set comment="band 2">
        <r>  0.1961  0.0464  0.0002  0.0000  0.0000  0.0000  0.0000  0.0000  0.0000 </r>
        <r>  0.1962  0.0464  0.0002  0.0000  0.0000  0.0000  0.0000  0.0000  0.0000 </r>
       </set>
       <set comment="band 3">
        <r>  0.0002  0.0007  0.0979  0.0964  0.0000  0.0000  0.0000  0.0000  0.0000 </r>
        <r>  0.0002  0.0007  0.0980  0.0964  0.0000  0.0000  0.0000  0.0000  0.0000 </r>
       </set>
       <set comment="band 4">
        <r>  0.0002  0.0007  0.0964  0.0980  0.0000  0.0000  0.0000  0.0000  0.0000 </r>
        <r>  0.0002  0.0007  0.0963  0.0981  0.0000  0.0000  0.0000  0.0000  0.0000 </r>
       </set>
       <set comment="band 5">
        <r>  0.0518  0.0343  0.0008  0.0011  0.0000  0.0000  0.0000  0.0000  0.0000 </r>
        <r>  0.0518  0.0343  0.0008  0.0011  0.0000  0.0000  0.0000  0.0000  0.0000 </r>
       </set>
       <set comment="band 6">
        <r>  0.0513  0.0332  0.0008  0.0011  0.0000  0.0000  0.0000  0.0000  0.0000 </r>
        <r>  0.0513  0.0332  0.0008  0.0011  0.0000  0.0000  0.0000  0.0000  0.0000 </r>
       </set>
       <set comment="band 7">
        <r>  0.0021  0.0030  0.0927  0.1194  0.0000  0.0000  0.0000  0.0000  0.0000 </r>
        <r>  0.0020  0.0030  0.0922  0.1195  0.0000  0.0000  0.0000  0.0000  0.0000 </r>
       </set>
       <set comment="band 8">
        <r>  0.0010  0.0009  0.1208  0.1119  0.0000  0.0000  0.0000  0.0000  0.0000 </r>
        <r>  0.0009  0.0009  0.1206  0.1117  0.0000  0.0000  0.0000  0.0000  0.0000 </r>
       </set>
       <set comment="band 9">
        <r>  0.0021  0.0076  0.0037  0.0079  0.0000  0.0000  0.0000  0.0000  0.0000 </r>
        <r>  0.0022  0.0074  0.0036  0.0079  0.0000  0.0000  0.0000  0.0000  0.0000 </r>
       </set>
      </set>
      <set comment="kpoint 139">
       <set comment="band 1">
        <r>  0.3928  0.0001  0.0000  0.0000  0.0000  0.0000  0.0000  0.0000  0.0000 </r>
        <r>  0.0005  0.0906  0.0000  0.0000  0.0000  0.0000  0.0000  0.0000  0.0000 </r>
       </set>
       <set comment="band 2">
        <r>  0.0005  0.0906  0.0000  0.0000  0.0000  0.0000  0.0000  0.0000  0.0000 </r>
        <r>  0.3928  0.0001  0.0000  0.0000  0.0000  0.0000  0.0000  0.0000  0.0000 </r>
       </set>
       <set comment="band 3">
        <r>  0.0000  0.0000  0.0414  0.1549  0.0000  0.0000  0.0000  0.0000  0.0000 </r>
        <r>  0.0000  0.0000  0.1549  0.0414  0.0000  0.0000  0.0000  0.0000  0.0000 </r>
       </set>
       <set comment="band 4">
        <r>  0.0000  0.0000  0.1549  0.0414  0.0000  0.0000  0.0000  0.0000  0.0000 </r>
        <r>  0.0000  0.0000  0.0414  0.1549  0.0000  0.0000  0.0000  0.0000  0.0000 </r>
       </set>
       <set comment="band 5">
        <r>  0.0063  0.0642  0.0000  0.0000  0.0000  0.0000  0.0000  0.0000  0.0000 </r>
        <r>  0.0978  0.0042  0.0000  0.0000  0.0000  0.0000  0.0000  0.0000  0.0000 </r>
       </set>
       <set comment="band 6">
        <r>  0.0978  0.0042  0.0000  0.0000  0.0000  0.0000  0.0000  0.0000  0.0000 </r>
        <r>  0.0063  0.0642  0.0000  0.0000  0.0000  0.0000  0.0000  0.0000  0.0000 </r>
       </set>
       <set comment="band 7">
        <r>  0.0000  0.0000  0.1220  0.1176  0.0000  0.0000  0.0000  0.0000  0.0000 </r>
        <r>  0.0000  0.0000  0.1176  0.1219  0.0000  0.0000  0.0000  0.0000  0.0000 </r>
       </set>
       <set comment="band 8">
        <r>  0.0000  0.0000  0.1149  0.1256  0.0000  0.0000  0.0000  0.0000  0.0000 </r>
        <r>  0.0000  0.0000  0.1179  0.1202  0.0000  0.0000  0.0000  0.0000  0.0000 </r>
       </set>
       <set comment="band 9">
        <r>  0.0000  0.0000  0.0066  0.0054  0.0000  0.0000  0.0000  0.0000  0.0000 </r>
        <r>  0.0000  0.0000  0.0054  0.0066  0.0000  0.0000  0.0000  0.0000  0.0000 </r>
       </set>
      </set>
     </set>
    </set>
   </array>
  </projected>
 </calculation>
 <structure name="finalpos" >
  <crystal>
   <varray name="basis" >
    <v>       0.00000000       2.73461054       2.73461054 </v>
    <v>       2.73461054      -0.00000000       2.73461054 </v>
    <v>       2.73461054       2.73461054       0.00000000 </v>
   </varray>
   <i name="volume">     40.89935362 </i>
   <varray name="rec_basis" >
    <v>      -0.18284139       0.18284139       0.18284139 </v>
    <v>       0.18284139      -0.18284139       0.18284139 </v>
    <v>       0.18284139       0.18284139      -0.18284139 </v>
   </varray>
  </crystal>
  <varray name="positions" >
   <v>       0.00000000       0.00000000       0.00000000 </v>
   <v>       0.25000000       0.25000000       0.25000000 </v>
  </varray>
 </structure>
</modeling>
